Pd Bulk                                 
   1.00000000000000     
     2.7951855128999998    0.0000000000000000    0.0000000000000000
     1.3975927584300001    2.4207016643100001    0.0000000000000000
     0.0000000000000000    0.0000000000000000   23.6935564930900000
   Pd
     6
Selective dynamics
Direct
  0.0000000000000000  0.0000000000000000  0.0006820857392325   T   T   T
  0.0000000000000000  0.0000000000000000  0.2886686480292543   T   T   T
  0.3333333333300033  0.3333333333300033  0.0970751151471147   T   T   T
  0.3333333333300033  0.3333333333300033  0.3845451549428902   T   T   T
  0.6666666666699967  0.6666666666699967  0.1929516220607436   T   T   T
  0.6666666666699967  0.6666666666699967  0.4809381843507654   T   T   T
 
  0.00000000E+00  0.00000000E+00  0.00000000E+00
  0.00000000E+00  0.00000000E+00  0.00000000E+00
  0.00000000E+00  0.00000000E+00  0.00000000E+00
  0.00000000E+00  0.00000000E+00  0.00000000E+00
  0.00000000E+00  0.00000000E+00  0.00000000E+00
  0.00000000E+00  0.00000000E+00  0.00000000E+00
