Pd Bulk                                 
 1.00000000000
 2.79518551290 0.00000000000 0.00000000000
 1.39759275843 2.42070166431 0.00000000000
 0.00000000000 0.00000000000 23.69355649309
 6 
Selective dynamics
Direct
0.00000000000 0.00000000000 0.00000000000  T  T  T
0.00000000000 0.00000000000 0.28897216205  T  T  T
0.33333333333 0.33333333333 0.09632405402  T  T  T
0.33333333333 0.33333333333 0.38529621607  T  T  T
0.66666666667 0.66666666667 0.19264810804  T  T  T
0.66666666667 0.66666666667 0.48162027009  T  T  T
