Cu Suf2                                 
   1.00000000000000     
     3.6313548569999998    0.0000000000000000    0.0000000000000000
     0.0000000000000000    2.5677556436000000    0.0000000000000000
     0.0000000000000000    0.0000000000000000   17.7032669308099990
   Cu
     6
Selective dynamics
Direct
  0.0000000000000000  0.0000000000000000  0.0049590294093147   T   T   T
  0.0000000000000000  0.0000000000000000  0.1458504273122141   T   T   T
  0.0000000000000000  0.0000000000000000  0.2925342046271930   T   T   T
  0.5000000000000000  0.5000000000000000  0.0700762183028039   T   T   T
  0.5000000000000000  0.5000000000000000  0.2167599956177828   T   T   T
  0.5000000000000000  0.5000000000000000  0.3576513935206820   T   T   T
 
  0.00000000E+00  0.00000000E+00  0.00000000E+00
  0.00000000E+00  0.00000000E+00  0.00000000E+00
  0.00000000E+00  0.00000000E+00  0.00000000E+00
  0.00000000E+00  0.00000000E+00  0.00000000E+00
  0.00000000E+00  0.00000000E+00  0.00000000E+00
  0.00000000E+00  0.00000000E+00  0.00000000E+00
