 vasp.5.2.12 11Nov11 complex                                                    
  
 executed on             LinuxIFC date 2016.03.03  23:30:53
 running on    2 nodes
 distr:  one band on    1 nodes,    2 groups


--------------------------------------------------------------------------------------------------------


 INCAR:
 POTCAR:   PAW_PBE Cu 05Jan2001                   
 POTCAR:   PAW_PBE Cu 05Jan2001                   
   VRHFIN =Cu: d10 p1                                                           
   LEXCH  = PE                                                                  
   EATOM  =  1390.9800 eV,  102.2341 Ry                                         
                                                                                
   TITEL  = PAW_PBE Cu 05Jan2001                                                
   LULTRA =        F    use ultrasoft PP ?                                      
   IUNSCR =        1    unscreen: 0-lin 1-nonlin 2-no                           
   RPACOR =    2.000    partial core radius                                     
   POMASS =   63.546; ZVAL   =   11.000    mass and valenz                      
   RCORE  =    2.300    outmost cutoff radius                                   
   RWIGS  =    2.480; RWIGS  =    1.312    wigner-seitz radius (au A)           
   ENMAX  =  273.214; ENMIN  =  204.910 eV                                      
   RCLOC  =    1.712    cutoff for local pot                                    
   LCOR   =        T    correct aug charges                                     
   LPAW   =        T    paw PP                                                  
   EAUG   =  516.456                                                            
   DEXC   =    -.008                                                            
   RMAX   =    2.789    core radius for proj-oper                               
   RAUG   =    1.300    factor for augmentation sphere                          
   RDEP   =    2.302    radius for radial grids                                 
   QCUT   =   -4.481; QGAM   =    8.962    optimization parameters              
                                                                                
   Description                                                                  
     l     E      TYP  RCUT    TYP  RCUT                                        
     2   .000     23  2.300                                                     
     2   .000     23  2.300                                                     
     0   .000     23  2.300                                                     
     0   .000     23  2.300                                                     
     1  -.200     23  2.300                                                     
     1   .000     23  2.300                                                     
     3   .000      7   .000                                                     
  local pseudopotential read in
  partial core-charges read in
  atomic valenz-charges read in
  non local Contribution for L=           2  read in
    real space projection operators read in
  non local Contribution for L=           2  read in
    real space projection operators read in
  non local Contribution for L=           0  read in
    real space projection operators read in
  non local Contribution for L=           0  read in
    real space projection operators read in
  non local Contribution for L=           1  read in
    real space projection operators read in
  non local Contribution for L=           1  read in
    real space projection operators read in
    PAW grid and wavefunctions read in
 
   number of l-projection  operators is LMAX  =           6
   number of lm-projection operators is LMMAX =          18
 
 PAW_PBE Cu 05Jan2001                   :
 energy of atom  1       EATOM=-1390.9800
 kinetic energy error for atom=    0.0086 (will be added to EATOM!!)
 
 
 POSCAR: Cu Suf2                                 
  positions in direct lattice
  No initial velocities read in
 exchange correlation table for  LEXCH =        8
   RHO(1)=    0.500       N(1)  =     2000
   RHO(2)=  100.500       N(2)  =     4000
 


--------------------------------------------------------------------------------------------------------


 ion  position               nearest neighbor table
   1  0.000  0.000  0.000-   2 2.57   4 2.57   4 2.57   4 2.57   4 2.57
   2  0.000  0.000  0.145-   1 2.57   3 2.57   4 2.57   4 2.57   4 2.57   4 2.57   5 2.57   5 2.57
                             5 2.57   5 2.57
   3  0.000  0.000  0.290-   2 2.57   5 2.57   5 2.57   5 2.57   5 2.57   6 2.57   6 2.57   6 2.57
                             6 2.57
   4  0.500  0.500  0.073-   5 2.57   2 2.57   2 2.57   2 2.57   2 2.57   1 2.57   1 2.57   1 2.57
                             1 2.57
   5  0.500  0.500  0.218-   4 2.57   6 2.57   3 2.57   3 2.57   3 2.57   3 2.57   2 2.57   2 2.57
                             2 2.57   2 2.57
   6  0.500  0.500  0.363-   5 2.57   3 2.57   3 2.57   3 2.57   3 2.57
 
  LATTYP: Found a simple orthorhombic cell.
 ALAT       =     2.5677556436
 B/A-ratio  =     1.4142135627
 C/A-ratio  =     6.8944515709
  
  Lattice vectors:
  
 A1 = (   0.0000000000,  -2.5677556436,   0.0000000000)
 A2 = (  -3.6313548570,   0.0000000000,   0.0000000000)
 A3 = (   0.0000000000,   0.0000000000, -17.7032669308)
 Subroutine PRICEL returns:
 Original cell was already a primitive cell.
 

Analysis of symmetry for initial positions (statically):

 Routine SETGRP: Setting up the symmetry group for a 
 simple orthorhombic supercell.


 Subroutine GETGRP returns: Found  8 space group operations
 (whereof  4 operations were pure point group operations)
 out of a pool of  8 trial point group operations.


The static configuration has the point symmetry C_2v.
 The point group associated with its full space group is D_2h.

Analysis of symmetry for dynamics (positions and initial velocities):

 Subroutine DYNSYM returns: Found  8 space group operations
 (whereof  4 operations were pure point group operations)
 out of a pool of  8 trial space group operations
 (whereof  4 operations were pure point group operations)
 and found also     1 'primitive' translations


The dynamic configuration has the point symmetry C_2v.
 The point group associated with its full space group is D_2h.

Analysis of constrained symmetry for selective dynamics:

 Subroutine DYNSYM returns: Found  8 space group operations
 (whereof  4 operations were pure point group operations)
 out of a pool of  8 trial space group operations
 (whereof  4 operations were pure point group operations)
 and found also     1 'primitive' translations


The constrained configuration has the point symmetry C_2v.
 The point group associated with its full space group is D_2h.
 
 
 KPOINTS: K-Points                                

Automatic generation of k-mesh.
 
 Subroutine IBZKPT returns following result:
 ===========================================
 
 Found     16 irreducible k-points:
 
 Following reciprocal coordinates:
            Coordinates               Weight
  0.000000  0.000000  0.000000      1.000000
  0.142857  0.000000  0.000000      2.000000
  0.285714  0.000000  0.000000      2.000000
  0.428571  0.000000  0.000000      2.000000
  0.000000  0.142857  0.000000      2.000000
  0.142857  0.142857  0.000000      4.000000
  0.285714  0.142857  0.000000      4.000000
  0.428571  0.142857  0.000000      4.000000
  0.000000  0.285714  0.000000      2.000000
  0.142857  0.285714  0.000000      4.000000
  0.285714  0.285714  0.000000      4.000000
  0.428571  0.285714  0.000000      4.000000
  0.000000  0.428571  0.000000      2.000000
  0.142857  0.428571  0.000000      4.000000
  0.285714  0.428571  0.000000      4.000000
  0.428571  0.428571  0.000000      4.000000
 
 Following cartesian coordinates:
            Coordinates               Weight
  0.000000  0.000000  0.000000      1.000000
  0.039340  0.000000  0.000000      2.000000
  0.078680  0.000000  0.000000      2.000000
  0.118020  0.000000  0.000000      2.000000
  0.000000  0.055635  0.000000      2.000000
  0.039340  0.055635  0.000000      4.000000
  0.078680  0.055635  0.000000      4.000000
  0.118020  0.055635  0.000000      4.000000
  0.000000  0.111270  0.000000      2.000000
  0.039340  0.111270  0.000000      4.000000
  0.078680  0.111270  0.000000      4.000000
  0.118020  0.111270  0.000000      4.000000
  0.000000  0.166905  0.000000      2.000000
  0.039340  0.166905  0.000000      4.000000
  0.078680  0.166905  0.000000      4.000000
  0.118020  0.166905  0.000000      4.000000
 
 TETIRR: Found    127 inequivalent tetrahedra from      294


--------------------------------------------------------------------------------------------------------




 Dimension of arrays:
   k-points           NKPTS =     16   k-points in BZ     NKDIM =     16   number of bands    NBANDS=     40
   number of dos      NEDOS =    301   number of ions     NIONS =      6
   non local maximal  LDIM  =      6   non local SUM 2l+1 LMDIM =     18
   total plane-waves  NPLWV =  22680
   max r-space proj   IRMAX =      1   max aug-charges    IRDMAX=   5021
   dimension x,y,z NGX =    18 NGY =   14 NGZ =   90
   dimension x,y,z NGXF=    36 NGYF=   28 NGZF=  180
   support grid    NGXF=    36 NGYF=   28 NGZF=  180
   ions per type =               6
 NGX,Y,Z   is equivalent  to a cutoff of   8.24,  9.06,  8.45 a.u.
 NGXF,Y,Z  is equivalent  to a cutoff of  16.48, 18.13, 16.90 a.u.


 I would recommend the setting:
   dimension x,y,z NGX =    18 NGY =   13 NGZ =   88
 SYSTEM =  unknown system                          
 POSCAR =  Cu Suf2                                 

 Startparameter for this run:
   NWRITE =      2    write-flag & timer
   PREC   = normal    normal or accurate (medium, high low for compatibility)
   ISTART =      0    job   : 0-new  1-cont  2-samecut
   ICHARG =      2    charge: 1-file 2-atom 10-const
   ISPIN  =      1    spin polarized calculation?
   LNONCOLLINEAR =      F non collinear calculations
   LSORBIT =      F    spin-orbit coupling
   INIWAV =      1    electr: 0-lowe 1-rand  2-diag
   LASPH  =      F    aspherical Exc in radial PAW
   METAGGA=      F    non-selfconsistent MetaGGA calc.

 Electronic Relaxation 1
   ENCUT  =  415.0 eV  30.50 Ry    5.52 a.u.   6.03  4.27 29.41*2*pi/ulx,y,z
   ENINI  =  415.0     initial cutoff
   ENAUG  =  516.5 eV  augmentation charge cutoff
   NELM   =    101;   NELMIN=  2; NELMDL= -5     # of ELM steps 
   EDIFF  = 0.1E-05   stopping-criterion for ELM
   LREAL  =      F    real-space projection
   NLSPLINE    = F    spline interpolate recip. space projectors
   LCOMPAT=      F    compatible to vasp.4.4
   GGA_COMPAT  = T    GGA compatible to vasp.4.4-vasp.4.6
   LMAXPAW     = -100 max onsite density
   LMAXMIX     =    2 max onsite mixed and CHGCAR
   VOSKOWN=      0    Vosko Wilk Nusair interpolation
   ROPT   =    0.00000
 Ionic relaxation
   EDIFFG = 0.1E-03   stopping-criterion for IOM
   NSW    =    101    number of steps for IOM
   NBLOCK =      1;   KBLOCK =    101    inner block; outer block 
   IBRION =      2    ionic relax: 0-MD 1-quasi-New 2-CG
   NFREE  =      1    steps in history (QN), initial steepest desc. (CG)
   ISIF   =      2    stress and relaxation
   IWAVPR =     11    prediction:  0-non 1-charg 2-wave 3-comb
   ISYM   =      2    0-nonsym 1-usesym 2-fastsym
   LCORR  =      T    Harris-Foulkes like correction to forces

   POTIM  = 0.0500    time-step for ionic-motion
   TEIN   =    0.0    initial temperature
   TEBEG  =    0.0;   TEEND  =   0.0 temperature during run
   SMASS  =  -3.00    Nose mass-parameter (am)
   estimated Nose-frequenzy (Omega)   =  0.10E-29 period in steps =****** mass=  -0.301E-27a.u.
   SCALEE = 1.0000    scale energy and forces
   NPACO  =    256;   APACO  = 16.0  distance and # of slots for P.C.
   PSTRESS=    0.0 pullay stress

  Mass of Ions in am
   POMASS =  63.55
  Ionic Valenz
   ZVAL   =  11.00
  Atomic Wigner-Seitz radii
   RWIGS  =  -1.00
  virtual crystal weights 
   VCA    =   1.00
   NELECT =      66.0000    total number of electrons
   NUPDOWN=      -1.0000    fix difference up-down

 DOS related values:
   EMIN   =  10.00;   EMAX   =-10.00  energy-range for DOS
   EFERMI =   0.00
   ISMEAR =    -5;   SIGMA  =   0.20  broadening in eV -4-tet -1-fermi 0-gaus

 Electronic relaxation 2 (details)
   IALGO  =     38    algorithm
   LDIAG  =      T    sub-space diagonalisation (order eigenvalues)
   LSUBROT=      T    optimize rotation matrix (better conditioning)
   TURBO    =      0    0=normal 1=particle mesh
   IRESTART =      0    0=no restart 2=restart with 2 vectors
   NREBOOT  =      0    no. of reboots
   NMIN     =      0    reboot dimension
   EREF     =   0.00    reference energy to select bands
   IMIX   =      4    mixing-type and parameters
     AMIX     =   0.40;   BMIX     =  1.00
     AMIX_MAG =   1.60;   BMIX_MAG =  1.00
     AMIN     =   0.10
     WC   =   100.;   INIMIX=   1;  MIXPRE=   1

 Intra band minimization:
   WEIMIN = 0.0010     energy-eigenvalue tresh-hold
   EBREAK =  0.62E-08  absolut break condition
   DEPER  =   0.30     relativ break condition  

   TIME   =   0.40     timestep for ELM

  volume/ion in A,a.u.               =      27.51       185.66
  Fermi-wavevector in a.u.,A,eV,Ry     =   1.206047  2.279098 19.790343  1.454549
  Thomas-Fermi vector in A             =   2.341726
 
 Write flags
   LWAVE  =      T    write WAVECAR
   LCHARG =      T    write CHGCAR
   LVTOT  =      F    write LOCPOT, total local potential
   LVHAR  =      F    write LOCPOT, Hartree potential only
   LELF   =      F    write electronic localiz. function (ELF)
   LORBIT =      0    0 simple, 1 ext, 2 COOP (PROOUT)


 Dipole corrections
   LMONO  =      F    monopole corrections only (constant potential shift)
   LDIPOL =      F    correct potential (dipole corrections)
   IDIPOL =      0    1-x, 2-y, 3-z, 4-all directions 
   EPSILON=  1.0000000 bulk dielectric constant

 Exchange correlation treatment:
   GGA     =    PE    GGA type
   LEXCH   =     8    internal setting for exchange type
   VOSKOWN=      0    Vosko Wilk Nusair interpolation
   LHFCALC =     F    Hartree Fock is set to
   LHFONE  =     F    Hartree Fock one center treatment
   AEXX    =    0.0000 exact exchange contribution

 Linear response parameters
   LEPSILON=     F    determine dielectric tensor
   LRPA    =     F    only Hartree local field effects (RPA)
   LNABLA  =     F    use nabla operator in PAW spheres
   LVEL    =     F    velocity operator in full k-point grid
   LINTERFAST=   F  fast interpolation
   KINTER  =     0    interpolate to denser k-point grid
   CSHIFT  =0.1000    complex shift for real part using Kramers Kronig
   OMEGAMAX=  -1.0    maximum frequency
   RTIME   =    0.100 relaxation time in fs

 Orbital magnetization related:
   ORBITALMAG=     F  switch on orbital magnetization
   LCHIMAG   =     F  perturbation theory with respect to B field
   DQ        =  0.001000  dq finite difference perturbation B field



--------------------------------------------------------------------------------------------------------


 conjugate gradient relaxation of ions
   using selective dynamics as specified on POSCAR
 charge density and potential will be updated during run
 non-spin polarized calculation
 Variant of blocked Davidson
 Davidson routine will perform the subspace rotation
 perform sub-space diagonalisation
    after iterative eigenvector-optimisation
 modified Broyden-mixing scheme, WC =      100.0
 initial mixing is a Kerker type mixing with AMIX =  0.4000 and BMIX =      1.0000
 Hartree-type preconditioning will be used
 using additional bands            7
 reciprocal scheme for non local part
 use partial core corrections
 calculate Harris-corrections to forces 
   (improved forces if not selfconsistent)
 use gradient corrections 
 use of overlap-Matrix (Vanderbilt PP)
 Fermi weights with tetrahedron method with Bloechl corrections


--------------------------------------------------------------------------------------------------------


  energy-cutoff  :      415.00
  volume of cell :      165.07
      direct lattice vectors                 reciprocal lattice vectors
     3.631354857  0.000000000  0.000000000     0.275379311  0.000000000  0.000000000
     0.000000000  2.567755644  0.000000000     0.000000000  0.389445157  0.000000000
     0.000000000  0.000000000 17.703266931     0.000000000  0.000000000  0.056486749

  length of vectors
     3.631354857  2.567755644 17.703266931     0.275379311  0.389445157  0.056486749


 
 k-points in units of 2pi/SCALE and weight: K-Points                                
   0.00000000  0.00000000  0.00000000       0.020
   0.03933990  0.00000000  0.00000000       0.041
   0.07867980  0.00000000  0.00000000       0.041
   0.11801970  0.00000000  0.00000000       0.041
   0.00000000  0.05563502  0.00000000       0.041
   0.03933990  0.05563502  0.00000000       0.082
   0.07867980  0.05563502  0.00000000       0.082
   0.11801970  0.05563502  0.00000000       0.082
   0.00000000  0.11127004  0.00000000       0.041
   0.03933990  0.11127004  0.00000000       0.082
   0.07867980  0.11127004  0.00000000       0.082
   0.11801970  0.11127004  0.00000000       0.082
   0.00000000  0.16690507  0.00000000       0.041
   0.03933990  0.16690507  0.00000000       0.082
   0.07867980  0.16690507  0.00000000       0.082
   0.11801970  0.16690507  0.00000000       0.082
 
 k-points in reciprocal lattice and weights: K-Points                                
   0.00000000  0.00000000  0.00000000       0.020
   0.14285714  0.00000000  0.00000000       0.041
   0.28571429  0.00000000  0.00000000       0.041
   0.42857143  0.00000000  0.00000000       0.041
   0.00000000  0.14285714  0.00000000       0.041
   0.14285714  0.14285714  0.00000000       0.082
   0.28571429  0.14285714  0.00000000       0.082
   0.42857143  0.14285714  0.00000000       0.082
   0.00000000  0.28571429  0.00000000       0.041
   0.14285714  0.28571429  0.00000000       0.082
   0.28571429  0.28571429  0.00000000       0.082
   0.42857143  0.28571429  0.00000000       0.082
   0.00000000  0.42857143  0.00000000       0.041
   0.14285714  0.42857143  0.00000000       0.082
   0.28571429  0.42857143  0.00000000       0.082
   0.42857143  0.42857143  0.00000000       0.082
 
 position of ions in fractional coordinates (direct lattice) 
   0.00000000  0.00000000  0.00000000
   0.00000000  0.00000000  0.14504417
   0.00000000  0.00000000  0.29008834
   0.50000000  0.50000000  0.07252208
   0.50000000  0.50000000  0.21756625
   0.50000000  0.50000000  0.36261042
 
 position of ions in cartesian coordinates  (Angst):
   0.00000000  0.00000000  0.00000000
   0.00000000  0.00000000  2.56775564
   0.00000000  0.00000000  5.13551129
   1.81567743  1.28387782  1.28387782
   1.81567743  1.28387782  3.85163347
   1.81567743  1.28387782  6.41938911
 


--------------------------------------------------------------------------------------------------------


 k-point  1 :  0.00000.00000.0000  plane waves:    3175
 k-point  2 :  0.14290.00000.0000  plane waves:    3180
 k-point  3 :  0.28570.00000.0000  plane waves:    3182
 k-point  4 :  0.42860.00000.0000  plane waves:    3160
 k-point  5 :  0.00000.14290.0000  plane waves:    3167
 k-point  6 :  0.14290.14290.0000  plane waves:    3172
 k-point  7 :  0.28570.14290.0000  plane waves:    3186
 k-point  8 :  0.42860.14290.0000  plane waves:    3169
 k-point  9 :  0.00000.28570.0000  plane waves:    3132
 k-point 10 :  0.14290.28570.0000  plane waves:    3144
 k-point 11 :  0.28570.28570.0000  plane waves:    3174
 k-point 12 :  0.42860.28570.0000  plane waves:    3179
 k-point 13 :  0.00000.42860.0000  plane waves:    3138
 k-point 14 :  0.14290.42860.0000  plane waves:    3161
 k-point 15 :  0.28570.42860.0000  plane waves:    3176
 k-point 16 :  0.42860.42860.0000  plane waves:    3198

 maximum and minimum number of plane-waves per node :      3198     3132

 maximum number of plane-waves:      3198
 maximum index in each direction: 
   IXMAX=    6   IYMAX=    4   IZMAX=   29
   IXMIN=   -6   IYMIN=   -4   IZMIN=  -29

 WARNING: aliasing errors must be expected set NGX to  26 to avoid them
 WARNING: aliasing errors must be expected set NGY to  18 to avoid them
 WARNING: aliasing errors must be expected set NGZ to 118 to avoid them
 aliasing errors are usually negligible using standard VASP settings
 and one can safely disregard these warnings

 serial   3D FFT for wavefunctions
 parallel 3D FFT for charge:
    minimum data exchange during FFTs selected (reduces bandwidth)


 total amount of memory used by VASP on root node    63150. kBytes
========================================================================

   base      :      30000. kBytes
   nonl-proj :       7675. kBytes
   fftplans  :       3158. kBytes
   grid      :       5298. kBytes
   one-center:         93. kBytes
   wavefun   :      16926. kBytes
 
 Broyden mixing: mesh for mixing (old mesh)
   NGX = 13   NGY =  9   NGZ = 59
  (NGX  = 36   NGY  = 28   NGZ  =180)
  gives a total of   6903 points

 initial charge density was supplied:
 charge density of overlapping atoms calculated
 number of electron      66.0000000 magnetization 
 keeping initial charge density in first step


--------------------------------------------------------------------------------------------------------


 Maximum index for augmentation-charges         2315 (set IRDMAX)


--------------------------------------------------------------------------------------------------------


 First call to EWALD:  gamma=   0.323
 Maximum number of real-space cells 4x 5x 1
 Maximum number of reciprocal cells 2x 2x 8

    FEWALD:  cpu time    0.00: real time    0.00


----------------------------------------- Iteration    1(   1)  ---------------------------------------


    POTLOK:  cpu time    0.30: real time    0.30
    SETDIJ:  cpu time    0.03: real time    0.03
     EDDAV:  cpu time   12.96: real time   12.96
 BZINTS: Fermi energy:  9.545939; 66.000000 electrons
         Band energy: 268.715495;  BLOECHL correction: -0.062450
       DOS:  cpu time    0.04: real time    0.04
    --------------------------------------------
      LOOP:  cpu time   13.33: real time   13.33

 eigenvalue-minimisations  :  1280
 total energy-change (2. order) : 0.4207220E+03  (-0.2714796E+04)
 number of electron      66.0000000 magnetization 
 augmentation part       66.0000000 magnetization 

 Free energy of the ion-electron system (eV)
  ---------------------------------------------------
  alpha Z        PSCENC =       278.63143507
  Ewald energy   TEWEN  =     13841.74243812
  -1/2 Hartree   DENC   =    -21711.39127038
  -exchange  EXHF       =         0.00000000
  -V(xc)+E(xc)   XCENC  =       261.34366636
  PAW double counting   =      6492.31375417    -7356.46204051
  entropy T*S    EENTRO =         0.00000000
  eigenvalues    EBANDS =       268.71549453
  atomic energy  EATOM  =      8345.82850422
  ---------------------------------------------------
  free energy    TOTEN  =       420.72198158 eV

  energy without entropy =      420.72198158  energy(sigma->0) =      420.72198158


--------------------------------------------------------------------------------------------------------




----------------------------------------- Iteration    1(   2)  ---------------------------------------


     EDDAV:  cpu time   13.02: real time   13.02
 BZINTS: Fermi energy:  0.458474; 66.000000 electrons
         Band energy:-147.644144;  BLOECHL correction: -0.107385
       DOS:  cpu time    0.04: real time    0.04
    --------------------------------------------
      LOOP:  cpu time   13.06: real time   13.07

 eigenvalue-minimisations  :  1280
 total energy-change (2. order) :-0.4163596E+03  (-0.3997269E+03)
 number of electron      66.0000000 magnetization 
 augmentation part       66.0000000 magnetization 

 Free energy of the ion-electron system (eV)
  ---------------------------------------------------
  alpha Z        PSCENC =       278.63143507
  Ewald energy   TEWEN  =     13841.74243812
  -1/2 Hartree   DENC   =    -21711.39127038
  -exchange  EXHF       =         0.00000000
  -V(xc)+E(xc)   XCENC  =       261.34366636
  PAW double counting   =      6492.31375417    -7356.46204051
  entropy T*S    EENTRO =         0.00000000
  eigenvalues    EBANDS =      -147.64414398
  atomic energy  EATOM  =      8345.82850422
  ---------------------------------------------------
  free energy    TOTEN  =         4.36234307 eV

  energy without entropy =        4.36234307  energy(sigma->0) =        4.36234307


--------------------------------------------------------------------------------------------------------




----------------------------------------- Iteration    1(   3)  ---------------------------------------


     EDDAV:  cpu time   14.22: real time   14.22
 BZINTS: Fermi energy: -0.236767; 66.000000 electrons
         Band energy:-176.622616;  BLOECHL correction: -0.134147
       DOS:  cpu time    0.04: real time    0.04
    --------------------------------------------
      LOOP:  cpu time   14.27: real time   14.27

 eigenvalue-minimisations  :  1440
 total energy-change (2. order) :-0.2897847E+02  (-0.2832858E+02)
 number of electron      66.0000000 magnetization 
 augmentation part       66.0000000 magnetization 

 Free energy of the ion-electron system (eV)
  ---------------------------------------------------
  alpha Z        PSCENC =       278.63143507
  Ewald energy   TEWEN  =     13841.74243812
  -1/2 Hartree   DENC   =    -21711.39127038
  -exchange  EXHF       =         0.00000000
  -V(xc)+E(xc)   XCENC  =       261.34366636
  PAW double counting   =      6492.31375417    -7356.46204051
  entropy T*S    EENTRO =         0.00000000
  eigenvalues    EBANDS =      -176.62261573
  atomic energy  EATOM  =      8345.82850422
  ---------------------------------------------------
  free energy    TOTEN  =       -24.61612868 eV

  energy without entropy =      -24.61612868  energy(sigma->0) =      -24.61612868


--------------------------------------------------------------------------------------------------------




----------------------------------------- Iteration    1(   4)  ---------------------------------------


     EDDAV:  cpu time   13.63: real time   13.63
 BZINTS: Fermi energy: -0.243554; 66.000000 electrons
         Band energy:-176.971138;  BLOECHL correction: -0.133985
       DOS:  cpu time    0.04: real time    0.04
    --------------------------------------------
      LOOP:  cpu time   13.67: real time   13.67

 eigenvalue-minimisations  :  1360
 total energy-change (2. order) :-0.3485224E+00  (-0.3483026E+00)
 number of electron      66.0000000 magnetization 
 augmentation part       66.0000000 magnetization 

 Free energy of the ion-electron system (eV)
  ---------------------------------------------------
  alpha Z        PSCENC =       278.63143507
  Ewald energy   TEWEN  =     13841.74243812
  -1/2 Hartree   DENC   =    -21711.39127038
  -exchange  EXHF       =         0.00000000
  -V(xc)+E(xc)   XCENC  =       261.34366636
  PAW double counting   =      6492.31375417    -7356.46204051
  entropy T*S    EENTRO =         0.00000000
  eigenvalues    EBANDS =      -176.97113809
  atomic energy  EATOM  =      8345.82850422
  ---------------------------------------------------
  free energy    TOTEN  =       -24.96465105 eV

  energy without entropy =      -24.96465105  energy(sigma->0) =      -24.96465105


--------------------------------------------------------------------------------------------------------




----------------------------------------- Iteration    1(   5)  ---------------------------------------


     EDDAV:  cpu time   14.92: real time   14.92
 BZINTS: Fermi energy: -0.243582; 66.000000 electrons
         Band energy:-176.973646;  BLOECHL correction: -0.133980
       DOS:  cpu time    0.04: real time    0.04
    CHARGE:  cpu time    0.60: real time    0.60
    MIXING:  cpu time    0.01: real time    0.01
    --------------------------------------------
      LOOP:  cpu time   15.56: real time   15.57

 eigenvalue-minimisations  :  1536
 total energy-change (2. order) :-0.2507503E-02  (-0.2510108E-02)
 number of electron      66.0000015 magnetization 
 augmentation part       40.5108770 magnetization 

 Broyden mixing:
  rms(total) = 0.15739E+01    rms(broyden)= 0.15739E+01
  rms(prec ) = 0.17282E+01
  weight for this iteration     100.00

 Free energy of the ion-electron system (eV)
  ---------------------------------------------------
  alpha Z        PSCENC =       278.63143507
  Ewald energy   TEWEN  =     13841.74243812
  -1/2 Hartree   DENC   =    -21711.39127038
  -exchange  EXHF       =         0.00000000
  -V(xc)+E(xc)   XCENC  =       261.34366636
  PAW double counting   =      6492.31375417    -7356.46204051
  entropy T*S    EENTRO =         0.00000000
  eigenvalues    EBANDS =      -176.97364560
  atomic energy  EATOM  =      8345.82850422
  ---------------------------------------------------
  free energy    TOTEN  =       -24.96715855 eV

  energy without entropy =      -24.96715855  energy(sigma->0) =      -24.96715855


--------------------------------------------------------------------------------------------------------




----------------------------------------- Iteration    1(   6)  ---------------------------------------


    POTLOK:  cpu time    0.29: real time    0.29
    SETDIJ:  cpu time    0.03: real time    0.03
     EDDAV:  cpu time   14.19: real time   14.19
 BZINTS: Fermi energy: -1.871776; 66.000000 electrons
         Band energy:-347.158076;  BLOECHL correction: -0.216576
       DOS:  cpu time    0.04: real time    0.04
    CHARGE:  cpu time    0.59: real time    0.59
    MIXING:  cpu time    0.01: real time    0.01
    --------------------------------------------
      LOOP:  cpu time   15.16: real time   15.16

 eigenvalue-minimisations  :  1440
 total energy-change (2. order) : 0.2435105E+01  (-0.5097258E+01)
 number of electron      66.0000015 magnetization 
 augmentation part       44.8860201 magnetization 

 Broyden mixing:
  rms(total) = 0.78197E+00    rms(broyden)= 0.78191E+00
  rms(prec ) = 0.86838E+00
  weight for this iteration     100.00

 eigenvalues of (default mixing * dielectric matrix)
  average eigenvalue GAMMA=   0.6712
  0.6712

 Free energy of the ion-electron system (eV)
  ---------------------------------------------------
  alpha Z        PSCENC =       278.63143507
  Ewald energy   TEWEN  =     13841.74243812
  -1/2 Hartree   DENC   =    -21576.87982459
  -exchange  EXHF       =         0.00000000
  -V(xc)+E(xc)   XCENC  =       254.31032698
  PAW double counting   =      6341.63168139    -7160.63853947
  entropy T*S    EENTRO =         0.00000000
  eigenvalues    EBANDS =      -347.15807563
  atomic energy  EATOM  =      8345.82850422
  ---------------------------------------------------
  free energy    TOTEN  =       -22.53205392 eV

  energy without entropy =      -22.53205392  energy(sigma->0) =      -22.53205392


--------------------------------------------------------------------------------------------------------




----------------------------------------- Iteration    1(   7)  ---------------------------------------


    POTLOK:  cpu time    0.29: real time    0.29
    SETDIJ:  cpu time    0.03: real time    0.03
     EDDAV:  cpu time   14.57: real time   14.57
 BZINTS: Fermi energy: -1.074339; 66.000000 electrons
         Band energy:-252.183189;  BLOECHL correction: -0.187820
       DOS:  cpu time    0.04: real time    0.04
    CHARGE:  cpu time    0.60: real time    0.60
    MIXING:  cpu time    0.01: real time    0.01
    --------------------------------------------
      LOOP:  cpu time   15.54: real time   15.55

 eigenvalue-minimisations  :  1480
 total energy-change (2. order) : 0.2004482E+01  (-0.9443055E+00)
 number of electron      66.0000015 magnetization 
 augmentation part       43.3935651 magnetization 

 Broyden mixing:
  rms(total) = 0.19345E+00    rms(broyden)= 0.19343E+00
  rms(prec ) = 0.21582E+00
  weight for this iteration     100.00

 eigenvalues of (default mixing * dielectric matrix)
  average eigenvalue GAMMA=   0.5612
  0.6905  0.4320

 Free energy of the ion-electron system (eV)
  ---------------------------------------------------
  alpha Z        PSCENC =       278.63143507
  Ewald energy   TEWEN  =     13841.74243812
  -1/2 Hartree   DENC   =    -21638.58079601
  -exchange  EXHF       =         0.00000000
  -V(xc)+E(xc)   XCENC  =       256.46735567
  PAW double counting   =      6460.52717801    -7312.96049796
  entropy T*S    EENTRO =         0.00000000
  eigenvalues    EBANDS =      -252.18318871
  atomic energy  EATOM  =      8345.82850422
  ---------------------------------------------------
  free energy    TOTEN  =       -20.52757159 eV

  energy without entropy =      -20.52757159  energy(sigma->0) =      -20.52757159


--------------------------------------------------------------------------------------------------------




----------------------------------------- Iteration    1(   8)  ---------------------------------------


    POTLOK:  cpu time    0.29: real time    0.29
    SETDIJ:  cpu time    0.03: real time    0.03
     EDDAV:  cpu time   14.20: real time   14.20
 BZINTS: Fermi energy: -1.006362; 66.000000 electrons
         Band energy:-245.408548;  BLOECHL correction: -0.185394
       DOS:  cpu time    0.04: real time    0.04
    CHARGE:  cpu time    0.60: real time    0.60
    MIXING:  cpu time    0.01: real time    0.01
    --------------------------------------------
      LOOP:  cpu time   15.17: real time   15.17

 eigenvalue-minimisations  :  1424
 total energy-change (2. order) :-0.3933162E-01  (-0.1671492E+00)
 number of electron      66.0000015 magnetization 
 augmentation part       43.2089858 magnetization 

 Broyden mixing:
  rms(total) = 0.14993E+00    rms(broyden)= 0.14992E+00
  rms(prec ) = 0.17448E+00
  weight for this iteration     100.00

 eigenvalues of (default mixing * dielectric matrix)
  average eigenvalue GAMMA=   0.9054
  1.7537  0.6283  0.3343

 Free energy of the ion-electron system (eV)
  ---------------------------------------------------
  alpha Z        PSCENC =       278.63143507
  Ewald energy   TEWEN  =     13841.74243812
  -1/2 Hartree   DENC   =    -21639.40812115
  -exchange  EXHF       =         0.00000000
  -V(xc)+E(xc)   XCENC  =       256.42870929
  PAW double counting   =      6487.44090459    -7345.82222487
  entropy T*S    EENTRO =         0.00000000
  eigenvalues    EBANDS =      -245.40854848
  atomic energy  EATOM  =      8345.82850422
  ---------------------------------------------------
  free energy    TOTEN  =       -20.56690320 eV

  energy without entropy =      -20.56690320  energy(sigma->0) =      -20.56690320


--------------------------------------------------------------------------------------------------------




----------------------------------------- Iteration    1(   9)  ---------------------------------------


    POTLOK:  cpu time    0.30: real time    0.29
    SETDIJ:  cpu time    0.03: real time    0.03
     EDDAV:  cpu time   15.10: real time   15.11
 BZINTS: Fermi energy: -0.890032; 66.000000 electrons
         Band energy:-235.313726;  BLOECHL correction: -0.187670
       DOS:  cpu time    0.04: real time    0.04
    CHARGE:  cpu time    0.58: real time    0.58
    MIXING:  cpu time    0.01: real time    0.01
    --------------------------------------------
      LOOP:  cpu time   16.06: real time   16.06

 eigenvalue-minimisations  :  1552
 total energy-change (2. order) : 0.1947037E-01  (-0.2855074E-01)
 number of electron      66.0000015 magnetization 
 augmentation part       43.0899077 magnetization 

 Broyden mixing:
  rms(total) = 0.12599E+00    rms(broyden)= 0.12599E+00
  rms(prec ) = 0.13923E+00
  weight for this iteration     100.00

 eigenvalues of (default mixing * dielectric matrix)
  average eigenvalue GAMMA=   0.9694
  1.9966  0.7542  0.7542  0.3726

 Free energy of the ion-electron system (eV)
  ---------------------------------------------------
  alpha Z        PSCENC =       278.63143507
  Ewald energy   TEWEN  =     13841.74243812
  -1/2 Hartree   DENC   =    -21641.25847898
  -exchange  EXHF       =         0.00000000
  -V(xc)+E(xc)   XCENC  =       256.11998837
  PAW double counting   =      6527.15033910    -7393.44793288
  entropy T*S    EENTRO =         0.00000000
  eigenvalues    EBANDS =      -235.31372585
  atomic energy  EATOM  =      8345.82850422
  ---------------------------------------------------
  free energy    TOTEN  =       -20.54743283 eV

  energy without entropy =      -20.54743283  energy(sigma->0) =      -20.54743283


--------------------------------------------------------------------------------------------------------




----------------------------------------- Iteration    1(  10)  ---------------------------------------


    POTLOK:  cpu time    0.30: real time    0.30
    SETDIJ:  cpu time    0.04: real time    0.03
     EDDAV:  cpu time   14.04: real time   14.05
 BZINTS: Fermi energy: -0.961867; 66.000000 electrons
         Band energy:-243.936688;  BLOECHL correction: -0.192207
       DOS:  cpu time    0.04: real time    0.04
    CHARGE:  cpu time    0.57: real time    0.57
    MIXING:  cpu time    0.01: real time    0.01
    --------------------------------------------
      LOOP:  cpu time   15.00: real time   15.00

 eigenvalue-minimisations  :  1416
 total energy-change (2. order) : 0.2998935E-01  (-0.8896668E-02)
 number of electron      66.0000015 magnetization 
 augmentation part       43.2419508 magnetization 

 Broyden mixing:
  rms(total) = 0.38494E-01    rms(broyden)= 0.38492E-01
  rms(prec ) = 0.44218E-01
  weight for this iteration     100.00

 eigenvalues of (default mixing * dielectric matrix)
  average eigenvalue GAMMA=   1.0758
  2.5239  1.4086  0.6678  0.4104  0.3680

 Free energy of the ion-electron system (eV)
  ---------------------------------------------------
  alpha Z        PSCENC =       278.63143507
  Ewald energy   TEWEN  =     13841.74243812
  -1/2 Hartree   DENC   =    -21633.07307716
  -exchange  EXHF       =         0.00000000
  -V(xc)+E(xc)   XCENC  =       255.76388851
  PAW double counting   =      6527.95066490    -7393.42460888
  entropy T*S    EENTRO =         0.00000000
  eigenvalues    EBANDS =      -243.93668826
  atomic energy  EATOM  =      8345.82850422
  ---------------------------------------------------
  free energy    TOTEN  =       -20.51744349 eV

  energy without entropy =      -20.51744349  energy(sigma->0) =      -20.51744349


--------------------------------------------------------------------------------------------------------




----------------------------------------- Iteration    1(  11)  ---------------------------------------


    POTLOK:  cpu time    0.30: real time    0.30
    SETDIJ:  cpu time    0.03: real time    0.03
     EDDAV:  cpu time   13.82: real time   13.82
 BZINTS: Fermi energy: -0.992190; 66.000000 electrons
         Band energy:-249.174884;  BLOECHL correction: -0.189406
       DOS:  cpu time    0.04: real time    0.04
    CHARGE:  cpu time    0.60: real time    0.60
    MIXING:  cpu time    0.01: real time    0.01
    --------------------------------------------
      LOOP:  cpu time   14.80: real time   14.81

 eigenvalue-minimisations  :  1384
 total energy-change (2. order) :-0.2427745E-02  (-0.1035562E-01)
 number of electron      66.0000015 magnetization 
 augmentation part       43.3984669 magnetization 

 Broyden mixing:
  rms(total) = 0.68172E-01    rms(broyden)= 0.68170E-01
  rms(prec ) = 0.76967E-01
  weight for this iteration     100.00

 eigenvalues of (default mixing * dielectric matrix)
  average eigenvalue GAMMA=   0.9683
  2.1632  1.2608  0.9246  0.7679  0.3668  0.3263

 Free energy of the ion-electron system (eV)
  ---------------------------------------------------
  alpha Z        PSCENC =       278.63143507
  Ewald energy   TEWEN  =     13841.74243812
  -1/2 Hartree   DENC   =    -21627.19951979
  -exchange  EXHF       =         0.00000000
  -V(xc)+E(xc)   XCENC  =       255.41400519
  PAW double counting   =      6536.36670147    -7402.12855165
  entropy T*S    EENTRO =         0.00000000
  eigenvalues    EBANDS =      -249.17488386
  atomic energy  EATOM  =      8345.82850422
  ---------------------------------------------------
  free energy    TOTEN  =       -20.51987123 eV

  energy without entropy =      -20.51987123  energy(sigma->0) =      -20.51987123


--------------------------------------------------------------------------------------------------------




----------------------------------------- Iteration    1(  12)  ---------------------------------------


    POTLOK:  cpu time    0.30: real time    0.30
    SETDIJ:  cpu time    0.04: real time    0.03
     EDDAV:  cpu time   14.39: real time   14.39
 BZINTS: Fermi energy: -0.936731; 66.000000 electrons
         Band energy:-243.414423;  BLOECHL correction: -0.188221
       DOS:  cpu time    0.04: real time    0.04
    CHARGE:  cpu time    0.64: real time    0.64
    MIXING:  cpu time    0.01: real time    0.01
    --------------------------------------------
      LOOP:  cpu time   15.41: real time   15.41

 eigenvalue-minimisations  :  1456
 total energy-change (2. order) : 0.1006163E-01  (-0.3021125E-02)
 number of electron      66.0000015 magnetization 
 augmentation part       43.3220078 magnetization 

 Broyden mixing:
  rms(total) = 0.21890E-01    rms(broyden)= 0.21889E-01
  rms(prec ) = 0.25813E-01
  weight for this iteration     100.00

 eigenvalues of (default mixing * dielectric matrix)
  average eigenvalue GAMMA=   1.0483
  2.3090  1.7593  0.9838  0.7223  0.8584  0.3634  0.3416

 Free energy of the ion-electron system (eV)
  ---------------------------------------------------
  alpha Z        PSCENC =       278.63143507
  Ewald energy   TEWEN  =     13841.74243812
  -1/2 Hartree   DENC   =    -21631.81478982
  -exchange  EXHF       =         0.00000000
  -V(xc)+E(xc)   XCENC  =       255.55312599
  PAW double counting   =      6541.84505266    -7408.88115285
  entropy T*S    EENTRO =         0.00000000
  eigenvalues    EBANDS =      -243.41442301
  atomic energy  EATOM  =      8345.82850422
  ---------------------------------------------------
  free energy    TOTEN  =       -20.50980960 eV

  energy without entropy =      -20.50980960  energy(sigma->0) =      -20.50980960


--------------------------------------------------------------------------------------------------------




----------------------------------------- Iteration    1(  13)  ---------------------------------------


    POTLOK:  cpu time    0.30: real time    0.30
    SETDIJ:  cpu time    0.04: real time    0.03
     EDDAV:  cpu time   14.16: real time   14.17
 BZINTS: Fermi energy: -0.878108; 66.000000 electrons
         Band energy:-238.511221;  BLOECHL correction: -0.193431
       DOS:  cpu time    0.04: real time    0.04
    CHARGE:  cpu time    0.61: real time    0.61
    MIXING:  cpu time    0.01: real time    0.01
    --------------------------------------------
      LOOP:  cpu time   15.16: real time   15.16

 eigenvalue-minimisations  :  1416
 total energy-change (2. order) :-0.5200512E-02  (-0.1265161E-02)
 number of electron      66.0000015 magnetization 
 augmentation part       43.2599424 magnetization 

 Broyden mixing:
  rms(total) = 0.96170E-02    rms(broyden)= 0.96155E-02
  rms(prec ) = 0.11329E-01
  weight for this iteration     100.00

 eigenvalues of (default mixing * dielectric matrix)
  average eigenvalue GAMMA=   1.1369
  2.3973  2.3973  1.2052  0.8585  0.8585  0.6745  0.3619  0.3422

 Free energy of the ion-electron system (eV)
  ---------------------------------------------------
  alpha Z        PSCENC =       278.63143507
  Ewald energy   TEWEN  =     13841.74243812
  -1/2 Hartree   DENC   =    -21635.86137000
  -exchange  EXHF       =         0.00000000
  -V(xc)+E(xc)   XCENC  =       255.63061632
  PAW double counting   =      6548.58072525    -7416.55613831
  entropy T*S    EENTRO =         0.00000000
  eigenvalues    EBANDS =      -238.51122080
  atomic energy  EATOM  =      8345.82850422
  ---------------------------------------------------
  free energy    TOTEN  =       -20.51501012 eV

  energy without entropy =      -20.51501012  energy(sigma->0) =      -20.51501012


--------------------------------------------------------------------------------------------------------




----------------------------------------- Iteration    1(  14)  ---------------------------------------


    POTLOK:  cpu time    0.30: real time    0.30
    SETDIJ:  cpu time    0.04: real time    0.03
     EDDAV:  cpu time   13.80: real time   13.80
 BZINTS: Fermi energy: -0.867052; 66.000000 electrons
         Band energy:-238.105816;  BLOECHL correction: -0.188199
       DOS:  cpu time    0.04: real time    0.04
    CHARGE:  cpu time    0.64: real time    0.64
    MIXING:  cpu time    0.01: real time    0.01
    --------------------------------------------
      LOOP:  cpu time   14.82: real time   14.83

 eigenvalue-minimisations  :  1376
 total energy-change (2. order) : 0.6209431E-02  (-0.2043665E-03)
 number of electron      66.0000015 magnetization 
 augmentation part       43.2823622 magnetization 

 Broyden mixing:
  rms(total) = 0.36225E-02    rms(broyden)= 0.36223E-02
  rms(prec ) = 0.53206E-02
  weight for this iteration     100.00

 eigenvalues of (default mixing * dielectric matrix)
  average eigenvalue GAMMA=   1.1876
  2.4062  2.4062  1.3958  1.3958  0.8585  0.8585  0.3614  0.3426  0.6631

 Free energy of the ion-electron system (eV)
  ---------------------------------------------------
  alpha Z        PSCENC =       278.63143507
  Ewald energy   TEWEN  =     13841.74243812
  -1/2 Hartree   DENC   =    -21636.70251864
  -exchange  EXHF       =         0.00000000
  -V(xc)+E(xc)   XCENC  =       255.60570352
  PAW double counting   =      6547.61387095    -7415.12241836
  entropy T*S    EENTRO =         0.00000000
  eigenvalues    EBANDS =      -238.10581557
  atomic energy  EATOM  =      8345.82850422
  ---------------------------------------------------
  free energy    TOTEN  =       -20.50880069 eV

  energy without entropy =      -20.50880069  energy(sigma->0) =      -20.50880069


--------------------------------------------------------------------------------------------------------




----------------------------------------- Iteration    1(  15)  ---------------------------------------


    POTLOK:  cpu time    0.30: real time    0.30
    SETDIJ:  cpu time    0.03: real time    0.03
     EDDAV:  cpu time   13.79: real time   13.79
 BZINTS: Fermi energy: -0.844899; 66.000000 electrons
         Band energy:-236.500443;  BLOECHL correction: -0.188464
       DOS:  cpu time    0.04: real time    0.04
    CHARGE:  cpu time    0.60: real time    0.60
    MIXING:  cpu time    0.02: real time    0.01
    --------------------------------------------
      LOOP:  cpu time   14.78: real time   14.78

 eigenvalue-minimisations  :  1368
 total energy-change (2. order) :-0.2758709E-03  (-0.2196319E-04)
 number of electron      66.0000015 magnetization 
 augmentation part       43.2813380 magnetization 

 Broyden mixing:
  rms(total) = 0.22581E-02    rms(broyden)= 0.22581E-02
  rms(prec ) = 0.30167E-02
  weight for this iteration     100.00

 eigenvalues of (default mixing * dielectric matrix)
  average eigenvalue GAMMA=   1.3644
  3.4746  3.0306  1.7485  1.3679  0.9746  0.8362  0.8362  0.6715  0.3615  0.3425

 Free energy of the ion-electron system (eV)
  ---------------------------------------------------
  alpha Z        PSCENC =       278.63143507
  Ewald energy   TEWEN  =     13841.74243812
  -1/2 Hartree   DENC   =    -21638.43178081
  -exchange  EXHF       =         0.00000000
  -V(xc)+E(xc)   XCENC  =       255.61587908
  PAW double counting   =      6546.44906249    -7413.84417180
  entropy T*S    EENTRO =         0.00000000
  eigenvalues    EBANDS =      -236.50044293
  atomic energy  EATOM  =      8345.82850422
  ---------------------------------------------------
  free energy    TOTEN  =       -20.50907656 eV

  energy without entropy =      -20.50907656  energy(sigma->0) =      -20.50907656


--------------------------------------------------------------------------------------------------------




----------------------------------------- Iteration    1(  16)  ---------------------------------------


    POTLOK:  cpu time    0.30: real time    0.30
    SETDIJ:  cpu time    0.04: real time    0.03
     EDDAV:  cpu time   13.46: real time   13.46
 BZINTS: Fermi energy: -0.827402; 66.000000 electrons
         Band energy:-235.168524;  BLOECHL correction: -0.188477
       DOS:  cpu time    0.04: real time    0.04
    CHARGE:  cpu time    0.65: real time    0.65
    MIXING:  cpu time    0.02: real time    0.02
    --------------------------------------------
      LOOP:  cpu time   14.50: real time   14.50

 eigenvalue-minimisations  :  1336
 total energy-change (2. order) :-0.3067813E-03  (-0.1776752E-04)
 number of electron      66.0000015 magnetization 
 augmentation part       43.2753176 magnetization 

 Broyden mixing:
  rms(total) = 0.24664E-02    rms(broyden)= 0.24663E-02
  rms(prec ) = 0.29585E-02
  weight for this iteration     100.00

 eigenvalues of (default mixing * dielectric matrix)
  average eigenvalue GAMMA=   1.6594
  4.8323  3.7349  2.4938  1.6862  1.4580  0.3615  0.3425  0.8515  0.8515  0.9719
  0.6692

 Free energy of the ion-electron system (eV)
  ---------------------------------------------------
  alpha Z        PSCENC =       278.63143507
  Ewald energy   TEWEN  =     13841.74243812
  -1/2 Hartree   DENC   =    -21639.85072294
  -exchange  EXHF       =         0.00000000
  -V(xc)+E(xc)   XCENC  =       255.63524704
  PAW double counting   =      6545.69340951    -7413.02117043
  entropy T*S    EENTRO =         0.00000000
  eigenvalues    EBANDS =      -235.16852393
  atomic energy  EATOM  =      8345.82850422
  ---------------------------------------------------
  free energy    TOTEN  =       -20.50938334 eV

  energy without entropy =      -20.50938334  energy(sigma->0) =      -20.50938334


--------------------------------------------------------------------------------------------------------




----------------------------------------- Iteration    1(  17)  ---------------------------------------


    POTLOK:  cpu time    0.30: real time    0.30
    SETDIJ:  cpu time    0.04: real time    0.03
     EDDAV:  cpu time   13.55: real time   13.55
 BZINTS: Fermi energy: -0.825361; 66.000000 electrons
         Band energy:-235.140309;  BLOECHL correction: -0.188475
       DOS:  cpu time    0.04: real time    0.04
    CHARGE:  cpu time    0.66: real time    0.66
    MIXING:  cpu time    0.02: real time    0.02
    --------------------------------------------
      LOOP:  cpu time   14.60: real time   14.61

 eigenvalue-minimisations  :  1344
 total energy-change (2. order) :-0.1605535E-03  (-0.1124120E-04)
 number of electron      66.0000015 magnetization 
 augmentation part       43.2779695 magnetization 

 Broyden mixing:
  rms(total) = 0.98213E-03    rms(broyden)= 0.98203E-03
  rms(prec ) = 0.11100E-02
  weight for this iteration     100.00

 eigenvalues of (default mixing * dielectric matrix)
  average eigenvalue GAMMA=   1.6517
  5.3121  3.5832  2.4522  1.6261  1.6261  0.3615  0.3425  0.6692  0.8508  0.8508
  1.1576  0.9885

 Free energy of the ion-electron system (eV)
  ---------------------------------------------------
  alpha Z        PSCENC =       278.63143507
  Ewald energy   TEWEN  =     13841.74243812
  -1/2 Hartree   DENC   =    -21639.79322638
  -exchange  EXHF       =         0.00000000
  -V(xc)+E(xc)   XCENC  =       255.62478809
  PAW double counting   =      6545.82719860    -7413.23037242
  entropy T*S    EENTRO =         0.00000000
  eigenvalues    EBANDS =      -235.14030919
  atomic energy  EATOM  =      8345.82850422
  ---------------------------------------------------
  free energy    TOTEN  =       -20.50954389 eV

  energy without entropy =      -20.50954389  energy(sigma->0) =      -20.50954389


--------------------------------------------------------------------------------------------------------




----------------------------------------- Iteration    1(  18)  ---------------------------------------


    POTLOK:  cpu time    0.30: real time    0.30
    SETDIJ:  cpu time    0.03: real time    0.03
     EDDAV:  cpu time   13.84: real time   13.85
 BZINTS: Fermi energy: -0.825868; 66.000000 electrons
         Band energy:-235.211211;  BLOECHL correction: -0.188542
       DOS:  cpu time    0.04: real time    0.04
    CHARGE:  cpu time    0.61: real time    0.61
    MIXING:  cpu time    0.02: real time    0.02
    --------------------------------------------
      LOOP:  cpu time   14.85: real time   14.85

 eigenvalue-minimisations  :  1384
 total energy-change (2. order) :-0.2815107E-04  (-0.3392850E-05)
 number of electron      66.0000015 magnetization 
 augmentation part       43.2805975 magnetization 

 Broyden mixing:
  rms(total) = 0.12410E-02    rms(broyden)= 0.12410E-02
  rms(prec ) = 0.13858E-02
  weight for this iteration     100.00

 eigenvalues of (default mixing * dielectric matrix)
  average eigenvalue GAMMA=   1.8935
  7.2570  4.1852  2.7240  2.3399  1.4908  1.4908  0.3615  0.3425  0.6690  0.8520
  0.8520  1.0250  1.0250

 Free energy of the ion-electron system (eV)
  ---------------------------------------------------
  alpha Z        PSCENC =       278.63143507
  Ewald energy   TEWEN  =     13841.74243812
  -1/2 Hartree   DENC   =    -21639.76270778
  -exchange  EXHF       =         0.00000000
  -V(xc)+E(xc)   XCENC  =       255.62117812
  PAW double counting   =      6545.70884888    -7413.06805814
  entropy T*S    EENTRO =         0.00000000
  eigenvalues    EBANDS =      -235.21121053
  atomic energy  EATOM  =      8345.82850422
  ---------------------------------------------------
  free energy    TOTEN  =       -20.50957204 eV

  energy without entropy =      -20.50957204  energy(sigma->0) =      -20.50957204


--------------------------------------------------------------------------------------------------------




----------------------------------------- Iteration    1(  19)  ---------------------------------------


    POTLOK:  cpu time    0.30: real time    0.30
    SETDIJ:  cpu time    0.03: real time    0.03
     EDDAV:  cpu time   13.65: real time   13.65
 BZINTS: Fermi energy: -0.823820; 66.000000 electrons
         Band energy:-235.026815;  BLOECHL correction: -0.188517
       DOS:  cpu time    0.04: real time    0.04
    CHARGE:  cpu time    0.63: real time    0.63
    MIXING:  cpu time    0.02: real time    0.02
    --------------------------------------------
      LOOP:  cpu time   14.68: real time   14.68

 eigenvalue-minimisations  :  1344
 total energy-change (2. order) :-0.7273135E-04  (-0.1729747E-05)
 number of electron      66.0000015 magnetization 
 augmentation part       43.2783380 magnetization 

 Broyden mixing:
  rms(total) = 0.15233E-03    rms(broyden)= 0.15226E-03
  rms(prec ) = 0.16813E-03
  weight for this iteration     100.00

 eigenvalues of (default mixing * dielectric matrix)
  average eigenvalue GAMMA=   1.8454
  7.4981  4.1982  2.7463  2.3125  1.5384  1.5384  0.3615  0.3425  0.8517  0.8517
  0.6690  1.0798  1.0102  0.8372

 Free energy of the ion-electron system (eV)
  ---------------------------------------------------
  alpha Z        PSCENC =       278.63143507
  Ewald energy   TEWEN  =     13841.74243812
  -1/2 Hartree   DENC   =    -21639.92503041
  -exchange  EXHF       =         0.00000000
  -V(xc)+E(xc)   XCENC  =       255.62516475
  PAW double counting   =      6545.97700234    -7413.36234342
  entropy T*S    EENTRO =         0.00000000
  eigenvalues    EBANDS =      -235.02681545
  atomic energy  EATOM  =      8345.82850422
  ---------------------------------------------------
  free energy    TOTEN  =       -20.50964477 eV

  energy without entropy =      -20.50964477  energy(sigma->0) =      -20.50964477


--------------------------------------------------------------------------------------------------------




----------------------------------------- Iteration    1(  20)  ---------------------------------------


    POTLOK:  cpu time    0.30: real time    0.30
    SETDIJ:  cpu time    0.03: real time    0.03
     EDDAV:  cpu time   10.49: real time   10.49
 BZINTS: Fermi energy: -0.823860; 66.000000 electrons
         Band energy:-235.029048;  BLOECHL correction: -0.188506
       DOS:  cpu time    0.04: real time    0.04
    CHARGE:  cpu time    0.66: real time    0.66
    MIXING:  cpu time    0.02: real time    0.02
    --------------------------------------------
      LOOP:  cpu time   11.54: real time   11.55

 eigenvalue-minimisations  :   920
 total energy-change (2. order) : 0.4812517E-05  (-0.9481491E-07)
 number of electron      66.0000015 magnetization 
 augmentation part       43.2781351 magnetization 

 Broyden mixing:
  rms(total) = 0.19696E-03    rms(broyden)= 0.19695E-03
  rms(prec ) = 0.21128E-03
  weight for this iteration     100.00

 eigenvalues of (default mixing * dielectric matrix)
  average eigenvalue GAMMA=   1.9131
  7.7733  4.4262  2.6528  2.6528  2.1193  0.3425  0.3615  0.6690  0.8522  0.8522
  1.4263  1.2775  1.2775  1.0064  1.0064

 Free energy of the ion-electron system (eV)
  ---------------------------------------------------
  alpha Z        PSCENC =       278.63143507
  Ewald energy   TEWEN  =     13841.74243812
  -1/2 Hartree   DENC   =    -21639.92109794
  -exchange  EXHF       =         0.00000000
  -V(xc)+E(xc)   XCENC  =       255.62544356
  PAW double counting   =      6545.97338242    -7413.36069735
  entropy T*S    EENTRO =         0.00000000
  eigenvalues    EBANDS =      -235.02904806
  atomic energy  EATOM  =      8345.82850422
  ---------------------------------------------------
  free energy    TOTEN  =       -20.50963996 eV

  energy without entropy =      -20.50963996  energy(sigma->0) =      -20.50963996


--------------------------------------------------------------------------------------------------------




----------------------------------------- Iteration    1(  21)  ---------------------------------------


    POTLOK:  cpu time    0.30: real time    0.30
    SETDIJ:  cpu time    0.04: real time    0.03
     EDDAV:  cpu time    9.86: real time    9.87
 BZINTS: Fermi energy: -0.823866; 66.000000 electrons
         Band energy:-235.031122;  BLOECHL correction: -0.188511
       DOS:  cpu time    0.04: real time    0.04
    --------------------------------------------
      LOOP:  cpu time   10.24: real time   10.24

 eigenvalue-minimisations  :   832
 total energy-change (2. order) :-0.1803983E-06  (-0.7602878E-07)
 number of electron      66.0000015 magnetization 
 augmentation part       43.2781351 magnetization 

 Free energy of the ion-electron system (eV)
  ---------------------------------------------------
  alpha Z        PSCENC =       278.63143507
  Ewald energy   TEWEN  =     13841.74243812
  -1/2 Hartree   DENC   =    -21639.92620048
  -exchange  EXHF       =         0.00000000
  -V(xc)+E(xc)   XCENC  =       255.62526430
  PAW double counting   =      6545.92362853    -7413.30358744
  entropy T*S    EENTRO =         0.00000000
  eigenvalues    EBANDS =      -235.03112247
  atomic energy  EATOM  =      8345.82850422
  ---------------------------------------------------
  free energy    TOTEN  =       -20.50964014 eV

  energy without entropy =      -20.50964014  energy(sigma->0) =      -20.50964014


--------------------------------------------------------------------------------------------------------




 average (electrostatic) potential at core
  the test charge radii are     1.0053
  (the norm of the test charge is              1.0000)
       1 -44.0027       2 -44.4971       3 -44.4007       4 -44.4005       5 -44.4972
       6 -44.0031
 
 
 
 E-fermi :  -0.8239     XC(G=0):  -6.6716     alpha+bet : -4.1343


 k-point   1 :       0.0000    0.0000    0.0000
  band No.  band energies     occupation 
      1      -9.4804      2.00000
      2      -7.9290      2.00000
      3      -5.9955      2.00000
      4      -5.3416      2.00000
      5      -5.0147      2.00000
      6      -4.7642      2.00000
      7      -4.5368      2.00000
      8      -4.3439      2.00000
      9      -4.1139      2.00000
     10      -4.1132      2.00000
     11      -3.9880      2.00000
     12      -3.7906      2.00000
     13      -3.7123      2.00000
     14      -3.6722      2.00000
     15      -3.5405      2.00000
     16      -3.5082      2.00000
     17      -3.3940      2.00000
     18      -3.3190      2.00000
     19      -3.1930      2.00000
     20      -3.1838      2.00000
     21      -2.9545      2.00000
     22      -2.9522      2.00000
     23      -2.9307      2.00000
     24      -2.8994      2.00000
     25      -2.7831      2.00000
     26      -2.6932      2.00000
     27      -2.5792      2.00000
     28      -2.4415      2.00000
     29      -2.4137      2.00000
     30      -2.3493      2.00000
     31      -2.3356      2.00000
     32      -2.2483      2.00000
     33      -2.2014      2.00000
     34      -1.3206      2.05058
     35       0.6710      0.00000
     36       1.6741      0.00000
     37       2.8419      0.00000
     38       3.3160      0.00000
     39       3.8312      0.00000
     40       5.3510      0.00000

 k-point   2 :       0.1429    0.0000    0.0000
  band No.  band energies     occupation 
      1      -9.2407      2.00000
      2      -7.7180      2.00000
      3      -5.9073      2.00000
      4      -5.3353      2.00000
      5      -5.0070      2.00000
      6      -4.8030      2.00000
      7      -4.6755      2.00000
      8      -4.2871      2.00000
      9      -3.9833      2.00000
     10      -3.9779      2.00000
     11      -3.9200      2.00000
     12      -3.7667      2.00000
     13      -3.6509      2.00000
     14      -3.6182      2.00000
     15      -3.5605      2.00000
     16      -3.4650      2.00000
     17      -3.4578      2.00000
     18      -3.4039      2.00000
     19      -3.3064      2.00000
     20      -3.0776      2.00000
     21      -3.0633      2.00000
     22      -2.9763      2.00000
     23      -2.9461      2.00000
     24      -2.8548      2.00000
     25      -2.7552      2.00000
     26      -2.6873      2.00000
     27      -2.5898      2.00000
     28      -2.4964      2.00000
     29      -2.3936      2.00000
     30      -2.3543      2.00000
     31      -2.3196      2.00000
     32      -2.2387      2.00000
     33      -2.2350      2.00000
     34      -1.2273      2.09290
     35       0.3301     -0.01165
     36       0.7993      0.00000
     37       2.1729      0.00000
     38       2.9297      0.00000
     39       3.5337      0.00000
     40       4.4295      0.00000

 k-point   3 :       0.2857    0.0000    0.0000
  band No.  band energies     occupation 
      1      -8.5407      2.00000
      2      -7.1235      2.00000
      3      -5.7322      2.00000
      4      -5.4821      2.00000
      5      -5.1072      2.00000
      6      -4.9451      2.00000
      7      -4.6469      2.00000
      8      -4.1228      2.00000
      9      -3.9124      2.00000
     10      -3.8703      2.00000
     11      -3.7871      2.00000
     12      -3.7542      2.00000
     13      -3.6290      2.00000
     14      -3.5960      2.00000
     15      -3.5491      2.00000
     16      -3.4593      2.00000
     17      -3.4081      2.00000
     18      -3.3060      2.00000
     19      -3.1886      2.00000
     20      -3.1717      2.00000
     21      -3.1318      2.00000
     22      -3.0569      2.00000
     23      -2.9136      2.00000
     24      -2.8058      2.00000
     25      -2.7118      2.00000
     26      -2.6714      2.00000
     27      -2.6703      2.00000
     28      -2.5929      2.00000
     29      -2.3433      2.00000
     30      -2.3285      2.00000
     31      -2.3111      2.00000
     32      -2.2829      2.00000
     33      -2.2452      2.00000
     34      -1.5257      2.07651
     35      -0.8771      0.73261
     36      -0.1050      0.00000
     37       1.1614      0.00000
     38       1.6356      0.00000
     39       4.0546      0.00000
     40       4.0804      0.00000

 k-point   4 :       0.4286    0.0000    0.0000
  band No.  band energies     occupation 
      1      -7.4587      2.00000
      2      -6.3348      2.00000
      3      -6.2095      2.00000
      4      -5.7083      2.00000
      5      -5.2380      2.00000
      6      -5.2136      2.00000
      7      -4.4222      2.00000
      8      -4.1626      2.00000
      9      -3.8548      2.00000
     10      -3.8253      2.00000
     11      -3.7555      2.00000
     12      -3.7126      2.00000
     13      -3.6683      2.00000
     14      -3.6666      2.00000
     15      -3.5894      2.00000
     16      -3.5757      2.00000
     17      -3.3567      2.00000
     18      -3.2919      2.00000
     19      -3.2705      2.00000
     20      -3.1674      2.00000
     21      -2.9371      2.00000
     22      -2.8488      2.00000
     23      -2.8033      2.00000
     24      -2.7162      2.00000
     25      -2.7006      2.00000
     26      -2.6053      2.00000
     27      -2.5279      2.00000
     28      -2.4496      2.00000
     29      -2.3741      2.00000
     30      -2.3066      2.00000
     31      -2.3013      2.00000
     32      -2.2794      2.00000
     33      -2.2661      2.00000
     34      -2.2446      2.00000
     35      -1.6480      2.11242
     36      -0.8194      0.00000
     37       0.3136      0.00000
     38       0.9762      0.00000
     39       4.1189      0.00000
     40       5.0685      0.00000

 k-point   5 :       0.0000    0.1429    0.0000
  band No.  band energies     occupation 
      1      -9.0003      2.00000
      2      -7.4832      2.00000
      3      -5.6742      2.00000
      4      -5.1652      2.00000
      5      -4.8481      2.00000
      6      -4.5853      2.00000
      7      -4.3257      2.00000
      8      -4.3253      2.00000
      9      -4.2845      2.00000
     10      -4.2104      2.00000
     11      -4.0951      2.00000
     12      -3.8970      2.00000
     13      -3.8540      2.00000
     14      -3.6862      2.00000
     15      -3.5200      2.00000
     16      -3.4765      2.00000
     17      -3.3640      2.00000
     18      -3.3246      2.00000
     19      -3.1128      2.00000
     20      -3.1119      2.00000
     21      -3.0283      2.00000
     22      -2.9165      2.00000
     23      -2.8688      2.00000
     24      -2.8373      2.00000
     25      -2.8086      2.00000
     26      -2.7836      2.00000
     27      -2.5213      2.00000
     28      -2.4956      2.00000
     29      -2.4914      2.00000
     30      -2.4522      2.00000
     31      -2.3668      2.00000
     32      -2.2175      2.00000
     33      -2.2108      2.00000
     34      -0.9666      1.33996
     35       1.1430      0.00000
     36       2.5872      0.00000
     37       3.2980      0.00000
     38       3.7780      0.00000
     39       4.5073      0.00000
     40       5.8350      0.00000

 k-point   6 :       0.1429    0.1429    0.0000
  band No.  band energies     occupation 
      1      -8.7671      2.00000
      2      -7.2771      2.00000
      3      -5.5820      2.00000
      4      -5.1352      2.00000
      5      -4.8284      2.00000
      6      -4.6193      2.00000
      7      -4.5378      2.00000
      8      -4.2256      2.00000
      9      -4.1606      2.00000
     10      -4.1168      2.00000
     11      -4.0099      2.00000
     12      -3.9092      2.00000
     13      -3.7523      2.00000
     14      -3.7088      2.00000
     15      -3.5374      2.00000
     16      -3.4861      2.00000
     17      -3.4412      2.00000
     18      -3.3037      2.00000
     19      -3.2803      2.00000
     20      -3.1395      2.00000
     21      -3.0055      2.00000
     22      -2.9397      2.00000
     23      -2.9315      2.00000
     24      -2.9023      2.00000
     25      -2.7565      2.00000
     26      -2.6694      2.00000
     27      -2.5571      2.00000
     28      -2.4787      2.00000
     29      -2.4570      2.00000
     30      -2.4356      2.00000
     31      -2.3776      2.00000
     32      -2.3068      2.00000
     33      -2.1668      2.00000
     34      -0.7997      1.00264
     35       1.1258     -0.00807
     36       1.3192      0.00000
     37       2.7421      0.00000
     38       3.4345      0.00000
     39       3.9980      0.00000
     40       4.8791      0.00000

 k-point   7 :       0.2857    0.1429    0.0000
  band No.  band energies     occupation 
      1      -8.0885      2.00000
      2      -6.7009      2.00000
      3      -5.4096      2.00000
      4      -5.2112      2.00000
      5      -4.8919      2.00000
      6      -4.7056      2.00000
      7      -4.5558      2.00000
      8      -4.1554      2.00000
      9      -4.0334      2.00000
     10      -3.9637      2.00000
     11      -3.9079      2.00000
     12      -3.9063      2.00000
     13      -3.7011      2.00000
     14      -3.6558      2.00000
     15      -3.5082      2.00000
     16      -3.4789      2.00000
     17      -3.4387      2.00000
     18      -3.4018      2.00000
     19      -3.2990      2.00000
     20      -3.2663      2.00000
     21      -3.0859      2.00000
     22      -3.0553      2.00000
     23      -3.0356      2.00000
     24      -2.8713      2.00000
     25      -2.6990      2.00000
     26      -2.6621      2.00000
     27      -2.6557      2.00000
     28      -2.4973      2.00000
     29      -2.4319      2.00000
     30      -2.4159      2.00000
     31      -2.3566      2.00000
     32      -2.3553      2.00000
     33      -1.9305      2.00000
     34      -0.8503      1.20548
     35      -0.2255     -0.05197
     36       0.4950      0.00000
     37       1.7367      0.00000
     38       2.1884      0.00000
     39       4.4475      0.00000
     40       4.5436      0.00000

 k-point   8 :       0.4286    0.1429    0.0000
  band No.  band energies     occupation 
      1      -7.0505      2.00000
      2      -5.9762      2.00000
      3      -5.8513      2.00000
      4      -5.3974      2.00000
      5      -4.9778      2.00000
      6      -4.9144      2.00000
      7      -4.3696      2.00000
      8      -4.1599      2.00000
      9      -3.9529      2.00000
     10      -3.9277      2.00000
     11      -3.8764      2.00000
     12      -3.8568      2.00000
     13      -3.6815      2.00000
     14      -3.6797      2.00000
     15      -3.6059      2.00000
     16      -3.5235      2.00000
     17      -3.4028      2.00000
     18      -3.3425      2.00000
     19      -3.1476      2.00000
     20      -3.1422      2.00000
     21      -3.0959      2.00000
     22      -3.0631      2.00000
     23      -3.0601      2.00000
     24      -3.0163      2.00000
     25      -2.7609      2.00000
     26      -2.7068      2.00000
     27      -2.6334      2.00000
     28      -2.5849      2.00000
     29      -2.4592      2.00000
     30      -2.4360      2.00000
     31      -2.3945      2.00000
     32      -2.0851      2.00000
     33      -1.9376      2.00000
     34      -1.4078      1.90670
     35      -0.9085      1.03514
     36       0.1432      0.00000
     37       0.7557      0.00000
     38       1.6375      0.00000
     39       4.4561      0.00000
     40       5.4353      0.00000

 k-point   9 :       0.0000    0.2857    0.0000
  band No.  band energies     occupation 
      1      -7.6546      2.00000
      2      -6.3597      2.00000
      3      -5.3012      2.00000
      4      -4.9122      2.00000
      5      -4.6985      2.00000
      6      -4.6959      2.00000
      7      -4.5065      2.00000
      8      -4.3402      2.00000
      9      -4.3304      2.00000
     10      -4.2717      2.00000
     11      -4.1745      2.00000
     12      -3.7935      2.00000
     13      -3.6533      2.00000
     14      -3.6158      2.00000
     15      -3.4299      2.00000
     16      -3.3411      2.00000
     17      -3.2288      2.00000
     18      -3.0874      2.00000
     19      -3.0477      2.00000
     20      -3.0167      2.00000
     21      -2.9640      2.00000
     22      -2.9152      2.00000
     23      -2.8135      2.00000
     24      -2.7634      2.00000
     25      -2.6468      2.00000
     26      -2.6352      2.00000
     27      -2.4947      2.00000
     28      -2.4908      2.00000
     29      -2.4770      2.00000
     30      -2.3761      2.00000
     31      -2.3010      2.00000
     32      -2.2530      2.00000
     33      -1.9811      2.07828
     34       0.0511     -0.12340
     35       2.3515      0.00000
     36       4.0717      0.00000
     37       4.7368      0.00000
     38       4.7395      0.00000
     39       5.0129      0.00000
     40       5.8984      0.00000

 k-point  10 :       0.1429    0.2857    0.0000
  band No.  band energies     occupation 
      1      -7.4544      2.00000
      2      -6.1804      2.00000
      3      -5.1864      2.00000
      4      -4.8412      2.00000
      5      -4.6968      2.00000
      6      -4.6726      2.00000
      7      -4.5447      2.00000
      8      -4.3132      2.00000
      9      -4.2771      2.00000
     10      -4.1968      2.00000
     11      -4.1482      2.00000
     12      -3.8320      2.00000
     13      -3.6506      2.00000
     14      -3.6401      2.00000
     15      -3.4895      2.00000
     16      -3.4232      2.00000
     17      -3.3087      2.00000
     18      -3.2288      2.00000
     19      -3.0192      2.00000
     20      -2.9960      2.00000
     21      -2.9419      2.00000
     22      -2.8859      2.00000
     23      -2.8275      2.00000
     24      -2.8267      2.00000
     25      -2.7978      2.00000
     26      -2.6284      2.00000
     27      -2.5098      2.00000
     28      -2.4749      2.00000
     29      -2.4197      2.00000
     30      -2.3590      2.00000
     31      -2.3305      2.00000
     32      -2.3121      2.00851
     33      -1.6725      1.95609
     34       0.3356     -0.10648
     35       2.5909      0.00000
     36       2.7380      0.00000
     37       4.2194      0.00000
     38       4.4538      0.00000
     39       5.0440      0.00000
     40       5.2918      0.00000

 k-point  11 :       0.2857    0.2857    0.0000
  band No.  band energies     occupation 
      1      -6.8935      2.00000
      2      -5.6994      2.00000
      3      -4.9184      2.00000
      4      -4.9018      2.00000
      5      -4.6812      2.00000
      6      -4.6111      2.00000
      7      -4.4644      2.00000
      8      -4.2852      2.00000
      9      -4.1569      2.00000
     10      -4.0826      2.00000
     11      -4.0301      2.00000
     12      -3.9163      2.00000
     13      -3.7231      2.00000
     14      -3.6406      2.00000
     15      -3.5597      2.00000
     16      -3.5321      2.00000
     17      -3.4191      2.00000
     18      -3.4149      2.00000
     19      -3.0942      2.00000
     20      -3.0098      2.00000
     21      -2.9944      2.00000
     22      -2.9811      2.00000
     23      -2.9452      2.00000
     24      -2.8560      2.00000
     25      -2.7474      2.00000
     26      -2.6648      2.00000
     27      -2.5795      2.00000
     28      -2.5003      2.00000
     29      -2.4142      2.00000
     30      -2.4122      2.00000
     31      -2.3967      2.00000
     32      -2.0752      2.08705
     33      -0.9410      1.40362
     34       0.4164     -0.11168
     35       1.1600     -0.01191
     36       1.8257      0.00000
     37       3.2578      0.00000
     38       3.6944      0.00000
     39       5.3700      0.00000
     40       5.7649      0.00000

 k-point  12 :       0.4286    0.2857    0.0000
  band No.  band energies     occupation 
      1      -6.1169      2.00000
      2      -5.3998      2.00000
      3      -5.0931      2.00000
      4      -4.7774      2.00000
      5      -4.5794      2.00000
      6      -4.5610      2.00000
      7      -4.2802      2.00000
      8      -4.2491      2.00000
      9      -4.0786      2.00000
     10      -4.0686      2.00000
     11      -4.0221      2.00000
     12      -3.8740      2.00000
     13      -3.7040      2.00000
     14      -3.6556      2.00000
     15      -3.6260      2.00000
     16      -3.5589      2.00000
     17      -3.5296      2.00000
     18      -3.5174      2.00000
     19      -3.1835      2.00000
     20      -3.1680      2.00000
     21      -3.0435      2.00000
     22      -2.9870      2.00000
     23      -2.9396      2.00000
     24      -2.9098      2.00000
     25      -2.7232      2.00000
     26      -2.7221      2.00000
     27      -2.6741      2.00000
     28      -2.5355      2.00000
     29      -2.4586      2.00000
     30      -2.4541      2.00000
     31      -2.1863      2.00000
     32      -1.4271      2.03175
     33      -1.1590      1.57632
     34      -0.3083      0.05337
     35       0.4266     -0.08494
     36       1.6596      0.00000
     37       2.3066      0.00000
     38       3.3677      0.00000
     39       5.5232      0.00000
     40       6.4776      0.00000

 k-point  13 :       0.0000    0.4286    0.0000
  band No.  band energies     occupation 
      1      -5.9144      2.00000
      2      -5.5320      2.00000
      3      -5.3241      2.00000
      4      -4.9465      2.00000
      5      -4.9459      2.00000
      6      -4.9271      2.00000
      7      -4.5073      2.00000
      8      -4.4778      2.00000
      9      -4.4142      2.00000
     10      -4.3604      2.00000
     11      -3.9897      2.00000
     12      -3.8434      2.00000
     13      -3.8344      2.00000
     14      -3.6583      2.00000
     15      -3.3436      2.00000
     16      -3.1559      2.00000
     17      -3.0935      2.00000
     18      -3.0392      2.00000
     19      -2.8798      2.00000
     20      -2.7171      2.00000
     21      -2.6708      2.00000
     22      -2.6086      2.00000
     23      -2.5294      2.00000
     24      -2.4565      2.00000
     25      -2.4380      2.00000
     26      -2.3938      2.00000
     27      -2.3842      2.00000
     28      -2.3186      2.00000
     29      -2.2769      2.00000
     30      -2.2766      2.00000
     31      -1.7902      2.00000
     32      -1.5199      2.00000
     33      -0.4905      0.37803
     34       0.4355      0.00000
     35       1.2720      0.00000
     36       1.3010      0.00000
     37       3.9797      0.00000
     38       4.3434      0.00000
     39       6.8912      0.00000
     40       7.3519      0.00000

 k-point  14 :       0.1429    0.4286    0.0000
  band No.  band energies     occupation 
      1      -5.8426      2.00000
      2      -5.4132      2.00000
      3      -5.2243      2.00000
      4      -4.9917      2.00000
      5      -4.8950      2.00000
      6      -4.8221      2.00000
      7      -4.6704      2.00000
      8      -4.5279      2.00000
      9      -4.1979      2.00000
     10      -4.1910      2.00000
     11      -3.9453      2.00000
     12      -3.8531      2.00000
     13      -3.7386      2.00000
     14      -3.6134      2.00000
     15      -3.4085      2.00000
     16      -3.3881      2.00000
     17      -3.0758      2.00000
     18      -3.0651      2.00000
     19      -2.8768      2.00000
     20      -2.8511      2.00000
     21      -2.7204      2.00000
     22      -2.7075      2.00000
     23      -2.5967      2.00000
     24      -2.5118      2.00000
     25      -2.4525      2.00000
     26      -2.4125      2.00000
     27      -2.3719      2.00000
     28      -2.3570      2.00000
     29      -2.3057      2.00000
     30      -2.2892      2.00000
     31      -1.7996      2.00000
     32      -1.3397      2.07539
     33      -0.0430      0.06066
     34       0.5136      0.00000
     35       1.5074      0.00000
     36       1.7143      0.00000
     37       4.1770      0.00000
     38       4.5915      0.00000
     39       5.4908      0.00000
     40       6.6654      0.00000

 k-point  15 :       0.2857    0.4286    0.0000
  band No.  band energies     occupation 
      1      -5.6972      2.00000
      2      -5.1830      2.00000
      3      -5.0862      2.00000
      4      -4.9637      2.00000
      5      -4.7823      2.00000
      6      -4.7767      2.00000
      7      -4.4399      2.00000
      8      -4.3648      2.00000
      9      -4.1224      2.00000
     10      -4.0813      2.00000
     11      -3.7576      2.00000
     12      -3.7131      2.00000
     13      -3.6786      2.00000
     14      -3.6524      2.00000
     15      -3.5642      2.00000
     16      -3.5171      2.00000
     17      -3.3613      2.00000
     18      -3.2764      2.00000
     19      -3.0186      2.00000
     20      -2.9409      2.00000
     21      -2.8287      2.00000
     22      -2.7098      2.00000
     23      -2.6792      2.00000
     24      -2.6045      2.00000
     25      -2.5006      2.00000
     26      -2.4607      2.00000
     27      -2.3687      2.00000
     28      -2.3481      2.00000
     29      -2.2867      2.00000
     30      -2.2500      2.00000
     31      -1.8165      2.00000
     32      -0.7691      1.13237
     33       0.4797     -0.12602
     34       0.9124      0.00000
     35       1.9783      0.00000
     36       2.7025      0.00000
     37       3.6257      0.00000
     38       4.5707      0.00000
     39       4.7519      0.00000
     40       5.2936      0.00000

 k-point  16 :       0.4286    0.4286    0.0000
  band No.  band energies     occupation 
      1      -5.5533      2.00000
      2      -5.3841      2.00000
      3      -4.8054      2.00000
      4      -4.7099      2.00000
      5      -4.6548      2.00000
      6      -4.5955      2.00000
      7      -4.2270      2.00000
      8      -4.1405      2.00000
      9      -4.0744      2.00000
     10      -4.0544      2.00000
     11      -3.8652      2.00000
     12      -3.8539      2.00000
     13      -3.7226      2.00000
     14      -3.7165      2.00000
     15      -3.5837      2.00000
     16      -3.5825      2.00000
     17      -3.4217      2.00000
     18      -3.4042      2.00000
     19      -3.0971      2.00000
     20      -3.0719      2.00000
     21      -2.7831      2.00000
     22      -2.7430      2.00000
     23      -2.6473      2.00000
     24      -2.6085      2.00000
     25      -2.5170      2.00000
     26      -2.4547      2.00000
     27      -2.3828      2.00000
     28      -2.3687      2.00000
     29      -2.2486      2.00000
     30      -2.2218      2.00000
     31      -1.4592      2.00000
     32      -0.4044      0.23018
     33       0.2044     -0.11465
     34       1.3516      0.00000
     35       2.2808      0.00000
     36       3.3333      0.00000
     37       3.4974      0.00000
     38       4.1933      0.00000
     39       4.5331      0.00000
     40       4.7416      0.00000


--------------------------------------------------------------------------------------------------------


 soft charge-density along one line, spin component           1
         0         1         2         3         4         5         6         7         8         9
 total charge-density along one line
 
 pseudopotential strength for first ion, spin component:           1
 -9.440   0.000   0.000   0.000   0.000   1.097   0.000   0.000
  0.000  -9.422   0.000   0.000   0.000   0.000   1.088   0.000
  0.000   0.000  -9.412   0.000  -0.020   0.000   0.000   1.083
  0.000   0.000   0.000  -9.404   0.000   0.000   0.000   0.000
  0.000   0.000  -0.020   0.000  -9.438   0.000   0.000   0.009
  1.097   0.000   0.000   0.000   0.000   1.073   0.000   0.000
  0.000   1.088   0.000   0.000   0.000   0.000   1.077   0.000
  0.000   0.000   1.083   0.000   0.009   0.000   0.000   1.080
  0.000   0.000   0.000   1.079   0.000   0.000   0.000   0.000
  0.000   0.000   0.009   0.000   1.096   0.000   0.000  -0.004
  0.000   0.000  -0.005   0.000  -0.003   0.000   0.000   0.002
  0.000   0.000   0.000   0.000   0.000   0.000   0.000   0.000
  0.000  -0.018   0.000   0.000   0.000   0.000   0.009   0.000
  0.000   0.000  -0.020   0.000   0.001   0.000   0.000   0.010
  0.000   0.000   0.000  -0.017   0.000   0.000   0.000   0.000
  0.000   0.011   0.000   0.000   0.000   0.000  -0.005   0.000
  0.000   0.000   0.012   0.000   0.000   0.000   0.000  -0.006
  0.000   0.000   0.000   0.010   0.000   0.000   0.000   0.000
 total augmentation occupancy for first ion, spin component:           1
  1.915   0.000   0.000   0.000   0.000  -0.027   0.000   0.000   0.000   0.000   0.000   0.000   0.000   0.000   0.000   0.000
  0.000   1.930   0.000   0.000   0.000   0.000  -0.051   0.000   0.000   0.000   0.000   0.000  -0.008   0.000   0.000  -0.009
  0.000   0.000   1.929   0.000  -0.003   0.000   0.000  -0.038   0.000   0.020   0.011   0.025   0.000   0.017   0.000   0.000
  0.000   0.000   0.000   1.928   0.000   0.000   0.000   0.000  -0.048   0.000   0.000   0.000   0.000   0.000   0.034   0.000
  0.000   0.000  -0.003   0.000   1.918   0.000   0.000   0.020   0.000  -0.029  -0.011   0.019   0.000   0.022   0.000   0.000
 -0.027   0.000   0.000   0.000   0.000   0.040   0.000   0.000   0.000   0.000   0.000   0.000   0.000   0.000   0.000   0.000
  0.000  -0.051   0.000   0.000   0.000   0.000   0.039   0.000   0.000   0.000   0.000   0.000   0.039   0.000   0.000  -0.003
  0.000   0.000  -0.038   0.000   0.020   0.000   0.000   0.044   0.000   0.009  -0.045   0.000   0.000   0.036   0.000   0.000
  0.000   0.000   0.000  -0.048   0.000   0.000   0.000   0.000   0.046   0.000   0.000   0.000   0.000   0.000   0.051   0.000
  0.000   0.000   0.020   0.000  -0.029   0.000   0.000   0.009   0.000   0.047  -0.040   0.008   0.000   0.007   0.000   0.000
  0.000   0.000   0.011   0.000  -0.011   0.000   0.000  -0.045   0.000  -0.040   1.205  -0.246   0.000   0.109   0.000   0.000
  0.000   0.000   0.025   0.000   0.019   0.000   0.000   0.000   0.000   0.008  -0.246   0.091   0.000  -0.053   0.000   0.000
  0.000  -0.008   0.000   0.000   0.000   0.000   0.039   0.000   0.000   0.000   0.000   0.000   0.146   0.000   0.000  -0.009
  0.000   0.000   0.017   0.000   0.022   0.000   0.000   0.036   0.000   0.007   0.109  -0.053   0.000   0.077   0.000   0.000
  0.000   0.000   0.000   0.034   0.000   0.000   0.000   0.000   0.051   0.000   0.000   0.000   0.000   0.000   0.105   0.000
  0.000  -0.009   0.000   0.000   0.000   0.000  -0.003   0.000   0.000   0.000   0.000   0.000  -0.009   0.000   0.000   0.001
  0.000   0.000  -0.012   0.000  -0.001   0.000   0.000  -0.002   0.000   0.000  -0.019   0.007   0.000  -0.006   0.000   0.000
  0.000   0.000   0.000  -0.012   0.000   0.000   0.000   0.000  -0.003   0.000   0.000   0.000   0.000   0.000  -0.007   0.000


------------------------ aborting loop because EDIFF is reached ----------------------------------------


    CHARGE:  cpu time    0.66: real time    0.66
    FORLOC:  cpu time    0.02: real time    0.02
    FORNL :  cpu time    5.53: real time    5.53
    STRESS:  cpu time    8.61: real time    8.61
    FORCOR:  cpu time    0.30: real time    0.30
    FORHAR:  cpu time    0.09: real time    0.09
    MIXING:  cpu time    0.02: real time    0.02

  FORCE on cell =-STRESS in cart. coord.  units (eV):
  Direction    XX          YY          ZZ          XY          YZ          ZX
  --------------------------------------------------------------------------------------
  Alpha Z   278.63144   278.63144   278.63144
  Ewald   17989.96628 18201.39473-22349.62184     0.00000     0.00000     0.00000
  Hartree 20244.47393 20384.11559-18988.66006     0.00000     0.00000     0.00000
  E(xc)    -375.17120  -374.94351  -375.65179     0.00000     0.00000     0.00000
  Local  -38722.42027-39072.29480 40849.52934     0.00000     0.00000     0.00000
  n-local  -224.70403  -223.70851  -225.15778     2.89583     0.00000     0.00000
  augment   336.76787   336.28762   337.62186     0.00000    -0.00001    -0.00002
  Kinetic   469.96850   468.64518   471.97410     4.58976     0.00000     0.00000
  Fock        0.00000     0.00000     0.00000     0.00000     0.00000     0.00000
  -------------------------------------------------------------------------------------
  Total      -2.48748    -1.87227    -1.33473     0.00000     0.00000     0.00000
  in kB     -24.14320   -18.17205   -12.95472     0.00000     0.00000     0.00000
  external pressure =      -18.42 kB  Pullay stress =        0.00 kB


 VOLUME and BASIS-vectors are now :
 -----------------------------------------------------------------------------
  energy-cutoff  :      415.00
  volume of cell :      165.07
      direct lattice vectors                 reciprocal lattice vectors
     3.631354857  0.000000000  0.000000000     0.275379311  0.000000000  0.000000000
     0.000000000  2.567755644  0.000000000     0.000000000  0.389445157  0.000000000
     0.000000000  0.000000000 17.703266931     0.000000000  0.000000000  0.056486749

  length of vectors
     3.631354857  2.567755644 17.703266931     0.275379311  0.389445157  0.056486749


 FORCES acting on ions
    electron-ion (+dipol)            ewald-force                    non-local-force                 convergence-correction
 -----------------------------------------------------------------------------------------------
   0.962E-14 0.203E-13 0.310E+04   0.319E-13 0.222E-13 -.310E+04   0.000E+00 0.000E+00 -.426E+01   -.104E-12 0.152E-13 -.728E-03
   -.478E-13 0.155E-13 0.660E+03   0.135E-13 0.334E-13 -.660E+03   0.000E+00 0.000E+00 -.457E+00   -.512E-13 0.616E-14 0.462E-04
   -.844E-13 -.146E-13 -.202E+04   0.184E-13 0.252E-13 0.202E+04   0.000E+00 0.000E+00 -.542E+00   0.715E-13 0.156E-13 0.928E-03
   0.604E-12 0.351E-12 0.202E+04   -.226E-13 0.510E-15 -.202E+04   0.000E+00 0.000E+00 0.542E+00   0.419E-14 0.538E-14 -.912E-03
   0.628E-12 0.395E-12 -.660E+03   -.259E-13 0.193E-14 0.660E+03   0.000E+00 0.000E+00 0.457E+00   0.125E-12 0.299E-13 -.268E-04
   0.656E-12 0.441E-12 -.310E+04   -.404E-13 0.857E-14 0.310E+04   0.000E+00 0.000E+00 0.426E+01   0.181E-12 -.819E-13 0.737E-03
 -----------------------------------------------------------------------------------------------
   0.176E-11 0.121E-11 -.105E-02   -.251E-13 0.918E-13 -.455E-12   0.000E+00 0.000E+00 0.888E-15   0.226E-12 -.980E-14 0.444E-04
 
 
 POSITION                                       TOTAL-FORCE (eV/Angst)
 -----------------------------------------------------------------------------------
      0.00000      0.00000      0.00000         0.000000      0.000000      0.403023
      0.00000      0.00000      2.56776         0.000000      0.000000     -0.059465
      0.00000      0.00000      5.13551         0.000000      0.000000      0.370861
      1.81568      1.28388      1.28388         0.000000      0.000000     -0.370861
      1.81568      1.28388      3.85163         0.000000      0.000000      0.059465
      1.81568      1.28388      6.41939         0.000000      0.000000     -0.403023
 -----------------------------------------------------------------------------------
    total drift:                                0.000000      0.000000     -0.001004


--------------------------------------------------------------------------------------------------------



  FREE ENERGIE OF THE ION-ELECTRON SYSTEM (eV)
  ---------------------------------------------------
  free  energy   TOTEN  =       -20.509640 eV

  energy  without entropy=      -20.509640  energy(sigma->0) =      -20.509640
 


--------------------------------------------------------------------------------------------------------


    POTLOK:  cpu time    0.33: real time    0.33


--------------------------------------------------------------------------------------------------------




--------------------------------------------------------------------------------------------------------


    WAVPRE:  cpu time    0.05: real time    0.05
    FEWALD:  cpu time    0.00: real time    0.00
    ORTHCH:  cpu time    1.18: real time    1.18
     LOOP+:  cpu time  319.78: real time  319.78


----------------------------------------- Iteration    2(   1)  ---------------------------------------


    POTLOK:  cpu time    0.29: real time    0.30
    SETDIJ:  cpu time    0.04: real time    0.03
     EDDAV:  cpu time   13.22: real time   13.22
 BZINTS: Fermi energy: -0.823862; 66.000000 electrons
         Band energy:-235.053785;  BLOECHL correction: -0.188254
       DOS:  cpu time    0.04: real time    0.04
    CHARGE:  cpu time    0.62: real time    0.63
    MIXING:  cpu time    0.01: real time    0.01
    --------------------------------------------
      LOOP:  cpu time   14.23: real time   14.23

 eigenvalue-minimisations  :  1296
 total energy-change (2. order) :-0.2601313E-02  (-0.7428850E-02)
 number of electron      66.0000017 magnetization 
 augmentation part       43.2768536 magnetization 

 Broyden mixing:
  rms(total) = 0.19007E-02    rms(broyden)= 0.18988E-02
  rms(prec ) = 0.20537E-02
  weight for this iteration     100.00

 Free energy of the ion-electron system (eV)
  ---------------------------------------------------
  alpha Z        PSCENC =       278.63143507
  Ewald energy   TEWEN  =     13846.18172551
  -1/2 Hartree   DENC   =    -21644.35026354
  -exchange  EXHF       =         0.00000000
  -V(xc)+E(xc)   XCENC  =       255.63041618
  PAW double counting   =      6545.92835587    -7413.30862908
  entropy T*S    EENTRO =         0.00000000
  eigenvalues    EBANDS =      -235.05378550
  atomic energy  EATOM  =      8345.82850422
  ---------------------------------------------------
  free energy    TOTEN  =       -20.51224127 eV

  energy without entropy =      -20.51224127  energy(sigma->0) =      -20.51224127


--------------------------------------------------------------------------------------------------------




----------------------------------------- Iteration    2(   2)  ---------------------------------------


    POTLOK:  cpu time    0.30: real time    0.30
    SETDIJ:  cpu time    0.03: real time    0.03
     EDDAV:  cpu time   14.85: real time   14.86
 BZINTS: Fermi energy: -0.824603; 66.000000 electrons
         Band energy:-235.136349;  BLOECHL correction: -0.188294
       DOS:  cpu time    0.04: real time    0.04
    CHARGE:  cpu time    0.64: real time    0.64
    MIXING:  cpu time    0.01: real time    0.01
    --------------------------------------------
      LOOP:  cpu time   15.88: real time   15.88

 eigenvalue-minimisations  :  1520
 total energy-change (2. order) :-0.2333614E-04  (-0.2418848E-04)
 number of electron      66.0000017 magnetization 
 augmentation part       43.2781727 magnetization 

 Broyden mixing:
  rms(total) = 0.16768E-02    rms(broyden)= 0.16766E-02
  rms(prec ) = 0.18395E-02
  weight for this iteration     100.00

 eigenvalues of (default mixing * dielectric matrix)
  average eigenvalue GAMMA=   0.5790
  0.5790

 Free energy of the ion-electron system (eV)
  ---------------------------------------------------
  alpha Z        PSCENC =       278.63143507
  Ewald energy   TEWEN  =     13846.18172551
  -1/2 Hartree   DENC   =    -21644.28008309
  -exchange  EXHF       =         0.00000000
  -V(xc)+E(xc)   XCENC  =       255.62775856
  PAW double counting   =      6545.93251154    -7413.29776764
  entropy T*S    EENTRO =         0.00000000
  eigenvalues    EBANDS =      -235.13634877
  atomic energy  EATOM  =      8345.82850422
  ---------------------------------------------------
  free energy    TOTEN  =       -20.51226461 eV

  energy without entropy =      -20.51226461  energy(sigma->0) =      -20.51226461


--------------------------------------------------------------------------------------------------------




----------------------------------------- Iteration    2(   3)  ---------------------------------------


    POTLOK:  cpu time    0.30: real time    0.30
    SETDIJ:  cpu time    0.03: real time    0.03
     EDDAV:  cpu time   14.10: real time   14.09
 BZINTS: Fermi energy: -0.824616; 66.000000 electrons
         Band energy:-235.135155;  BLOECHL correction: -0.188254
       DOS:  cpu time    0.04: real time    0.04
    CHARGE:  cpu time    0.58: real time    0.58
    MIXING:  cpu time    0.01: real time    0.01
    --------------------------------------------
      LOOP:  cpu time   15.05: real time   15.05

 eigenvalue-minimisations  :  1408
 total energy-change (2. order) : 0.3617768E-04  (-0.6162016E-05)
 number of electron      66.0000017 magnetization 
 augmentation part       43.2780745 magnetization 

 Broyden mixing:
  rms(total) = 0.10232E-02    rms(broyden)= 0.10231E-02
  rms(prec ) = 0.11116E-02
  weight for this iteration     100.00

 eigenvalues of (default mixing * dielectric matrix)
  average eigenvalue GAMMA=   1.1868
  0.4054  1.9681

 Free energy of the ion-electron system (eV)
  ---------------------------------------------------
  alpha Z        PSCENC =       278.63143507
  Ewald energy   TEWEN  =     13846.18172551
  -1/2 Hartree   DENC   =    -21644.27335283
  -exchange  EXHF       =         0.00000000
  -V(xc)+E(xc)   XCENC  =       255.62830622
  PAW double counting   =      6545.98867699    -7413.36236906
  entropy T*S    EENTRO =         0.00000000
  eigenvalues    EBANDS =      -235.13515455
  atomic energy  EATOM  =      8345.82850422
  ---------------------------------------------------
  free energy    TOTEN  =       -20.51222843 eV

  energy without entropy =      -20.51222843  energy(sigma->0) =      -20.51222843


--------------------------------------------------------------------------------------------------------




----------------------------------------- Iteration    2(   4)  ---------------------------------------


    POTLOK:  cpu time    0.30: real time    0.30
    SETDIJ:  cpu time    0.03: real time    0.03
     EDDAV:  cpu time   13.57: real time   13.57
 BZINTS: Fermi energy: -0.824109; 66.000000 electrons
         Band energy:-235.087950;  BLOECHL correction: -0.188243
       DOS:  cpu time    0.04: real time    0.04
    CHARGE:  cpu time    0.63: real time    0.63
    MIXING:  cpu time    0.01: real time    0.01
    --------------------------------------------
      LOOP:  cpu time   14.58: real time   14.58

 eigenvalue-minimisations  :  1336
 total energy-change (2. order) :-0.1120157E-04  (-0.8221057E-06)
 number of electron      66.0000017 magnetization 
 augmentation part       43.2772762 magnetization 

 Broyden mixing:
  rms(total) = 0.39307E-03    rms(broyden)= 0.39305E-03
  rms(prec ) = 0.42820E-03
  weight for this iteration     100.00

 eigenvalues of (default mixing * dielectric matrix)
  average eigenvalue GAMMA=   1.2228
  2.6289  0.6344  0.4050

 Free energy of the ion-electron system (eV)
  ---------------------------------------------------
  alpha Z        PSCENC =       278.63143507
  Ewald energy   TEWEN  =     13846.18172551
  -1/2 Hartree   DENC   =    -21644.30210606
  -exchange  EXHF       =         0.00000000
  -V(xc)+E(xc)   XCENC  =       255.62916594
  PAW double counting   =      6546.12290536    -7413.51591956
  entropy T*S    EENTRO =         0.00000000
  eigenvalues    EBANDS =      -235.08795011
  atomic energy  EATOM  =      8345.82850422
  ---------------------------------------------------
  free energy    TOTEN  =       -20.51223963 eV

  energy without entropy =      -20.51223963  energy(sigma->0) =      -20.51223963


--------------------------------------------------------------------------------------------------------




----------------------------------------- Iteration    2(   5)  ---------------------------------------


    POTLOK:  cpu time    0.30: real time    0.30
    SETDIJ:  cpu time    0.03: real time    0.03
     EDDAV:  cpu time   11.12: real time   11.13
 BZINTS: Fermi energy: -0.824333; 66.000000 electrons
         Band energy:-235.113354;  BLOECHL correction: -0.188253
       DOS:  cpu time    0.04: real time    0.04
    CHARGE:  cpu time    0.60: real time    0.60
    MIXING:  cpu time    0.01: real time    0.01
    --------------------------------------------
      LOOP:  cpu time   12.10: real time   12.11

 eigenvalue-minimisations  :  1008
 total energy-change (2. order) : 0.2925462E-05  (-0.2590241E-06)
 number of electron      66.0000017 magnetization 
 augmentation part       43.2776420 magnetization 

 Broyden mixing:
  rms(total) = 0.14545E-03    rms(broyden)= 0.14544E-03
  rms(prec ) = 0.17342E-03
  weight for this iteration     100.00

 eigenvalues of (default mixing * dielectric matrix)
  average eigenvalue GAMMA=   1.0888
  2.6242  0.6666  0.6666  0.3980

 Free energy of the ion-electron system (eV)
  ---------------------------------------------------
  alpha Z        PSCENC =       278.63143507
  Ewald energy   TEWEN  =     13846.18172551
  -1/2 Hartree   DENC   =    -21644.28045326
  -exchange  EXHF       =         0.00000000
  -V(xc)+E(xc)   XCENC  =       255.62826184
  PAW double counting   =      6546.13286078    -7413.52121666
  entropy T*S    EENTRO =         0.00000000
  eigenvalues    EBANDS =      -235.11335420
  atomic energy  EATOM  =      8345.82850422
  ---------------------------------------------------
  free energy    TOTEN  =       -20.51223671 eV

  energy without entropy =      -20.51223671  energy(sigma->0) =      -20.51223671


--------------------------------------------------------------------------------------------------------




----------------------------------------- Iteration    2(   6)  ---------------------------------------


    POTLOK:  cpu time    0.30: real time    0.30
    SETDIJ:  cpu time    0.03: real time    0.03
     EDDAV:  cpu time    9.74: real time    9.74
 BZINTS: Fermi energy: -0.824319; 66.000000 electrons
         Band energy:-235.113195;  BLOECHL correction: -0.188257
       DOS:  cpu time    0.04: real time    0.04
    CHARGE:  cpu time    0.68: real time    0.68
    MIXING:  cpu time    0.01: real time    0.01
    --------------------------------------------
      LOOP:  cpu time   10.81: real time   10.81

 eigenvalue-minimisations  :   816
 total energy-change (2. order) :-0.1405591E-05  (-0.9627103E-07)
 number of electron      66.0000017 magnetization 
 augmentation part       43.2777401 magnetization 

 Broyden mixing:
  rms(total) = 0.12835E-03    rms(broyden)= 0.12834E-03
  rms(prec ) = 0.14406E-03
  weight for this iteration     100.00

 eigenvalues of (default mixing * dielectric matrix)
  average eigenvalue GAMMA=   1.0168
  2.4282  1.1798  0.7319  0.4018  0.3423

 Free energy of the ion-electron system (eV)
  ---------------------------------------------------
  alpha Z        PSCENC =       278.63143507
  Ewald energy   TEWEN  =     13846.18172551
  -1/2 Hartree   DENC   =    -21644.28213764
  -exchange  EXHF       =         0.00000000
  -V(xc)+E(xc)   XCENC  =       255.62810372
  PAW double counting   =      6546.12769907    -7413.51437256
  entropy T*S    EENTRO =         0.00000000
  eigenvalues    EBANDS =      -235.11319549
  atomic energy  EATOM  =      8345.82850422
  ---------------------------------------------------
  free energy    TOTEN  =       -20.51223811 eV

  energy without entropy =      -20.51223811  energy(sigma->0) =      -20.51223811


--------------------------------------------------------------------------------------------------------




----------------------------------------- Iteration    2(   7)  ---------------------------------------


    POTLOK:  cpu time    0.30: real time    0.30
    SETDIJ:  cpu time    0.03: real time    0.03
     EDDAV:  cpu time    9.45: real time    9.45
 BZINTS: Fermi energy: -0.824318; 66.000000 electrons
         Band energy:-235.113295;  BLOECHL correction: -0.188264
       DOS:  cpu time    0.04: real time    0.04
    CHARGE:  cpu time    0.60: real time    0.61
    MIXING:  cpu time    0.01: real time    0.01
    --------------------------------------------
      LOOP:  cpu time   10.44: real time   10.44

 eigenvalue-minimisations  :   784
 total energy-change (2. order) :-0.4914225E-05  (-0.2120903E-07)
 number of electron      66.0000017 magnetization 
 augmentation part       43.2778111 magnetization 

 Broyden mixing:
  rms(total) = 0.37612E-04    rms(broyden)= 0.37606E-04
  rms(prec ) = 0.43553E-04
  weight for this iteration     100.00

 eigenvalues of (default mixing * dielectric matrix)
  average eigenvalue GAMMA=   1.2462
  2.4459  2.4459  1.0541  0.7710  0.4034  0.3567

 Free energy of the ion-electron system (eV)
  ---------------------------------------------------
  alpha Z        PSCENC =       278.63143507
  Ewald energy   TEWEN  =     13846.18172551
  -1/2 Hartree   DENC   =    -21644.28348165
  -exchange  EXHF       =         0.00000000
  -V(xc)+E(xc)   XCENC  =       255.62801051
  PAW double counting   =      6546.11971111    -7413.50485236
  entropy T*S    EENTRO =         0.00000000
  eigenvalues    EBANDS =      -235.11329543
  atomic energy  EATOM  =      8345.82850422
  ---------------------------------------------------
  free energy    TOTEN  =       -20.51224303 eV

  energy without entropy =      -20.51224303  energy(sigma->0) =      -20.51224303


--------------------------------------------------------------------------------------------------------




----------------------------------------- Iteration    2(   8)  ---------------------------------------


    POTLOK:  cpu time    0.30: real time    0.30
    SETDIJ:  cpu time    0.03: real time    0.03
     EDDAV:  cpu time    9.39: real time    9.39
 BZINTS: Fermi energy: -0.824253; 66.000000 electrons
         Band energy:-235.107173;  BLOECHL correction: -0.188265
       DOS:  cpu time    0.04: real time    0.04
    CHARGE:  cpu time    0.64: real time    0.64
    MIXING:  cpu time    0.01: real time    0.01
    --------------------------------------------
      LOOP:  cpu time   10.41: real time   10.41

 eigenvalue-minimisations  :   768
 total energy-change (2. order) :-0.3019704E-05  (-0.9835353E-08)
 number of electron      66.0000017 magnetization 
 augmentation part       43.2777541 magnetization 

 Broyden mixing:
  rms(total) = 0.23289E-04    rms(broyden)= 0.23287E-04
  rms(prec ) = 0.24927E-04
  weight for this iteration     100.00

 eigenvalues of (default mixing * dielectric matrix)
  average eigenvalue GAMMA=   1.1657
  2.2756  2.1496  1.3481  0.8129  0.8129  0.3590  0.4018

 Free energy of the ion-electron system (eV)
  ---------------------------------------------------
  alpha Z        PSCENC =       278.63143507
  Ewald energy   TEWEN  =     13846.18172551
  -1/2 Hartree   DENC   =    -21644.28828631
  -exchange  EXHF       =         0.00000000
  -V(xc)+E(xc)   XCENC  =       255.62811470
  PAW double counting   =      6546.12585078    -7413.51241737
  entropy T*S    EENTRO =         0.00000000
  eigenvalues    EBANDS =      -235.10717264
  atomic energy  EATOM  =      8345.82850422
  ---------------------------------------------------
  free energy    TOTEN  =       -20.51224605 eV

  energy without entropy =      -20.51224605  energy(sigma->0) =      -20.51224605


--------------------------------------------------------------------------------------------------------




----------------------------------------- Iteration    2(   9)  ---------------------------------------


    POTLOK:  cpu time    0.30: real time    0.30
    SETDIJ:  cpu time    0.03: real time    0.03
     EDDAV:  cpu time    8.72: real time    8.72
 BZINTS: Fermi energy: -0.824262; 66.000000 electrons
         Band energy:-235.108207;  BLOECHL correction: -0.188265
       DOS:  cpu time    0.04: real time    0.04
    --------------------------------------------
      LOOP:  cpu time    9.09: real time    9.09

 eigenvalue-minimisations  :   680
 total energy-change (2. order) : 0.3815912E-06  (-0.2500663E-08)
 number of electron      66.0000017 magnetization 
 augmentation part       43.2777541 magnetization 

 Free energy of the ion-electron system (eV)
  ---------------------------------------------------
  alpha Z        PSCENC =       278.63143507
  Ewald energy   TEWEN  =     13846.18172551
  -1/2 Hartree   DENC   =    -21644.28762656
  -exchange  EXHF       =         0.00000000
  -V(xc)+E(xc)   XCENC  =       255.62808548
  PAW double counting   =      6546.12446284    -7413.51062542
  entropy T*S    EENTRO =         0.00000000
  eigenvalues    EBANDS =      -235.10820680
  atomic energy  EATOM  =      8345.82850422
  ---------------------------------------------------
  free energy    TOTEN  =       -20.51224567 eV

  energy without entropy =      -20.51224567  energy(sigma->0) =      -20.51224567


--------------------------------------------------------------------------------------------------------




 average (electrostatic) potential at core
  the test charge radii are     1.0053
  (the norm of the test charge is              1.0000)
       1 -44.0054       2 -44.4968       3 -44.4014       4 -44.4012       5 -44.4969
       6 -44.0057
 
 
 
 E-fermi :  -0.8243     XC(G=0):  -6.6681     alpha+bet : -4.1343


 k-point   1 :       0.0000    0.0000    0.0000
  band No.  band energies     occupation 
      1      -9.4799      2.00000
      2      -7.9332      2.00000
      3      -5.9979      2.00000
      4      -5.3408      2.00000
      5      -5.0140      2.00000
      6      -4.7670      2.00000
      7      -4.5376      2.00000
      8      -4.3452      2.00000
      9      -4.1136      2.00000
     10      -4.1129      2.00000
     11      -3.9909      2.00000
     12      -3.7914      2.00000
     13      -3.7134      2.00000
     14      -3.6713      2.00000
     15      -3.5428      2.00000
     16      -3.5080      2.00000
     17      -3.3941      2.00000
     18      -3.3212      2.00000
     19      -3.1929      2.00000
     20      -3.1833      2.00000
     21      -2.9576      2.00000
     22      -2.9531      2.00000
     23      -2.9347      2.00000
     24      -2.8998      2.00000
     25      -2.7849      2.00000
     26      -2.6957      2.00000
     27      -2.5810      2.00000
     28      -2.4438      2.00000
     29      -2.4156      2.00000
     30      -2.3510      2.00000
     31      -2.3355      2.00000
     32      -2.2484      2.00000
     33      -2.2016      2.00000
     34      -1.3205      2.05345
     35       0.6751      0.00000
     36       1.6739      0.00000
     37       2.8461      0.00000
     38       3.3233      0.00000
     39       3.8262      0.00000
     40       5.3553      0.00000

 k-point   2 :       0.1429    0.0000    0.0000
  band No.  band energies     occupation 
      1      -9.2403      2.00000
      2      -7.7221      2.00000
      3      -5.9095      2.00000
      4      -5.3346      2.00000
      5      -5.0060      2.00000
      6      -4.8056      2.00000
      7      -4.6766      2.00000
      8      -4.2889      2.00000
      9      -3.9849      2.00000
     10      -3.9777      2.00000
     11      -3.9225      2.00000
     12      -3.7678      2.00000
     13      -3.6498      2.00000
     14      -3.6174      2.00000
     15      -3.5625      2.00000
     16      -3.4649      2.00000
     17      -3.4585      2.00000
     18      -3.4043      2.00000
     19      -3.3077      2.00000
     20      -3.0796      2.00000
     21      -3.0663      2.00000
     22      -2.9771      2.00000
     23      -2.9465      2.00000
     24      -2.8564      2.00000
     25      -2.7578      2.00000
     26      -2.6894      2.00000
     27      -2.5915      2.00000
     28      -2.4983      2.00000
     29      -2.3954      2.00000
     30      -2.3559      2.00000
     31      -2.3194      2.00000
     32      -2.2388      2.00000
     33      -2.2352      2.00000
     34      -1.2270      2.09700
     35       0.3297     -0.01152
     36       0.8030      0.00000
     37       2.1692      0.00000
     38       2.9335      0.00000
     39       3.5410      0.00000
     40       4.4296      0.00000

 k-point   3 :       0.2857    0.0000    0.0000
  band No.  band energies     occupation 
      1      -8.5403      2.00000
      2      -7.1273      2.00000
      3      -5.7336      2.00000
      4      -5.4815      2.00000
      5      -5.1071      2.00000
      6      -4.9479      2.00000
      7      -4.6477      2.00000
      8      -4.1248      2.00000
      9      -3.9140      2.00000
     10      -3.8721      2.00000
     11      -3.7899      2.00000
     12      -3.7545      2.00000
     13      -3.6276      2.00000
     14      -3.5959      2.00000
     15      -3.5507      2.00000
     16      -3.4596      2.00000
     17      -3.4100      2.00000
     18      -3.3089      2.00000
     19      -3.1883      2.00000
     20      -3.1743      2.00000
     21      -3.1306      2.00000
     22      -3.0576      2.00000
     23      -2.9162      2.00000
     24      -2.8070      2.00000
     25      -2.7138      2.00000
     26      -2.6731      2.00000
     27      -2.6720      2.00000
     28      -2.5941      2.00000
     29      -2.3451      2.00000
     30      -2.3280      2.00000
     31      -2.3124      2.00000
     32      -2.2833      2.00000
     33      -2.2456      2.00000
     34      -1.5258      2.07974
     35      -0.8769      0.73140
     36      -0.1086      0.00000
     37       1.1654      0.00000
     38       1.6366      0.00000
     39       4.0570      0.00000
     40       4.0870      0.00000

 k-point   4 :       0.4286    0.0000    0.0000
  band No.  band energies     occupation 
      1      -7.4582      2.00000
      2      -6.3370      2.00000
      3      -6.2098      2.00000
      4      -5.7096      2.00000
      5      -5.2391      2.00000
      6      -5.2163      2.00000
      7      -4.4227      2.00000
      8      -4.1630      2.00000
      9      -3.8576      2.00000
     10      -3.8260      2.00000
     11      -3.7569      2.00000
     12      -3.7159      2.00000
     13      -3.6679      2.00000
     14      -3.6659      2.00000
     15      -3.5901      2.00000
     16      -3.5761      2.00000
     17      -3.3580      2.00000
     18      -3.2949      2.00000
     19      -3.2725      2.00000
     20      -3.1703      2.00000
     21      -2.9403      2.00000
     22      -2.8514      2.00000
     23      -2.8035      2.00000
     24      -2.7186      2.00000
     25      -2.6998      2.00000
     26      -2.6061      2.00000
     27      -2.5286      2.00000
     28      -2.4493      2.00000
     29      -2.3743      2.00000
     30      -2.3078      2.00000
     31      -2.3025      2.00000
     32      -2.2803      2.00000
     33      -2.2668      2.00000
     34      -2.2447      2.00000
     35      -1.6513      2.11255
     36      -0.8209      0.00000
     37       0.3171      0.00000
     38       0.9802      0.00000
     39       4.1214      0.00000
     40       5.0702      0.00000

 k-point   5 :       0.0000    0.1429    0.0000
  band No.  band energies     occupation 
      1      -8.9998      2.00000
      2      -7.4873      2.00000
      3      -5.6764      2.00000
      4      -5.1641      2.00000
      5      -4.8475      2.00000
      6      -4.5881      2.00000
      7      -4.3251      2.00000
      8      -4.3248      2.00000
      9      -4.2854      2.00000
     10      -4.2120      2.00000
     11      -4.0983      2.00000
     12      -3.8985      2.00000
     13      -3.8558      2.00000
     14      -3.6875      2.00000
     15      -3.5217      2.00000
     16      -3.4765      2.00000
     17      -3.3669      2.00000
     18      -3.3253      2.00000
     19      -3.1149      2.00000
     20      -3.1131      2.00000
     21      -3.0296      2.00000
     22      -2.9166      2.00000
     23      -2.8690      2.00000
     24      -2.8402      2.00000
     25      -2.8093      2.00000
     26      -2.7863      2.00000
     27      -2.5224      2.00000
     28      -2.4966      2.00000
     29      -2.4930      2.00000
     30      -2.4521      2.00000
     31      -2.3685      2.00000
     32      -2.2177      2.00000
     33      -2.2104      2.00000
     34      -0.9660      1.33622
     35       1.1466      0.00000
     36       2.5871      0.00000
     37       3.3019      0.00000
     38       3.7853      0.00000
     39       4.5029      0.00000
     40       5.8390      0.00000

 k-point   6 :       0.1429    0.1429    0.0000
  band No.  band energies     occupation 
      1      -8.7666      2.00000
      2      -7.2811      2.00000
      3      -5.5839      2.00000
      4      -5.1343      2.00000
      5      -4.8276      2.00000
      6      -4.6215      2.00000
      7      -4.5381      2.00000
      8      -4.2266      2.00000
      9      -4.1619      2.00000
     10      -4.1192      2.00000
     11      -4.0122      2.00000
     12      -3.9106      2.00000
     13      -3.7526      2.00000
     14      -3.7094      2.00000
     15      -3.5382      2.00000
     16      -3.4882      2.00000
     17      -3.4418      2.00000
     18      -3.3051      2.00000
     19      -3.2811      2.00000
     20      -3.1413      2.00000
     21      -3.0072      2.00000
     22      -2.9409      2.00000
     23      -2.9337      2.00000
     24      -2.9039      2.00000
     25      -2.7586      2.00000
     26      -2.6698      2.00000
     27      -2.5589      2.00000
     28      -2.4801      2.00000
     29      -2.4583      2.00000
     30      -2.4356      2.00000
     31      -2.3783      2.00000
     32      -2.3069      2.00000
     33      -2.1666      2.00000
     34      -0.7986      0.99351
     35       1.1256     -0.00798
     36       1.3227      0.00000
     37       2.7388      0.00000
     38       3.4380      0.00000
     39       4.0053      0.00000
     40       4.8790      0.00000

 k-point   7 :       0.2857    0.1429    0.0000
  band No.  band energies     occupation 
      1      -8.0880      2.00000
      2      -6.7046      2.00000
      3      -5.4107      2.00000
      4      -5.2105      2.00000
      5      -4.8913      2.00000
      6      -4.7081      2.00000
      7      -4.5564      2.00000
      8      -4.1568      2.00000
      9      -4.0351      2.00000
     10      -3.9655      2.00000
     11      -3.9104      2.00000
     12      -3.9075      2.00000
     13      -3.7018      2.00000
     14      -3.6572      2.00000
     15      -3.5092      2.00000
     16      -3.4787      2.00000
     17      -3.4386      2.00000
     18      -3.4016      2.00000
     19      -3.3019      2.00000
     20      -3.2676      2.00000
     21      -3.0882      2.00000
     22      -3.0571      2.00000
     23      -3.0377      2.00000
     24      -2.8747      2.00000
     25      -2.7009      2.00000
     26      -2.6627      2.00000
     27      -2.6566      2.00000
     28      -2.4984      2.00000
     29      -2.4327      2.00000
     30      -2.4164      2.00000
     31      -2.3572      2.00000
     32      -2.3555      2.00000
     33      -1.9303      2.00000
     34      -0.8502      1.20143
     35      -0.2244     -0.05181
     36       0.4920      0.00000
     37       1.7403      0.00000
     38       2.1889      0.00000
     39       4.4500      0.00000
     40       4.5501      0.00000

 k-point   8 :       0.4286    0.1429    0.0000
  band No.  band energies     occupation 
      1      -7.0500      2.00000
      2      -5.9779      2.00000
      3      -5.8521      2.00000
      4      -5.3985      2.00000
      5      -4.9784      2.00000
      6      -4.9168      2.00000
      7      -4.3701      2.00000
      8      -4.1603      2.00000
      9      -3.9533      2.00000
     10      -3.9277      2.00000
     11      -3.8796      2.00000
     12      -3.8583      2.00000
     13      -3.6829      2.00000
     14      -3.6802      2.00000
     15      -3.6082      2.00000
     16      -3.5250      2.00000
     17      -3.4046      2.00000
     18      -3.3437      2.00000
     19      -3.1469      2.00000
     20      -3.1448      2.00000
     21      -3.0990      2.00000
     22      -3.0632      2.00000
     23      -3.0619      2.00000
     24      -3.0193      2.00000
     25      -2.7625      2.00000
     26      -2.7091      2.00000
     27      -2.6342      2.00000
     28      -2.5863      2.00000
     29      -2.4596      2.00000
     30      -2.4366      2.00000
     31      -2.3947      2.00000
     32      -2.0862      2.00000
     33      -1.9384      2.00000
     34      -1.4082      1.90664
     35      -0.9101      1.03708
     36       0.1423      0.00000
     37       0.7592      0.00000
     38       1.6410      0.00000
     39       4.4586      0.00000
     40       5.4371      0.00000

 k-point   9 :       0.0000    0.2857    0.0000
  band No.  band energies     occupation 
      1      -7.6541      2.00000
      2      -6.3632      2.00000
      3      -5.3022      2.00000
      4      -4.9106      2.00000
      5      -4.6978      2.00000
      6      -4.6954      2.00000
      7      -4.5062      2.00000
      8      -4.3436      2.00000
      9      -4.3343      2.00000
     10      -4.2733      2.00000
     11      -4.1772      2.00000
     12      -3.7957      2.00000
     13      -3.6575      2.00000
     14      -3.6192      2.00000
     15      -3.4313      2.00000
     16      -3.3435      2.00000
     17      -3.2313      2.00000
     18      -3.0894      2.00000
     19      -3.0489      2.00000
     20      -3.0182      2.00000
     21      -2.9651      2.00000
     22      -2.9161      2.00000
     23      -2.8151      2.00000
     24      -2.7637      2.00000
     25      -2.6469      2.00000
     26      -2.6353      2.00000
     27      -2.4945      2.00000
     28      -2.4905      2.00000
     29      -2.4771      2.00000
     30      -2.3778      2.00000
     31      -2.3011      2.00000
     32      -2.2535      2.00000
     33      -1.9799      2.07802
     34       0.0532     -0.12231
     35       2.3544      0.00000
     36       4.0735      0.00000
     37       4.7368      0.00000
     38       4.7409      0.00000
     39       5.0179      0.00000
     40       5.8996      0.00000

 k-point  10 :       0.1429    0.2857    0.0000
  band No.  band energies     occupation 
      1      -7.4539      2.00000
      2      -6.1840      2.00000
      3      -5.1870      2.00000
      4      -4.8399      2.00000
      5      -4.6957      2.00000
      6      -4.6724      2.00000
      7      -4.5445      2.00000
      8      -4.3160      2.00000
      9      -4.2804      2.00000
     10      -4.1992      2.00000
     11      -4.1504      2.00000
     12      -3.8339      2.00000
     13      -3.6546      2.00000
     14      -3.6428      2.00000
     15      -3.4925      2.00000
     16      -3.4241      2.00000
     17      -3.3107      2.00000
     18      -3.2306      2.00000
     19      -3.0219      2.00000
     20      -2.9975      2.00000
     21      -2.9430      2.00000
     22      -2.8864      2.00000
     23      -2.8288      2.00000
     24      -2.8278      2.00000
     25      -2.7978      2.00000
     26      -2.6285      2.00000
     27      -2.5101      2.00000
     28      -2.4758      2.00000
     29      -2.4202      2.00000
     30      -2.3593      2.00000
     31      -2.3307      2.00000
     32      -2.3126      2.00818
     33      -1.6718      1.95569
     34       0.3380     -0.10438
     35       2.5937      0.00000
     36       2.7378      0.00000
     37       4.2168      0.00000
     38       4.4560      0.00000
     39       5.0447      0.00000
     40       5.2973      0.00000

 k-point  11 :       0.2857    0.2857    0.0000
  band No.  band energies     occupation 
      1      -6.8930      2.00000
      2      -5.7028      2.00000
      3      -4.9182      2.00000
      4      -4.9010      2.00000
      5      -4.6808      2.00000
      6      -4.6122      2.00000
      7      -4.4632      2.00000
      8      -4.2873      2.00000
      9      -4.1591      2.00000
     10      -4.0844      2.00000
     11      -4.0320      2.00000
     12      -3.9175      2.00000
     13      -3.7246      2.00000
     14      -3.6439      2.00000
     15      -3.5635      2.00000
     16      -3.5332      2.00000
     17      -3.4211      2.00000
     18      -3.4168      2.00000
     19      -3.0961      2.00000
     20      -3.0105      2.00000
     21      -2.9953      2.00000
     22      -2.9835      2.00000
     23      -2.9469      2.00000
     24      -2.8586      2.00000
     25      -2.7476      2.00000
     26      -2.6656      2.00000
     27      -2.5808      2.00000
     28      -2.5008      2.00000
     29      -2.4145      2.00000
     30      -2.4134      2.00000
     31      -2.3966      2.00000
     32      -2.0766      2.08669
     33      -0.9402      1.40250
     34       0.4168     -0.11018
     35       1.1622     -0.01205
     36       1.8233      0.00000
     37       3.2605      0.00000
     38       3.6941      0.00000
     39       5.3716      0.00000
     40       5.7587      0.00000

 k-point  12 :       0.4286    0.2857    0.0000
  band No.  band energies     occupation 
      1      -6.1164      2.00000
      2      -5.3998      2.00000
      3      -5.0955      2.00000
      4      -4.7781      2.00000
      5      -4.5793      2.00000
      6      -4.5617      2.00000
      7      -4.2787      2.00000
      8      -4.2500      2.00000
      9      -4.0804      2.00000
     10      -4.0697      2.00000
     11      -4.0236      2.00000
     12      -3.8755      2.00000
     13      -3.7055      2.00000
     14      -3.6578      2.00000
     15      -3.6282      2.00000
     16      -3.5627      2.00000
     17      -3.5307      2.00000
     18      -3.5189      2.00000
     19      -3.1849      2.00000
     20      -3.1687      2.00000
     21      -3.0454      2.00000
     22      -2.9894      2.00000
     23      -2.9419      2.00000
     24      -2.9132      2.00000
     25      -2.7242      2.00000
     26      -2.7234      2.00000
     27      -2.6749      2.00000
     28      -2.5370      2.00000
     29      -2.4591      2.00000
     30      -2.4545      2.00000
     31      -2.1869      2.00000
     32      -1.4283      2.03232
     33      -1.1596      1.57694
     34      -0.3085      0.05327
     35       0.4253     -0.08501
     36       1.6605      0.00000
     37       2.3083      0.00000
     38       3.3704      0.00000
     39       5.5258      0.00000
     40       6.4791      0.00000

 k-point  13 :       0.0000    0.4286    0.0000
  band No.  band energies     occupation 
      1      -5.9132      2.00000
      2      -5.5332      2.00000
      3      -5.3256      2.00000
      4      -4.9457      2.00000
      5      -4.9453      2.00000
      6      -4.9275      2.00000
      7      -4.5091      2.00000
      8      -4.4800      2.00000
      9      -4.4152      2.00000
     10      -4.3635      2.00000
     11      -3.9928      2.00000
     12      -3.8484      2.00000
     13      -3.8392      2.00000
     14      -3.6607      2.00000
     15      -3.3463      2.00000
     16      -3.1589      2.00000
     17      -3.0940      2.00000
     18      -3.0391      2.00000
     19      -2.8809      2.00000
     20      -2.7183      2.00000
     21      -2.6716      2.00000
     22      -2.6099      2.00000
     23      -2.5304      2.00000
     24      -2.4569      2.00000
     25      -2.4376      2.00000
     26      -2.3940      2.00000
     27      -2.3849      2.00000
     28      -2.3191      2.00000
     29      -2.2778      2.00000
     30      -2.2761      2.00000
     31      -1.7906      2.00000
     32      -1.5213      2.00000
     33      -0.4907      0.37749
     34       0.4355      0.00000
     35       1.2700      0.00000
     36       1.3025      0.00000
     37       3.9812      0.00000
     38       4.3461      0.00000
     39       6.8950      0.00000
     40       7.3539      0.00000

 k-point  14 :       0.1429    0.4286    0.0000
  band No.  band energies     occupation 
      1      -5.8416      2.00000
      2      -5.4143      2.00000
      3      -5.2252      2.00000
      4      -4.9905      2.00000
      5      -4.8951      2.00000
      6      -4.8236      2.00000
      7      -4.6712      2.00000
      8      -4.5300      2.00000
      9      -4.2005      2.00000
     10      -4.1931      2.00000
     11      -3.9488      2.00000
     12      -3.8573      2.00000
     13      -3.7421      2.00000
     14      -3.6160      2.00000
     15      -3.4101      2.00000
     16      -3.3897      2.00000
     17      -3.0775      2.00000
     18      -3.0660      2.00000
     19      -2.8771      2.00000
     20      -2.8519      2.00000
     21      -2.7211      2.00000
     22      -2.7092      2.00000
     23      -2.5979      2.00000
     24      -2.5122      2.00000
     25      -2.4533      2.00000
     26      -2.4129      2.00000
     27      -2.3722      2.00000
     28      -2.3573      2.00000
     29      -2.3064      2.00000
     30      -2.2898      2.00000
     31      -1.8001      2.00000
     32      -1.3416      2.07558
     33      -0.0430      0.06015
     34       0.5135      0.00000
     35       1.5052      0.00000
     36       1.7160      0.00000
     37       4.1784      0.00000
     38       4.5942      0.00000
     39       5.4906      0.00000
     40       6.6637      0.00000

 k-point  15 :       0.2857    0.4286    0.0000
  band No.  band energies     occupation 
      1      -5.6964      2.00000
      2      -5.1828      2.00000
      3      -5.0869      2.00000
      4      -4.9636      2.00000
      5      -4.7836      2.00000
      6      -4.7779      2.00000
      7      -4.4407      2.00000
      8      -4.3670      2.00000
      9      -4.1247      2.00000
     10      -4.0837      2.00000
     11      -3.7597      2.00000
     12      -3.7159      2.00000
     13      -3.6814      2.00000
     14      -3.6548      2.00000
     15      -3.5657      2.00000
     16      -3.5178      2.00000
     17      -3.3614      2.00000
     18      -3.2763      2.00000
     19      -3.0206      2.00000
     20      -2.9426      2.00000
     21      -2.8307      2.00000
     22      -2.7122      2.00000
     23      -2.6805      2.00000
     24      -2.6048      2.00000
     25      -2.5020      2.00000
     26      -2.4617      2.00000
     27      -2.3692      2.00000
     28      -2.3484      2.00000
     29      -2.2876      2.00000
     30      -2.2510      2.00000
     31      -1.8173      2.00000
     32      -0.7717      1.13856
     33       0.4795     -0.12615
     34       0.9127      0.00000
     35       1.9750      0.00000
     36       2.7047      0.00000
     37       3.6253      0.00000
     38       4.5695      0.00000
     39       4.7529      0.00000
     40       5.2959      0.00000

 k-point  16 :       0.4286    0.4286    0.0000
  band No.  band energies     occupation 
      1      -5.5528      2.00000
      2      -5.3837      2.00000
      3      -4.8071      2.00000
      4      -4.7118      2.00000
      5      -4.6546      2.00000
      6      -4.5959      2.00000
      7      -4.2276      2.00000
      8      -4.1409      2.00000
      9      -4.0762      2.00000
     10      -4.0564      2.00000
     11      -3.8682      2.00000
     12      -3.8555      2.00000
     13      -3.7249      2.00000
     14      -3.7178      2.00000
     15      -3.5837      2.00000
     16      -3.5823      2.00000
     17      -3.4244      2.00000
     18      -3.4065      2.00000
     19      -3.0984      2.00000
     20      -3.0732      2.00000
     21      -2.7857      2.00000
     22      -2.7453      2.00000
     23      -2.6493      2.00000
     24      -2.6107      2.00000
     25      -2.5177      2.00000
     26      -2.4546      2.00000
     27      -2.3836      2.00000
     28      -2.3693      2.00000
     29      -2.2499      2.00000
     30      -2.2232      2.00000
     31      -1.4602      2.00000
     32      -0.4052      0.23080
     33       0.2017     -0.11448
     34       1.3491      0.00000
     35       2.2797      0.00000
     36       3.3326      0.00000
     37       3.4990      0.00000
     38       4.1921      0.00000
     39       4.5337      0.00000
     40       4.7418      0.00000


--------------------------------------------------------------------------------------------------------


 soft charge-density along one line, spin component           1
         0         1         2         3         4         5         6         7         8         9
 total charge-density along one line
 
 pseudopotential strength for first ion, spin component:           1
 -9.442   0.000   0.000   0.000   0.000   1.098   0.000   0.000
  0.000  -9.424   0.000   0.000   0.000   0.000   1.089   0.000
  0.000   0.000  -9.415   0.000  -0.020   0.000   0.000   1.084
  0.000   0.000   0.000  -9.406   0.000   0.000   0.000   0.000
  0.000   0.000  -0.020   0.000  -9.440   0.000   0.000   0.009
  1.098   0.000   0.000   0.000   0.000   1.072   0.000   0.000
  0.000   1.089   0.000   0.000   0.000   0.000   1.077   0.000
  0.000   0.000   1.084   0.000   0.009   0.000   0.000   1.079
  0.000   0.000   0.000   1.080   0.000   0.000   0.000   0.000
  0.000   0.000   0.009   0.000   1.097   0.000   0.000  -0.004
  0.000   0.000  -0.005   0.000  -0.003   0.000   0.000   0.002
  0.000   0.000   0.000   0.000   0.000   0.000   0.000   0.000
  0.000  -0.018   0.000   0.000   0.000   0.000   0.009   0.000
  0.000   0.000  -0.020   0.000   0.001   0.000   0.000   0.010
  0.000   0.000   0.000  -0.017   0.000   0.000   0.000   0.000
  0.000   0.011   0.000   0.000   0.000   0.000  -0.005   0.000
  0.000   0.000   0.012   0.000   0.000   0.000   0.000  -0.006
  0.000   0.000   0.000   0.010   0.000   0.000   0.000   0.000
 total augmentation occupancy for first ion, spin component:           1
  1.915   0.000   0.000   0.000   0.000  -0.026   0.000   0.000   0.000   0.000   0.000   0.000   0.000   0.000   0.000   0.000
  0.000   1.931   0.000   0.000   0.000   0.000  -0.051   0.000   0.000   0.000   0.000   0.000  -0.008   0.000   0.000  -0.009
  0.000   0.000   1.929   0.000  -0.003   0.000   0.000  -0.038   0.000   0.020   0.011   0.025   0.000   0.017   0.000   0.000
  0.000   0.000   0.000   1.928   0.000   0.000   0.000   0.000  -0.048   0.000   0.000   0.000   0.000   0.000   0.034   0.000
  0.000   0.000  -0.003   0.000   1.918   0.000   0.000   0.019   0.000  -0.029  -0.011   0.019   0.000   0.022   0.000   0.000
 -0.026   0.000   0.000   0.000   0.000   0.040   0.000   0.000   0.000   0.000   0.000   0.000   0.000   0.000   0.000   0.000
  0.000  -0.051   0.000   0.000   0.000   0.000   0.039   0.000   0.000   0.000   0.000   0.000   0.039   0.000   0.000  -0.003
  0.000   0.000  -0.038   0.000   0.019   0.000   0.000   0.044   0.000   0.009  -0.045   0.000   0.000   0.036   0.000   0.000
  0.000   0.000   0.000  -0.048   0.000   0.000   0.000   0.000   0.046   0.000   0.000   0.000   0.000   0.000   0.051   0.000
  0.000   0.000   0.020   0.000  -0.029   0.000   0.000   0.009   0.000   0.047  -0.040   0.008   0.000   0.007   0.000   0.000
  0.000   0.000   0.011   0.000  -0.011   0.000   0.000  -0.045   0.000  -0.040   1.206  -0.247   0.000   0.109   0.000   0.000
  0.000   0.000   0.025   0.000   0.019   0.000   0.000   0.000   0.000   0.008  -0.247   0.091   0.000  -0.053   0.000   0.000
  0.000  -0.008   0.000   0.000   0.000   0.000   0.039   0.000   0.000   0.000   0.000   0.000   0.146   0.000   0.000  -0.009
  0.000   0.000   0.017   0.000   0.022   0.000   0.000   0.036   0.000   0.007   0.109  -0.053   0.000   0.078   0.000   0.000
  0.000   0.000   0.000   0.034   0.000   0.000   0.000   0.000   0.051   0.000   0.000   0.000   0.000   0.000   0.106   0.000
  0.000  -0.009   0.000   0.000   0.000   0.000  -0.003   0.000   0.000   0.000   0.000   0.000  -0.009   0.000   0.000   0.001
  0.000   0.000  -0.012   0.000  -0.001   0.000   0.000  -0.002   0.000   0.000  -0.019   0.007   0.000  -0.006   0.000   0.000
  0.000   0.000   0.000  -0.012   0.000   0.000   0.000   0.000  -0.003   0.000   0.000   0.000   0.000   0.000  -0.007   0.000


------------------------ aborting loop because EDIFF is reached ----------------------------------------


    CHARGE:  cpu time    0.63: real time    0.63
    FORLOC:  cpu time    0.02: real time    0.02
    FORNL :  cpu time    5.55: real time    5.55
    STRESS:  cpu time    8.64: real time    8.63
    FORCOR:  cpu time    0.30: real time    0.30
    FORHAR:  cpu time    0.09: real time    0.09
    MIXING:  cpu time    0.01: real time    0.01

  FORCE on cell =-STRESS in cart. coord.  units (eV):
  Direction    XX          YY          ZZ          XY          YZ          ZX
  --------------------------------------------------------------------------------------
  Alpha Z   278.63144   278.63144   278.63144
  Ewald   17995.88388 18206.18727-22355.89270     0.00000     0.00000     0.00000
  Hartree 20249.75462 20388.69040-18994.15463     0.00000     0.00000     0.00000
  E(xc)    -375.17227  -374.94579  -375.65531     0.00000     0.00000     0.00000
  Local  -38733.61876-39081.68380 40861.26491     0.00000     0.00000     0.00000
  n-local  -224.67409  -223.68111  -225.13097     2.89946     0.00000     0.00000
  augment   336.76733   336.29554   337.63422    -0.00002     0.00000    -0.00001
  Kinetic   469.96592   468.65266   471.98904     4.59074     0.00000     0.00000
  Fock        0.00000     0.00000     0.00000     0.00000     0.00000     0.00000
  -------------------------------------------------------------------------------------
  Total      -2.46193    -1.85340    -1.31402     0.00000     0.00000     0.00000
  in kB     -23.89517   -17.98891   -12.75368     0.00000     0.00000     0.00000
  external pressure =      -18.21 kB  Pullay stress =        0.00 kB


 VOLUME and BASIS-vectors are now :
 -----------------------------------------------------------------------------
  energy-cutoff  :      415.00
  volume of cell :      165.07
      direct lattice vectors                 reciprocal lattice vectors
     3.631354857  0.000000000  0.000000000     0.275379311  0.000000000  0.000000000
     0.000000000  2.567755644  0.000000000     0.000000000  0.389445157  0.000000000
     0.000000000  0.000000000 17.703266931     0.000000000  0.000000000  0.056486749

  length of vectors
     3.631354857  2.567755644 17.703266931     0.275379311  0.389445157  0.056486749


 FORCES acting on ions
    electron-ion (+dipol)            ewald-force                    non-local-force                 convergence-correction
 -----------------------------------------------------------------------------------------------
   -.130E-13 -.408E-13 0.310E+04   0.337E-13 0.138E-13 -.310E+04   0.000E+00 0.000E+00 -.426E+01   -.383E-13 0.329E-13 0.148E-03
   -.271E-13 -.145E-13 0.660E+03   -.160E-13 0.117E-13 -.659E+03   0.000E+00 0.000E+00 -.459E+00   -.708E-13 0.113E-13 -.167E-03
   -.936E-13 -.406E-13 -.202E+04   0.298E-13 0.508E-14 0.202E+04   0.000E+00 0.000E+00 -.553E+00   -.184E-13 -.109E-14 0.769E-04
   0.581E-12 0.352E-13 0.202E+04   -.382E-13 0.255E-13 -.202E+04   0.000E+00 0.000E+00 0.553E+00   -.192E-13 0.449E-13 -.758E-04
   0.618E-12 0.174E-11 -.660E+03   0.768E-14 0.189E-13 0.659E+03   0.000E+00 0.000E+00 0.459E+00   -.266E-14 -.121E-13 0.177E-03
   0.604E-12 0.392E-12 -.310E+04   -.420E-13 0.168E-13 0.310E+04   0.000E+00 0.000E+00 0.426E+01   0.344E-13 -.849E-13 -.156E-03
 -----------------------------------------------------------------------------------------------
   0.167E-11 0.207E-11 -.995E-03   -.251E-13 0.918E-13 0.000E+00   0.000E+00 0.000E+00 0.888E-15   -.115E-12 -.892E-14 0.376E-05
 
 
 POSITION                                       TOTAL-FORCE (eV/Angst)
 -----------------------------------------------------------------------------------
      0.00000      0.00000      0.00194         0.000000      0.000000      0.392398
      0.00000      0.00000      2.56747         0.000000      0.000000     -0.053768
      0.00000      0.00000      5.13730         0.000000      0.000000      0.357805
      1.81568      1.28388      1.28209         0.000000      0.000000     -0.357805
      1.81568      1.28388      3.85192         0.000000      0.000000      0.053768
      1.81568      1.28388      6.41744         0.000000      0.000000     -0.392398
 -----------------------------------------------------------------------------------
    total drift:                                0.000000      0.000000     -0.000992


--------------------------------------------------------------------------------------------------------



  FREE ENERGIE OF THE ION-ELECTRON SYSTEM (eV)
  ---------------------------------------------------
  free  energy   TOTEN  =       -20.512246 eV

  energy  without entropy=      -20.512246  energy(sigma->0) =      -20.512246
 
 d Force = 0.2882694E-02[ 0.284E-02, 0.293E-02]  d Energy = 0.2605525E-02 0.277E-03
 d Force =-0.4439283E+01[-0.444E+01,-0.444E+01]  d Ewald  =-0.4439287E+01 0.391E-05


--------------------------------------------------------------------------------------------------------


    POTLOK:  cpu time    0.33: real time    0.33


--------------------------------------------------------------------------------------------------------


 Steepest descent step on ions:
 trial-energy change:   -0.002606  1 .order   -0.002883   -0.002928   -0.002837
  (g-gl).g = 0.293E-02      g.g   = 0.293E-02  gl.gl    = 0.000E+00
 g(Force)  = 0.293E-02   g(Stress)= 0.000E+00 ortho     = 0.000E+00
 gamma     =   0.00000
 trial     =   1.00000
 opt step  =   4.00000  (harmonic =  32.07265) maximal distance =0.00777716
 next E    =   -20.556600   (d E  =  -0.04696)


--------------------------------------------------------------------------------------------------------


    WAVPRE:  cpu time    0.06: real time    0.06
    FEWALD:  cpu time    0.00: real time    0.00
    ORTHCH:  cpu time    1.19: real time    1.19
     LOOP+:  cpu time  129.45: real time  129.45


----------------------------------------- Iteration    3(   1)  ---------------------------------------


    POTLOK:  cpu time    0.30: real time    0.30
    SETDIJ:  cpu time    0.03: real time    0.03
     EDDAV:  cpu time   13.14: real time   13.13
 BZINTS: Fermi energy: -0.824320; 66.000000 electrons
         Band energy:-235.187942;  BLOECHL correction: -0.193420
       DOS:  cpu time    0.04: real time    0.04
    CHARGE:  cpu time    0.62: real time    0.62
    MIXING:  cpu time    0.01: real time    0.01
    --------------------------------------------
      LOOP:  cpu time   14.14: real time   14.13

 eigenvalue-minimisations  :  1280
 total energy-change (2. order) :-0.1309019E-01  (-0.6685801E-01)
 number of electron      66.0000010 magnetization 
 augmentation part       43.2723998 magnetization 

 Broyden mixing:
  rms(total) = 0.57617E-02    rms(broyden)= 0.57560E-02
  rms(prec ) = 0.62321E-02
  weight for this iteration     100.00

 Free energy of the ion-electron system (eV)
  ---------------------------------------------------
  alpha Z        PSCENC =       278.63143507
  Ewald energy   TEWEN  =     13859.49915205
  -1/2 Hartree   DENC   =    -21657.55398882
  -exchange  EXHF       =         0.00000000
  -V(xc)+E(xc)   XCENC  =       255.64399777
  PAW double counting   =      6546.12533742    -7413.51183211
  entropy T*S    EENTRO =         0.00000000
  eigenvalues    EBANDS =      -235.18794184
  atomic energy  EATOM  =      8345.82850422
  ---------------------------------------------------
  free energy    TOTEN  =       -20.52533624 eV

  energy without entropy =      -20.52533624  energy(sigma->0) =      -20.52533624


--------------------------------------------------------------------------------------------------------




----------------------------------------- Iteration    3(   2)  ---------------------------------------


    POTLOK:  cpu time    0.30: real time    0.30
    SETDIJ:  cpu time    0.03: real time    0.03
     EDDAV:  cpu time   14.30: real time   14.31
 BZINTS: Fermi energy: -0.827046; 66.000000 electrons
         Band energy:-235.482433;  BLOECHL correction: -0.187637
       DOS:  cpu time    0.04: real time    0.04
    CHARGE:  cpu time    0.60: real time    0.60
    MIXING:  cpu time    0.01: real time    0.01
    --------------------------------------------
      LOOP:  cpu time   15.29: real time   15.29

 eigenvalue-minimisations  :  1448
 total energy-change (2. order) : 0.5754825E-02  (-0.2201448E-03)
 number of electron      66.0000010 magnetization 
 augmentation part       43.2779267 magnetization 

 Broyden mixing:
  rms(total) = 0.48603E-02    rms(broyden)= 0.48595E-02
  rms(prec ) = 0.53115E-02
  weight for this iteration     100.00

 eigenvalues of (default mixing * dielectric matrix)
  average eigenvalue GAMMA=   0.6064
  0.6064

 Free energy of the ion-electron system (eV)
  ---------------------------------------------------
  alpha Z        PSCENC =       278.63143507
  Ewald energy   TEWEN  =     13859.49915205
  -1/2 Hartree   DENC   =    -21657.29925346
  -exchange  EXHF       =         0.00000000
  -V(xc)+E(xc)   XCENC  =       255.63458941
  PAW double counting   =      6546.08417867    -7413.41575476
  entropy T*S    EENTRO =         0.00000000
  eigenvalues    EBANDS =      -235.48243261
  atomic energy  EATOM  =      8345.82850422
  ---------------------------------------------------
  free energy    TOTEN  =       -20.51958141 eV

  energy without entropy =      -20.51958141  energy(sigma->0) =      -20.51958141


--------------------------------------------------------------------------------------------------------




----------------------------------------- Iteration    3(   3)  ---------------------------------------


    POTLOK:  cpu time    0.30: real time    0.30
    SETDIJ:  cpu time    0.03: real time    0.03
     EDDAV:  cpu time   13.94: real time   13.94
 BZINTS: Fermi energy: -0.826641; 66.000000 electrons
         Band energy:-235.432280;  BLOECHL correction: -0.187520
       DOS:  cpu time    0.04: real time    0.04
    CHARGE:  cpu time    0.60: real time    0.60
    MIXING:  cpu time    0.01: real time    0.01
    --------------------------------------------
      LOOP:  cpu time   14.92: real time   14.92

 eigenvalue-minimisations  :  1392
 total energy-change (2. order) : 0.8364194E-04  (-0.5269262E-04)
 number of electron      66.0000010 magnetization 
 augmentation part       43.2768832 magnetization 

 Broyden mixing:
  rms(total) = 0.31428E-02    rms(broyden)= 0.31425E-02
  rms(prec ) = 0.34313E-02
  weight for this iteration     100.00

 eigenvalues of (default mixing * dielectric matrix)
  average eigenvalue GAMMA=   1.0985
  0.4163  1.7808

 Free energy of the ion-electron system (eV)
  ---------------------------------------------------
  alpha Z        PSCENC =       278.63143507
  Ewald energy   TEWEN  =     13859.49915205
  -1/2 Hartree   DENC   =    -21657.31342136
  -exchange  EXHF       =         0.00000000
  -V(xc)+E(xc)   XCENC  =       255.63751695
  PAW double counting   =      6546.32003959    -7413.69044417
  entropy T*S    EENTRO =         0.00000000
  eigenvalues    EBANDS =      -235.43228012
  atomic energy  EATOM  =      8345.82850422
  ---------------------------------------------------
  free energy    TOTEN  =       -20.51949777 eV

  energy without entropy =      -20.51949777  energy(sigma->0) =      -20.51949777


--------------------------------------------------------------------------------------------------------




----------------------------------------- Iteration    3(   4)  ---------------------------------------


    POTLOK:  cpu time    0.30: real time    0.30
    SETDIJ:  cpu time    0.03: real time    0.03
     EDDAV:  cpu time   13.62: real time   13.61
 BZINTS: Fermi energy: -0.824897; 66.000000 electrons
         Band energy:-235.270852;  BLOECHL correction: -0.193407
       DOS:  cpu time    0.04: real time    0.04
    CHARGE:  cpu time    0.61: real time    0.61
    MIXING:  cpu time    0.01: real time    0.01
    --------------------------------------------
      LOOP:  cpu time   14.60: real time   14.61

 eigenvalue-minimisations  :  1352
 total energy-change (2. order) :-0.5950481E-02  (-0.8141193E-05)
 number of electron      66.0000010 magnetization 
 augmentation part       43.2734936 magnetization 

 Broyden mixing:
  rms(total) = 0.16519E-02    rms(broyden)= 0.16518E-02
  rms(prec ) = 0.18181E-02
  weight for this iteration     100.00

 eigenvalues of (default mixing * dielectric matrix)
  average eigenvalue GAMMA=   1.2175
  2.6974  0.5522  0.4029

 Free energy of the ion-electron system (eV)
  ---------------------------------------------------
  alpha Z        PSCENC =       278.63143507
  Ewald energy   TEWEN  =     13859.49915205
  -1/2 Hartree   DENC   =    -21657.42470189
  -exchange  EXHF       =         0.00000000
  -V(xc)+E(xc)   XCENC  =       255.64066966
  PAW double counting   =      6546.72624594    -7414.15590130
  entropy T*S    EENTRO =         0.00000000
  eigenvalues    EBANDS =      -235.27085200
  atomic energy  EATOM  =      8345.82850422
  ---------------------------------------------------
  free energy    TOTEN  =       -20.52544825 eV

  energy without entropy =      -20.52544825  energy(sigma->0) =      -20.52544825


--------------------------------------------------------------------------------------------------------




----------------------------------------- Iteration    3(   5)  ---------------------------------------


    POTLOK:  cpu time    0.30: real time    0.30
    SETDIJ:  cpu time    0.03: real time    0.03
     EDDAV:  cpu time   13.68: real time   13.67
 BZINTS: Fermi energy: -0.825786; 66.000000 electrons
         Band energy:-235.373531;  BLOECHL correction: -0.193424
       DOS:  cpu time    0.04: real time    0.04
    CHARGE:  cpu time    0.62: real time    0.62
    MIXING:  cpu time    0.01: real time    0.01
    --------------------------------------------
      LOOP:  cpu time   14.68: real time   14.68

 eigenvalue-minimisations  :  1360
 total energy-change (2. order) : 0.3335572E-04  (-0.3572512E-05)
 number of electron      66.0000010 magnetization 
 augmentation part       43.2748849 magnetization 

 Broyden mixing:
  rms(total) = 0.56303E-03    rms(broyden)= 0.56299E-03
  rms(prec ) = 0.63040E-03
  weight for this iteration     100.00

 eigenvalues of (default mixing * dielectric matrix)
  average eigenvalue GAMMA=   1.1132
  2.5088  0.3971  0.7735  0.7735

 Free energy of the ion-electron system (eV)
  ---------------------------------------------------
  alpha Z        PSCENC =       278.63143507
  Ewald energy   TEWEN  =     13859.49915205
  -1/2 Hartree   DENC   =    -21657.33422346
  -exchange  EXHF       =         0.00000000
  -V(xc)+E(xc)   XCENC  =       255.63726126
  PAW double counting   =      6546.78093700    -7414.19495036
  entropy T*S    EENTRO =         0.00000000
  eigenvalues    EBANDS =      -235.37353068
  atomic energy  EATOM  =      8345.82850422
  ---------------------------------------------------
  free energy    TOTEN  =       -20.52541489 eV

  energy without entropy =      -20.52541489  energy(sigma->0) =      -20.52541489


--------------------------------------------------------------------------------------------------------




----------------------------------------- Iteration    3(   6)  ---------------------------------------


    POTLOK:  cpu time    0.30: real time    0.30
    SETDIJ:  cpu time    0.03: real time    0.03
     EDDAV:  cpu time   13.23: real time   13.23
 BZINTS: Fermi energy: -0.825959; 66.000000 electrons
         Band energy:-235.388629;  BLOECHL correction: -0.187543
       DOS:  cpu time    0.04: real time    0.04
    CHARGE:  cpu time    0.60: real time    0.60
    MIXING:  cpu time    0.01: real time    0.01
    --------------------------------------------
      LOOP:  cpu time   14.22: real time   14.22

 eigenvalue-minimisations  :  1304
 total energy-change (2. order) : 0.5902230E-02  (-0.5970913E-06)
 number of electron      66.0000010 magnetization 
 augmentation part       43.2762454 magnetization 

 Broyden mixing:
  rms(total) = 0.44762E-03    rms(broyden)= 0.44737E-03
  rms(prec ) = 0.50234E-03
  weight for this iteration     100.00

 eigenvalues of (default mixing * dielectric matrix)
  average eigenvalue GAMMA=   0.9661
  2.3939  1.0880  0.6507  0.3943  0.3037

 Free energy of the ion-electron system (eV)
  ---------------------------------------------------
  alpha Z        PSCENC =       278.63143507
  Ewald energy   TEWEN  =     13859.49915205
  -1/2 Hartree   DENC   =    -21657.32574808
  -exchange  EXHF       =         0.00000000
  -V(xc)+E(xc)   XCENC  =       255.63610798
  PAW double counting   =      6546.71490993    -7414.11524468
  entropy T*S    EENTRO =         0.00000000
  eigenvalues    EBANDS =      -235.38862916
  atomic energy  EATOM  =      8345.82850422
  ---------------------------------------------------
  free energy    TOTEN  =       -20.51951266 eV

  energy without entropy =      -20.51951266  energy(sigma->0) =      -20.51951266


--------------------------------------------------------------------------------------------------------




----------------------------------------- Iteration    3(   7)  ---------------------------------------


    POTLOK:  cpu time    0.30: real time    0.30
    SETDIJ:  cpu time    0.03: real time    0.03
     EDDAV:  cpu time    9.13: real time    9.13
 BZINTS: Fermi energy: -0.825886; 66.000000 electrons
         Band energy:-235.381134;  BLOECHL correction: -0.187552
       DOS:  cpu time    0.04: real time    0.04
    CHARGE:  cpu time    0.60: real time    0.60
    MIXING:  cpu time    0.02: real time    0.01
    --------------------------------------------
      LOOP:  cpu time   10.12: real time   10.12

 eigenvalue-minimisations  :   736
 total energy-change (2. order) :-0.1117155E-04  (-0.1228489E-06)
 number of electron      66.0000010 magnetization 
 augmentation part       43.2762669 magnetization 

 Broyden mixing:
  rms(total) = 0.26927E-03    rms(broyden)= 0.26925E-03
  rms(prec ) = 0.30860E-03
  weight for this iteration     100.00

 eigenvalues of (default mixing * dielectric matrix)
  average eigenvalue GAMMA=   1.0691
  2.5448  1.1932  1.1932  0.7016  0.3989  0.3831

 Free energy of the ion-electron system (eV)
  ---------------------------------------------------
  alpha Z        PSCENC =       278.63143507
  Ewald energy   TEWEN  =     13859.49915205
  -1/2 Hartree   DENC   =    -21657.33380863
  -exchange  EXHF       =         0.00000000
  -V(xc)+E(xc)   XCENC  =       255.63618787
  PAW double counting   =      6546.71201877    -7414.11187869
  entropy T*S    EENTRO =         0.00000000
  eigenvalues    EBANDS =      -235.38113449
  atomic energy  EATOM  =      8345.82850422
  ---------------------------------------------------
  free energy    TOTEN  =       -20.51952383 eV

  energy without entropy =      -20.51952383  energy(sigma->0) =      -20.51952383


--------------------------------------------------------------------------------------------------------




----------------------------------------- Iteration    3(   8)  ---------------------------------------


    POTLOK:  cpu time    0.30: real time    0.30
    SETDIJ:  cpu time    0.03: real time    0.03
     EDDAV:  cpu time    9.80: real time    9.80
 BZINTS: Fermi energy: -0.825478; 66.000000 electrons
         Band energy:-235.340564;  BLOECHL correction: -0.187548
       DOS:  cpu time    0.04: real time    0.04
    CHARGE:  cpu time    0.61: real time    0.61
    MIXING:  cpu time    0.01: real time    0.01
    --------------------------------------------
      LOOP:  cpu time   10.79: real time   10.79

 eigenvalue-minimisations  :   824
 total energy-change (2. order) :-0.1194966E-04  (-0.1211390E-06)
 number of electron      66.0000010 magnetization 
 augmentation part       43.2756561 magnetization 

 Broyden mixing:
  rms(total) = 0.12074E-03    rms(broyden)= 0.12073E-03
  rms(prec ) = 0.13139E-03
  weight for this iteration     100.00

 eigenvalues of (default mixing * dielectric matrix)
  average eigenvalue GAMMA=   1.1911
  2.2809  2.2809  1.0921  1.0921  0.8254  0.3969  0.3690

 Free energy of the ion-electron system (eV)
  ---------------------------------------------------
  alpha Z        PSCENC =       278.63143507
  Ewald energy   TEWEN  =     13859.49915205
  -1/2 Hartree   DENC   =    -21657.36570205
  -exchange  EXHF       =         0.00000000
  -V(xc)+E(xc)   XCENC  =       255.63710263
  PAW double counting   =      6546.76577882    -7414.17524222
  entropy T*S    EENTRO =         0.00000000
  eigenvalues    EBANDS =      -235.34056430
  atomic energy  EATOM  =      8345.82850422
  ---------------------------------------------------
  free energy    TOTEN  =       -20.51953578 eV

  energy without entropy =      -20.51953578  energy(sigma->0) =      -20.51953578


--------------------------------------------------------------------------------------------------------




----------------------------------------- Iteration    3(   9)  ---------------------------------------


    POTLOK:  cpu time    0.30: real time    0.30
    SETDIJ:  cpu time    0.03: real time    0.03
     EDDAV:  cpu time    9.34: real time    9.34
 BZINTS: Fermi energy: -0.825546; 66.000000 electrons
         Band energy:-235.349379;  BLOECHL correction: -0.187558
       DOS:  cpu time    0.04: real time    0.04
    CHARGE:  cpu time    0.62: real time    0.62
    MIXING:  cpu time    0.02: real time    0.01
    --------------------------------------------
      LOOP:  cpu time   10.34: real time   10.35

 eigenvalue-minimisations  :   760
 total energy-change (2. order) :-0.1559820E-05  (-0.4739172E-07)
 number of electron      66.0000010 magnetization 
 augmentation part       43.2759605 magnetization 

 Broyden mixing:
  rms(total) = 0.81288E-04    rms(broyden)= 0.81285E-04
  rms(prec ) = 0.88746E-04
  weight for this iteration     100.00

 eigenvalues of (default mixing * dielectric matrix)
  average eigenvalue GAMMA=   1.1331
  2.4817  1.6417  1.6417  0.3983  0.3704  0.8562  0.8562  0.8184

 Free energy of the ion-electron system (eV)
  ---------------------------------------------------
  alpha Z        PSCENC =       278.63143507
  Ewald energy   TEWEN  =     13859.49915205
  -1/2 Hartree   DENC   =    -21657.36286244
  -exchange  EXHF       =         0.00000000
  -V(xc)+E(xc)   XCENC  =       255.63674146
  PAW double counting   =      6546.75268685    -7414.15581583
  entropy T*S    EENTRO =         0.00000000
  eigenvalues    EBANDS =      -235.34937872
  atomic energy  EATOM  =      8345.82850422
  ---------------------------------------------------
  free energy    TOTEN  =       -20.51953734 eV

  energy without entropy =      -20.51953734  energy(sigma->0) =      -20.51953734


--------------------------------------------------------------------------------------------------------




----------------------------------------- Iteration    3(  10)  ---------------------------------------


    POTLOK:  cpu time    0.30: real time    0.30
    SETDIJ:  cpu time    0.04: real time    0.03
     EDDAV:  cpu time    9.26: real time    9.26
 BZINTS: Fermi energy: -0.825524; 66.000000 electrons
         Band energy:-235.347248;  BLOECHL correction: -0.187555
       DOS:  cpu time    0.04: real time    0.04
    --------------------------------------------
      LOOP:  cpu time    9.63: real time    9.63

 eigenvalue-minimisations  :   752
 total energy-change (2. order) : 0.4450812E-06  (-0.9417154E-08)
 number of electron      66.0000010 magnetization 
 augmentation part       43.2759605 magnetization 

 Free energy of the ion-electron system (eV)
  ---------------------------------------------------
  alpha Z        PSCENC =       278.63143507
  Ewald energy   TEWEN  =     13859.49915205
  -1/2 Hartree   DENC   =    -21657.36350433
  -exchange  EXHF       =         0.00000000
  -V(xc)+E(xc)   XCENC  =       255.63684243
  PAW double counting   =      6546.75717883    -7414.16189762
  entropy T*S    EENTRO =         0.00000000
  eigenvalues    EBANDS =      -235.34724755
  atomic energy  EATOM  =      8345.82850422
  ---------------------------------------------------
  free energy    TOTEN  =       -20.51953690 eV

  energy without entropy =      -20.51953690  energy(sigma->0) =      -20.51953690


--------------------------------------------------------------------------------------------------------




 average (electrostatic) potential at core
  the test charge radii are     1.0053
  (the norm of the test charge is              1.0000)
       1 -44.0130       2 -44.4958       3 -44.4040       4 -44.4038       5 -44.4959
       6 -44.0133
 
 
 
 E-fermi :  -0.8255     XC(G=0):  -6.6645     alpha+bet : -4.1343


 k-point   1 :       0.0000    0.0000    0.0000
  band No.  band energies     occupation 
      1      -9.4788      2.00000
      2      -7.9458      2.00000
      3      -6.0052      2.00000
      4      -5.3390      2.00000
      5      -5.0119      2.00000
      6      -4.7756      2.00000
      7      -4.5402      2.00000
      8      -4.3489      2.00000
      9      -4.1128      2.00000
     10      -4.1124      2.00000
     11      -3.9997      2.00000
     12      -3.7938      2.00000
     13      -3.7169      2.00000
     14      -3.6690      2.00000
     15      -3.5499      2.00000
     16      -3.5075      2.00000
     17      -3.3946      2.00000
     18      -3.3283      2.00000
     19      -3.1926      2.00000
     20      -3.1822      2.00000
     21      -2.9669      2.00000
     22      -2.9561      2.00000
     23      -2.9467      2.00000
     24      -2.9014      2.00000
     25      -2.7906      2.00000
     26      -2.7033      2.00000
     27      -2.5863      2.00000
     28      -2.4505      2.00000
     29      -2.4212      2.00000
     30      -2.3559      2.00000
     31      -2.3351      2.00000
     32      -2.2486      2.00000
     33      -2.2020      2.00000
     34      -1.3204      2.06194
     35       0.6870      0.00000
     36       1.6731      0.00000
     37       2.8594      0.00000
     38       3.3250      0.00000
     39       3.8112      0.00000
     40       5.3687      0.00000

 k-point   2 :       0.1429    0.0000    0.0000
  band No.  band energies     occupation 
      1      -9.2392      2.00000
      2      -7.7345      2.00000
      3      -5.9160      2.00000
      4      -5.3330      2.00000
      5      -5.0031      2.00000
      6      -4.8137      2.00000
      7      -4.6803      2.00000
      8      -4.2945      2.00000
      9      -3.9902      2.00000
     10      -3.9774      2.00000
     11      -3.9299      2.00000
     12      -3.7714      2.00000
     13      -3.6467      2.00000
     14      -3.6149      2.00000
     15      -3.5683      2.00000
     16      -3.4646      2.00000
     17      -3.4609      2.00000
     18      -3.4059      2.00000
     19      -3.3119      2.00000
     20      -3.0859      2.00000
     21      -3.0755      2.00000
     22      -2.9796      2.00000
     23      -2.9481      2.00000
     24      -2.8616      2.00000
     25      -2.7657      2.00000
     26      -2.6958      2.00000
     27      -2.5964      2.00000
     28      -2.5038      2.00000
     29      -2.4006      2.00000
     30      -2.3610      2.00000
     31      -2.3187      2.00000
     32      -2.2393      2.00000
     33      -2.2360      2.00000
     34      -1.2262      2.10851
     35       0.3285     -0.01111
     36       0.8140      0.00000
     37       2.1580      0.00000
     38       2.9455      0.00000
     39       3.5430      0.00000
     40       4.4300      0.00000

 k-point   3 :       0.2857    0.0000    0.0000
  band No.  band energies     occupation 
      1      -8.5391      2.00000
      2      -7.1389      2.00000
      3      -5.7380      2.00000
      4      -5.4799      2.00000
      5      -5.1071      2.00000
      6      -4.9565      2.00000
      7      -4.6505      2.00000
      8      -4.1314      2.00000
      9      -3.9188      2.00000
     10      -3.8779      2.00000
     11      -3.7982      2.00000
     12      -3.7559      2.00000
     13      -3.6235      2.00000
     14      -3.5959      2.00000
     15      -3.5553      2.00000
     16      -3.4605      2.00000
     17      -3.4160      2.00000
     18      -3.3174      2.00000
     19      -3.1874      2.00000
     20      -3.1824      2.00000
     21      -3.1268      2.00000
     22      -3.0599      2.00000
     23      -2.9241      2.00000
     24      -2.8107      2.00000
     25      -2.7197      2.00000
     26      -2.6782      2.00000
     27      -2.6773      2.00000
     28      -2.5979      2.00000
     29      -2.3502      2.00000
     30      -2.3263      2.00000
     31      -2.3162      2.00000
     32      -2.2844      2.00000
     33      -2.2469      2.00000
     34      -1.5265      2.08878
     35      -0.8765      0.72777
     36      -0.1195      0.00000
     37       1.1771      0.00000
     38       1.6396      0.00000
     39       4.0648      0.00000
     40       4.0909      0.00000

 k-point   4 :       0.4286    0.0000    0.0000
  band No.  band energies     occupation 
      1      -7.4571      2.00000
      2      -6.3441      2.00000
      3      -6.2107      2.00000
      4      -5.7135      2.00000
      5      -5.2423      2.00000
      6      -5.2247      2.00000
      7      -4.4246      2.00000
      8      -4.1643      2.00000
      9      -3.8663      2.00000
     10      -3.8284      2.00000
     11      -3.7607      2.00000
     12      -3.7257      2.00000
     13      -3.6668      2.00000
     14      -3.6641      2.00000
     15      -3.5922      2.00000
     16      -3.5774      2.00000
     17      -3.3623      2.00000
     18      -3.3037      2.00000
     19      -3.2791      2.00000
     20      -3.1789      2.00000
     21      -2.9500      2.00000
     22      -2.8592      2.00000
     23      -2.8039      2.00000
     24      -2.7263      2.00000
     25      -2.6969      2.00000
     26      -2.6088      2.00000
     27      -2.5309      2.00000
     28      -2.4482      2.00000
     29      -2.3748      2.00000
     30      -2.3112      2.00000
     31      -2.3064      2.00000
     32      -2.2828      2.00000
     33      -2.2688      2.00000
     34      -2.2445      2.00000
     35      -1.6612      2.11294
     36      -0.8254      0.00000
     37       0.3275      0.00000
     38       0.9921      0.00000
     39       4.1274      0.00000
     40       5.0751      0.00000

 k-point   5 :       0.0000    0.1429    0.0000
  band No.  band energies     occupation 
      1      -8.9987      2.00000
      2      -7.4997      2.00000
      3      -5.6830      2.00000
      4      -5.1612      2.00000
      5      -4.8460      2.00000
      6      -4.5966      2.00000
      7      -4.3236      2.00000
      8      -4.3236      2.00000
      9      -4.2881      2.00000
     10      -4.2170      2.00000
     11      -4.1079      2.00000
     12      -3.9029      2.00000
     13      -3.8617      2.00000
     14      -3.6915      2.00000
     15      -3.5268      2.00000
     16      -3.4766      2.00000
     17      -3.3756      2.00000
     18      -3.3275      2.00000
     19      -3.1213      2.00000
     20      -3.1168      2.00000
     21      -3.0337      2.00000
     22      -2.9168      2.00000
     23      -2.8699      2.00000
     24      -2.8486      2.00000
     25      -2.8116      2.00000
     26      -2.7941      2.00000
     27      -2.5255      2.00000
     28      -2.4994      2.00000
     29      -2.4981      2.00000
     30      -2.4515      2.00000
     31      -2.3736      2.00000
     32      -2.2182      2.00000
     33      -2.2093      2.00000
     34      -0.9642      1.32493
     35       1.1574      0.00000
     36       2.5867      0.00000
     37       3.3141      0.00000
     38       3.7873      0.00000
     39       4.4896      0.00000
     40       5.8514      0.00000

 k-point   6 :       0.1429    0.1429    0.0000
  band No.  band energies     occupation 
      1      -8.7654      2.00000
      2      -7.2933      2.00000
      3      -5.5897      2.00000
      4      -5.1319      2.00000
      5      -4.8251      2.00000
      6      -4.6284      2.00000
      7      -4.5394      2.00000
      8      -4.2302      2.00000
      9      -4.1659      2.00000
     10      -4.1265      2.00000
     11      -4.0193      2.00000
     12      -3.9151      2.00000
     13      -3.7537      2.00000
     14      -3.7111      2.00000
     15      -3.5410      2.00000
     16      -3.4948      2.00000
     17      -3.4438      2.00000
     18      -3.3096      2.00000
     19      -3.2837      2.00000
     20      -3.1467      2.00000
     21      -3.0125      2.00000
     22      -2.9461      2.00000
     23      -2.9391      2.00000
     24      -2.9085      2.00000
     25      -2.7650      2.00000
     26      -2.6708      2.00000
     27      -2.5645      2.00000
     28      -2.4844      2.00000
     29      -2.4622      2.00000
     30      -2.4356      2.00000
     31      -2.3804      2.00000
     32      -2.3072      2.00000
     33      -2.1659      2.00000
     34      -0.7955      0.96688
     35       1.1247     -0.00770
     36       1.3331      0.00000
     37       2.7288      0.00000
     38       3.4492      0.00000
     39       4.0074      0.00000
     40       4.8791      0.00000

 k-point   7 :       0.2857    0.1429    0.0000
  band No.  band energies     occupation 
      1      -8.0868      2.00000
      2      -6.7160      2.00000
      3      -5.4141      2.00000
      4      -5.2088      2.00000
      5      -4.8897      2.00000
      6      -4.7159      2.00000
      7      -4.5585      2.00000
      8      -4.1615      2.00000
      9      -4.0407      2.00000
     10      -3.9713      2.00000
     11      -3.9181      2.00000
     12      -3.9112      2.00000
     13      -3.7041      2.00000
     14      -3.6615      2.00000
     15      -3.5126      2.00000
     16      -3.4784      2.00000
     17      -3.4383      2.00000
     18      -3.4008      2.00000
     19      -3.3110      2.00000
     20      -3.2717      2.00000
     21      -3.0952      2.00000
     22      -3.0629      2.00000
     23      -3.0439      2.00000
     24      -2.8852      2.00000
     25      -2.7068      2.00000
     26      -2.6640      2.00000
     27      -2.6594      2.00000
     28      -2.5020      2.00000
     29      -2.4350      2.00000
     30      -2.4179      2.00000
     31      -2.3591      2.00000
     32      -2.3561      2.00000
     33      -1.9298      2.00000
     34      -0.8498      1.18967
     35      -0.2213     -0.05133
     36       0.4831      0.00000
     37       1.7509      0.00000
     38       2.1902      0.00000
     39       4.4580      0.00000
     40       4.5542      0.00000

 k-point   8 :       0.4286    0.1429    0.0000
  band No.  band energies     occupation 
      1      -7.0488      2.00000
      2      -5.9834      2.00000
      3      -5.8543      2.00000
      4      -5.4019      2.00000
      5      -4.9803      2.00000
      6      -4.9241      2.00000
      7      -4.3717      2.00000
      8      -4.1617      2.00000
      9      -3.9551      2.00000
     10      -3.9283      2.00000
     11      -3.8894      2.00000
     12      -3.8628      2.00000
     13      -3.6871      2.00000
     14      -3.6819      2.00000
     15      -3.6154      2.00000
     16      -3.5298      2.00000
     17      -3.4103      2.00000
     18      -3.3475      2.00000
     19      -3.1525      2.00000
     20      -3.1452      2.00000
     21      -3.1082      2.00000
     22      -3.0675      2.00000
     23      -3.0633      2.00000
     24      -3.0285      2.00000
     25      -2.7673      2.00000
     26      -2.7158      2.00000
     27      -2.6363      2.00000
     28      -2.5903      2.00000
     29      -2.4608      2.00000
     30      -2.4383      2.00000
     31      -2.3952      2.00000
     32      -2.0894      2.00000
     33      -1.9408      2.00000
     34      -1.4098      1.90657
     35      -0.9151      1.04277
     36       0.1396      0.00000
     37       0.7694      0.00000
     38       1.6517      0.00000
     39       4.4648      0.00000
     40       5.4423      0.00000

 k-point   9 :       0.0000    0.2857    0.0000
  band No.  band energies     occupation 
      1      -7.6527      2.00000
      2      -6.3741      2.00000
      3      -5.3051      2.00000
      4      -4.9059      2.00000
      5      -4.6958      2.00000
      6      -4.6942      2.00000
      7      -4.5055      2.00000
      8      -4.3541      2.00000
      9      -4.3461      2.00000
     10      -4.2784      2.00000
     11      -4.1854      2.00000
     12      -3.8026      2.00000
     13      -3.6702      2.00000
     14      -3.6295      2.00000
     15      -3.4359      2.00000
     16      -3.3509      2.00000
     17      -3.2391      2.00000
     18      -3.0955      2.00000
     19      -3.0528      2.00000
     20      -3.0223      2.00000
     21      -2.9682      2.00000
     22      -2.9189      2.00000
     23      -2.8197      2.00000
     24      -2.7645      2.00000
     25      -2.6475      2.00000
     26      -2.6355      2.00000
     27      -2.4941      2.00000
     28      -2.4897      2.00000
     29      -2.4776      2.00000
     30      -2.3830      2.00000
     31      -2.3015      2.00000
     32      -2.2550      2.00000
     33      -1.9764      2.07720
     34       0.0593     -0.11907
     35       2.3629      0.00000
     36       4.0788      0.00000
     37       4.7367      0.00000
     38       4.7453      0.00000
     39       5.0184      0.00000
     40       5.8955      0.00000

 k-point  10 :       0.1429    0.2857    0.0000
  band No.  band energies     occupation 
      1      -7.4525      2.00000
      2      -6.1948      2.00000
      3      -5.1893      2.00000
      4      -4.8362      2.00000
      5      -4.6927      2.00000
      6      -4.6723      2.00000
      7      -4.5443      2.00000
      8      -4.3247      2.00000
      9      -4.2905      2.00000
     10      -4.2065      2.00000
     11      -4.1573      2.00000
     12      -3.8397      2.00000
     13      -3.6669      2.00000
     14      -3.6511      2.00000
     15      -3.5016      2.00000
     16      -3.4269      2.00000
     17      -3.3167      2.00000
     18      -3.2361      2.00000
     19      -3.0301      2.00000
     20      -3.0022      2.00000
     21      -2.9461      2.00000
     22      -2.8879      2.00000
     23      -2.8345      2.00000
     24      -2.8293      2.00000
     25      -2.7979      2.00000
     26      -2.6287      2.00000
     27      -2.5112      2.00000
     28      -2.4788      2.00000
     29      -2.4218      2.00000
     30      -2.3603      2.00000
     31      -2.3313      2.00000
     32      -2.3142      2.00717
     33      -1.6697      1.95448
     34       0.3452     -0.09840
     35       2.6021      0.00000
     36       2.7371      0.00000
     37       4.2088      0.00000
     38       4.4627      0.00000
     39       5.0472      0.00000
     40       5.2980      0.00000

 k-point  11 :       0.2857    0.2857    0.0000
  band No.  band energies     occupation 
      1      -6.8916      2.00000
      2      -5.7134      2.00000
      3      -4.9177      2.00000
      4      -4.8990      2.00000
      5      -4.6797      2.00000
      6      -4.6157      2.00000
      7      -4.4598      2.00000
      8      -4.2938      2.00000
      9      -4.1659      2.00000
     10      -4.0903      2.00000
     11      -4.0380      2.00000
     12      -3.9213      2.00000
     13      -3.7292      2.00000
     14      -3.6544      2.00000
     15      -3.5751      2.00000
     16      -3.5368      2.00000
     17      -3.4267      2.00000
     18      -3.4224      2.00000
     19      -3.1020      2.00000
     20      -3.0127      2.00000
     21      -2.9980      2.00000
     22      -2.9903      2.00000
     23      -2.9516      2.00000
     24      -2.8666      2.00000
     25      -2.7478      2.00000
     26      -2.6681      2.00000
     27      -2.5847      2.00000
     28      -2.5024      2.00000
     29      -2.4172      2.00000
     30      -2.4153      2.00000
     31      -2.3962      2.00000
     32      -2.0807      2.08559
     33      -0.9382      1.39925
     34       0.4180     -0.10598
     35       1.1686     -0.01245
     36       1.8160      0.00000
     37       3.2682      0.00000
     38       3.6932      0.00000
     39       5.3763      0.00000
     40       5.7618      0.00000

 k-point  12 :       0.4286    0.2857    0.0000
  band No.  band energies     occupation 
      1      -6.1151      2.00000
      2      -5.3999      2.00000
      3      -5.1027      2.00000
      4      -4.7806      2.00000
      5      -4.5791      2.00000
      6      -4.5639      2.00000
      7      -4.2746      2.00000
      8      -4.2528      2.00000
      9      -4.0857      2.00000
     10      -4.0734      2.00000
     11      -4.0285      2.00000
     12      -3.8800      2.00000
     13      -3.7104      2.00000
     14      -3.6654      2.00000
     15      -3.6346      2.00000
     16      -3.5741      2.00000
     17      -3.5340      2.00000
     18      -3.5228      2.00000
     19      -3.1893      2.00000
     20      -3.1710      2.00000
     21      -3.0512      2.00000
     22      -2.9965      2.00000
     23      -2.9488      2.00000
     24      -2.9232      2.00000
     25      -2.7275      2.00000
     26      -2.7272      2.00000
     27      -2.6772      2.00000
     28      -2.5415      2.00000
     29      -2.4605      2.00000
     30      -2.4557      2.00000
     31      -2.1888      2.00000
     32      -1.4322      2.03407
     33      -1.1616      1.57881
     34      -0.3095      0.05305
     35       0.4212     -0.08519
     36       1.6632      0.00000
     37       2.3133      0.00000
     38       3.3785      0.00000
     39       5.5329      0.00000
     40       6.4837      0.00000

 k-point  13 :       0.0000    0.4286    0.0000
  band No.  band energies     occupation 
      1      -5.9101      2.00000
      2      -5.5369      2.00000
      3      -5.3299      2.00000
      4      -4.9439      2.00000
      5      -4.9438      2.00000
      6      -4.9286      2.00000
      7      -4.5148      2.00000
      8      -4.4867      2.00000
      9      -4.4183      2.00000
     10      -4.3730      2.00000
     11      -4.0022      2.00000
     12      -3.8635      2.00000
     13      -3.8536      2.00000
     14      -3.6682      2.00000
     15      -3.3543      2.00000
     16      -3.1685      2.00000
     17      -3.0952      2.00000
     18      -3.0389      2.00000
     19      -2.8840      2.00000
     20      -2.7223      2.00000
     21      -2.6736      2.00000
     22      -2.6139      2.00000
     23      -2.5333      2.00000
     24      -2.4579      2.00000
     25      -2.4365      2.00000
     26      -2.3944      2.00000
     27      -2.3869      2.00000
     28      -2.3207      2.00000
     29      -2.2806      2.00000
     30      -2.2749      2.00000
     31      -1.7919      2.00000
     32      -1.5253      2.00000
     33      -0.4911      0.37580
     34       0.4355      0.00000
     35       1.2641      0.00000
     36       1.3071      0.00000
     37       3.9856      0.00000
     38       4.3544      0.00000
     39       6.9019      0.00000
     40       7.3606      0.00000

 k-point  14 :       0.1429    0.4286    0.0000
  band No.  band energies     occupation 
      1      -5.8388      2.00000
      2      -5.4180      2.00000
      3      -5.2281      2.00000
      4      -4.9868      2.00000
      5      -4.8956      2.00000
      6      -4.8284      2.00000
      7      -4.6740      2.00000
      8      -4.5367      2.00000
      9      -4.2084      2.00000
     10      -4.1997      2.00000
     11      -3.9592      2.00000
     12      -3.8699      2.00000
     13      -3.7529      2.00000
     14      -3.6242      2.00000
     15      -3.4148      2.00000
     16      -3.3945      2.00000
     17      -3.0826      2.00000
     18      -3.0688      2.00000
     19      -2.8780      2.00000
     20      -2.8540      2.00000
     21      -2.7233      2.00000
     22      -2.7146      2.00000
     23      -2.6016      2.00000
     24      -2.5134      2.00000
     25      -2.4557      2.00000
     26      -2.4143      2.00000
     27      -2.3732      2.00000
     28      -2.3583      2.00000
     29      -2.3085      2.00000
     30      -2.2913      2.00000
     31      -1.8014      2.00000
     32      -1.3473      2.07606
     33      -0.0431      0.05863
     34       0.5132      0.00000
     35       1.4985      0.00000
     36       1.7212      0.00000
     37       4.1824      0.00000
     38       4.6022      0.00000
     39       5.4902      0.00000
     40       6.6585      0.00000

 k-point  15 :       0.2857    0.4286    0.0000
  band No.  band energies     occupation 
      1      -5.6945      2.00000
      2      -5.1828      2.00000
      3      -5.0890      2.00000
      4      -4.9639      2.00000
      5      -4.7877      2.00000
      6      -4.7815      2.00000
      7      -4.4433      2.00000
      8      -4.3740      2.00000
      9      -4.1316      2.00000
     10      -4.0909      2.00000
     11      -3.7662      2.00000
     12      -3.7247      2.00000
     13      -3.6897      2.00000
     14      -3.6622      2.00000
     15      -3.5700      2.00000
     16      -3.5203      2.00000
     17      -3.3614      2.00000
     18      -3.2761      2.00000
     19      -3.0267      2.00000
     20      -2.9476      2.00000
     21      -2.8367      2.00000
     22      -2.7195      2.00000
     23      -2.6841      2.00000
     24      -2.6054      2.00000
     25      -2.5065      2.00000
     26      -2.4646      2.00000
     27      -2.3709      2.00000
     28      -2.3491      2.00000
     29      -2.2899      2.00000
     30      -2.2539      2.00000
     31      -1.8196      2.00000
     32      -0.7797      1.15739
     33       0.4789     -0.12652
     34       0.9136      0.00000
     35       1.9649      0.00000
     36       2.7110      0.00000
     37       3.6240      0.00000
     38       4.5658      0.00000
     39       4.7559      0.00000
     40       5.3026      0.00000

 k-point  16 :       0.4286    0.4286    0.0000
  band No.  band energies     occupation 
      1      -5.5516      2.00000
      2      -5.3827      2.00000
      3      -4.8125      2.00000
      4      -4.7178      2.00000
      5      -4.6541      2.00000
      6      -4.5972      2.00000
      7      -4.2296      2.00000
      8      -4.1424      2.00000
      9      -4.0816      2.00000
     10      -4.0627      2.00000
     11      -3.8772      2.00000
     12      -3.8601      2.00000
     13      -3.7315      2.00000
     14      -3.7218      2.00000
     15      -3.5840      2.00000
     16      -3.5819      2.00000
     17      -3.4324      2.00000
     18      -3.4132      2.00000
     19      -3.1027      2.00000
     20      -3.0773      2.00000
     21      -2.7934      2.00000
     22      -2.7519      2.00000
     23      -2.6553      2.00000
     24      -2.6171      2.00000
     25      -2.5197      2.00000
     26      -2.4543      2.00000
     27      -2.3861      2.00000
     28      -2.3715      2.00000
     29      -2.2537      2.00000
     30      -2.2270      2.00000
     31      -1.4631      2.00000
     32      -0.4076      0.23278
     33       0.1938     -0.11394
     34       1.3416      0.00000
     35       2.2764      0.00000
     36       3.3303      0.00000
     37       3.5034      0.00000
     38       4.1885      0.00000
     39       4.5354      0.00000
     40       4.7424      0.00000


--------------------------------------------------------------------------------------------------------


 soft charge-density along one line, spin component           1
         0         1         2         3         4         5         6         7         8         9
 total charge-density along one line
 
 pseudopotential strength for first ion, spin component:           1
 -9.449   0.000   0.000   0.000   0.000   1.101   0.000   0.000
  0.000  -9.430   0.000   0.000   0.000   0.000   1.092   0.000
  0.000   0.000  -9.421   0.000  -0.019   0.000   0.000   1.087
  0.000   0.000   0.000  -9.412   0.000   0.000   0.000   0.000
  0.000   0.000  -0.019   0.000  -9.446   0.000   0.000   0.009
  1.101   0.000   0.000   0.000   0.000   1.071   0.000   0.000
  0.000   1.092   0.000   0.000   0.000   0.000   1.075   0.000
  0.000   0.000   1.087   0.000   0.009   0.000   0.000   1.078
  0.000   0.000   0.000   1.083   0.000   0.000   0.000   0.000
  0.000   0.000   0.009   0.000   1.100   0.000   0.000  -0.004
  0.000   0.000  -0.005   0.000  -0.003   0.000   0.000   0.002
  0.000   0.000   0.000   0.000   0.000   0.000   0.000   0.000
  0.000  -0.018   0.000   0.000   0.000   0.000   0.009   0.000
  0.000   0.000  -0.020   0.000   0.001   0.000   0.000   0.010
  0.000   0.000   0.000  -0.017   0.000   0.000   0.000   0.000
  0.000   0.011   0.000   0.000   0.000   0.000  -0.005   0.000
  0.000   0.000   0.012   0.000  -0.001   0.000   0.000  -0.006
  0.000   0.000   0.000   0.010   0.000   0.000   0.000   0.000
 total augmentation occupancy for first ion, spin component:           1
  1.915   0.000   0.000   0.000   0.000  -0.025   0.000   0.000   0.000   0.000   0.000   0.000   0.000   0.000   0.000   0.000
  0.000   1.931   0.000   0.000   0.000   0.000  -0.051   0.000   0.000   0.000   0.000   0.000  -0.007   0.000   0.000  -0.009
  0.000   0.000   1.929   0.000  -0.003   0.000   0.000  -0.037   0.000   0.019   0.012   0.025   0.000   0.018   0.000   0.000
  0.000   0.000   0.000   1.928   0.000   0.000   0.000   0.000  -0.048   0.000   0.000   0.000   0.000   0.000   0.034   0.000
  0.000   0.000  -0.003   0.000   1.918   0.000   0.000   0.019   0.000  -0.029  -0.010   0.019   0.000   0.022   0.000   0.000
 -0.025   0.000   0.000   0.000   0.000   0.040   0.000   0.000   0.000   0.000   0.000   0.000   0.000   0.000   0.000   0.000
  0.000  -0.051   0.000   0.000   0.000   0.000   0.040   0.000   0.000   0.000   0.000   0.000   0.039   0.000   0.000  -0.003
  0.000   0.000  -0.037   0.000   0.019   0.000   0.000   0.045   0.000   0.009  -0.046   0.000   0.000   0.036   0.000   0.000
  0.000   0.000   0.000  -0.048   0.000   0.000   0.000   0.000   0.047   0.000   0.000   0.000   0.000   0.000   0.052   0.000
  0.000   0.000   0.019   0.000  -0.029   0.000   0.000   0.009   0.000   0.047  -0.039   0.008   0.000   0.007   0.000   0.000
  0.000   0.000   0.012   0.000  -0.010   0.000   0.000  -0.046   0.000  -0.039   1.209  -0.249   0.000   0.111   0.000   0.000
  0.000   0.000   0.025   0.000   0.019   0.000   0.000   0.000   0.000   0.008  -0.249   0.092   0.000  -0.054   0.000   0.000
  0.000  -0.007   0.000   0.000   0.000   0.000   0.039   0.000   0.000   0.000   0.000   0.000   0.147   0.000   0.000  -0.009
  0.000   0.000   0.018   0.000   0.022   0.000   0.000   0.036   0.000   0.007   0.111  -0.054   0.000   0.078   0.000   0.000
  0.000   0.000   0.000   0.034   0.000   0.000   0.000   0.000   0.052   0.000   0.000   0.000   0.000   0.000   0.107   0.000
  0.000  -0.009   0.000   0.000   0.000   0.000  -0.003   0.000   0.000   0.000   0.000   0.000  -0.009   0.000   0.000   0.001
  0.000   0.000  -0.012   0.000  -0.001   0.000   0.000  -0.002   0.000   0.000  -0.019   0.007   0.000  -0.006   0.000   0.000
  0.000   0.000   0.000  -0.012   0.000   0.000   0.000   0.000  -0.003   0.000   0.000   0.000   0.000   0.000  -0.007   0.000


------------------------ aborting loop because EDIFF is reached ----------------------------------------


    CHARGE:  cpu time    0.60: real time    0.61
    FORLOC:  cpu time    0.02: real time    0.02
    FORNL :  cpu time    5.53: real time    5.53
    STRESS:  cpu time    8.63: real time    8.63
    FORCOR:  cpu time    0.30: real time    0.30
    FORHAR:  cpu time    0.09: real time    0.09
    MIXING:  cpu time    0.02: real time    0.01

  FORCE on cell =-STRESS in cart. coord.  units (eV):
  Direction    XX          YY          ZZ          XY          YZ          ZX
  --------------------------------------------------------------------------------------
  Alpha Z   278.63144   278.63144   278.63144
  Ewald   18013.65386 18220.56863-22374.72661     0.00000     0.00000     0.00000
  Hartree 20265.61868 20402.43142-19010.66879     0.00000     0.00000     0.00000
  E(xc)    -375.17591  -374.95309  -375.66640     0.00000     0.00000     0.00000
  Local  -38767.25814-39109.87713 40896.51929     0.00000     0.00000     0.00000
  n-local  -224.59682  -223.61176  -225.06273     2.91036     0.00000     0.00000
  augment   336.76359   336.31801   337.66942    -0.00001    -0.00001    -0.00002
  Kinetic   469.96073   468.67752   472.03708     4.59390     0.00000     0.00000
  Fock        0.00000     0.00000     0.00000     0.00000     0.00000     0.00000
  -------------------------------------------------------------------------------------
  Total      -2.40257    -1.81496    -1.26732     0.00000     0.00000     0.00000
  in kB     -23.31901   -17.61576   -12.30041     0.00000     0.00000     0.00000
  external pressure =      -17.75 kB  Pullay stress =        0.00 kB


 VOLUME and BASIS-vectors are now :
 -----------------------------------------------------------------------------
  energy-cutoff  :      415.00
  volume of cell :      165.07
      direct lattice vectors                 reciprocal lattice vectors
     3.631354857  0.000000000  0.000000000     0.275379311  0.000000000  0.000000000
     0.000000000  2.567755644  0.000000000     0.000000000  0.389445157  0.000000000
     0.000000000  0.000000000 17.703266931     0.000000000  0.000000000  0.056486749

  length of vectors
     3.631354857  2.567755644 17.703266931     0.275379311  0.389445157  0.056486749


 FORCES acting on ions
    electron-ion (+dipol)            ewald-force                    non-local-force                 convergence-correction
 -----------------------------------------------------------------------------------------------
   -.407E-13 -.711E-14 0.310E+04   0.335E-13 0.637E-14 -.310E+04   0.000E+00 0.000E+00 -.424E+01   0.253E-13 0.449E-13 -.590E-03
   -.669E-13 0.183E-13 0.657E+03   -.818E-14 0.101E-13 -.657E+03   0.000E+00 0.000E+00 -.467E+00   -.956E-13 0.251E-13 0.275E-04
   -.602E-13 -.158E-13 -.202E+04   -.575E-13 0.170E-13 0.202E+04   0.000E+00 0.000E+00 -.587E+00   -.512E-13 0.400E-13 0.113E-02
   0.573E-12 0.338E-12 0.202E+04   -.266E-13 0.254E-13 -.202E+04   0.000E+00 0.000E+00 0.587E+00   0.164E-13 0.158E-13 -.118E-02
   0.579E-12 0.118E-12 -.657E+03   0.330E-14 0.183E-13 0.657E+03   0.000E+00 0.000E+00 0.467E+00   0.548E-13 0.251E-13 -.773E-04
   0.636E-12 -.511E-12 -.310E+04   0.304E-13 0.147E-13 0.310E+04   0.000E+00 0.000E+00 0.424E+01   -.368E-13 -.180E-13 0.553E-03
 -----------------------------------------------------------------------------------------------
   0.162E-11 -.592E-13 -.640E-03   -.251E-13 0.918E-13 0.000E+00   0.000E+00 0.000E+00 0.000E+00   -.871E-13 0.133E-12 -.135E-03
 
 
 POSITION                                       TOTAL-FORCE (eV/Angst)
 -----------------------------------------------------------------------------------
      0.00000      0.00000      0.00778         0.000000      0.000000      0.359815
      0.00000      0.00000      2.56661         0.000000      0.000000     -0.036264
      0.00000      0.00000      5.14267         0.000000      0.000000      0.318657
      1.81568      1.28388      1.27672         0.000000      0.000000     -0.318657
      1.81568      1.28388      3.85278         0.000000      0.000000      0.036264
      1.81568      1.28388      6.41161         0.000000      0.000000     -0.359815
 -----------------------------------------------------------------------------------
    total drift:                                0.000000      0.000000     -0.000776


--------------------------------------------------------------------------------------------------------



  FREE ENERGIE OF THE ION-ELECTRON SYSTEM (eV)
  ---------------------------------------------------
  free  energy   TOTEN  =       -20.519537 eV

  energy  without entropy=      -20.519537  energy(sigma->0) =      -20.519537
 
 d Force = 0.8095884E-02[ 0.768E-02, 0.851E-02]  d Energy = 0.7291233E-02 0.805E-03
 d Force =-0.1331732E+02[-0.133E+02,-0.133E+02]  d Ewald  =-0.1331743E+02 0.106E-03


--------------------------------------------------------------------------------------------------------


    POTLOK:  cpu time    0.33: real time    0.33


--------------------------------------------------------------------------------------------------------




--------------------------------------------------------------------------------------------------------


    WAVPRE:  cpu time    0.06: real time    0.06
    FEWALD:  cpu time    0.00: real time    0.00
    ORTHCH:  cpu time    1.18: real time    1.18
     LOOP+:  cpu time  145.55: real time  145.55


----------------------------------------- Iteration    4(   1)  ---------------------------------------


    POTLOK:  cpu time    0.30: real time    0.30
    SETDIJ:  cpu time    0.03: real time    0.03
     EDDAV:  cpu time   13.11: real time   13.11
 BZINTS: Fermi energy: -0.825830; 66.000000 electrons
         Band energy:-235.505586;  BLOECHL correction: -0.192191
       DOS:  cpu time    0.04: real time    0.04
    CHARGE:  cpu time    0.61: real time    0.61
    MIXING:  cpu time    0.01: real time    0.01
    --------------------------------------------
      LOOP:  cpu time   14.10: real time   14.10

 eigenvalue-minimisations  :  1280
 total energy-change (2. order) :-0.1776083E-01  (-0.2675328E+00)
 number of electron      65.9999942 magnetization 
 augmentation part       43.2652101 magnetization 

 Broyden mixing:
  rms(total) = 0.11637E-01    rms(broyden)= 0.11626E-01
  rms(prec ) = 0.12581E-01
  weight for this iteration     100.00

 Free energy of the ion-electron system (eV)
  ---------------------------------------------------
  alpha Z        PSCENC =       278.63143507
  Ewald energy   TEWEN  =     13886.12778362
  -1/2 Hartree   DENC   =    -21683.88389493
  -exchange  EXHF       =         0.00000000
  -V(xc)+E(xc)   XCENC  =       255.67002604
  PAW double counting   =      6546.75954796    -7414.16511459
  entropy T*S    EENTRO =         0.00000000
  eigenvalues    EBANDS =      -235.50558556
  atomic energy  EATOM  =      8345.82850422
  ---------------------------------------------------
  free energy    TOTEN  =       -20.53729817 eV

  energy without entropy =      -20.53729817  energy(sigma->0) =      -20.53729817


--------------------------------------------------------------------------------------------------------




----------------------------------------- Iteration    4(   2)  ---------------------------------------


    POTLOK:  cpu time    0.30: real time    0.30
    SETDIJ:  cpu time    0.03: real time    0.03
     EDDAV:  cpu time   14.54: real time   14.54
 BZINTS: Fermi energy: -0.831027; 66.000000 electrons
         Band energy:-236.092568;  BLOECHL correction: -0.192424
       DOS:  cpu time    0.04: real time    0.04
    CHARGE:  cpu time    0.60: real time    0.60
    MIXING:  cpu time    0.01: real time    0.01
    --------------------------------------------
      LOOP:  cpu time   15.52: real time   15.52

 eigenvalue-minimisations  :  1480
 total energy-change (2. order) :-0.6031366E-03  (-0.8879271E-03)
 number of electron      65.9999942 magnetization 
 augmentation part       43.2748527 magnetization 

 Broyden mixing:
  rms(total) = 0.98047E-02    rms(broyden)= 0.98031E-02
  rms(prec ) = 0.10772E-01
  weight for this iteration     100.00

 eigenvalues of (default mixing * dielectric matrix)
  average eigenvalue GAMMA=   0.6076
  0.6076

 Free energy of the ion-electron system (eV)
  ---------------------------------------------------
  alpha Z        PSCENC =       278.63143507
  Ewald energy   TEWEN  =     13886.12778362
  -1/2 Hartree   DENC   =    -21683.37954287
  -exchange  EXHF       =         0.00000000
  -V(xc)+E(xc)   XCENC  =       255.65127020
  PAW double counting   =      6546.71187623    -7414.01666016
  entropy T*S    EENTRO =         0.00000000
  eigenvalues    EBANDS =      -236.09256762
  atomic energy  EATOM  =      8345.82850422
  ---------------------------------------------------
  free energy    TOTEN  =       -20.53790131 eV

  energy without entropy =      -20.53790131  energy(sigma->0) =      -20.53790131


--------------------------------------------------------------------------------------------------------




----------------------------------------- Iteration    4(   3)  ---------------------------------------


    POTLOK:  cpu time    0.30: real time    0.30
    SETDIJ:  cpu time    0.03: real time    0.03
     EDDAV:  cpu time   13.84: real time   13.85
 BZINTS: Fermi energy: -0.830865; 66.000000 electrons
         Band energy:-236.054508;  BLOECHL correction: -0.192253
       DOS:  cpu time    0.04: real time    0.04
    CHARGE:  cpu time    0.62: real time    0.62
    MIXING:  cpu time    0.01: real time    0.01
    --------------------------------------------
      LOOP:  cpu time   14.84: real time   14.85

 eigenvalue-minimisations  :  1384
 total energy-change (2. order) : 0.1409661E-03  (-0.2167058E-03)
 number of electron      65.9999942 magnetization 
 augmentation part       43.2737630 magnetization 

 Broyden mixing:
  rms(total) = 0.63385E-02    rms(broyden)= 0.63380E-02
  rms(prec ) = 0.69275E-02
  weight for this iteration     100.00

 eigenvalues of (default mixing * dielectric matrix)
  average eigenvalue GAMMA=   1.1163
  0.4115  1.8211

 Free energy of the ion-electron system (eV)
  ---------------------------------------------------
  alpha Z        PSCENC =       278.63143507
  Ewald energy   TEWEN  =     13886.12778362
  -1/2 Hartree   DENC   =    -21683.35813155
  -exchange  EXHF       =         0.00000000
  -V(xc)+E(xc)   XCENC  =       255.65566917
  PAW double counting   =      6547.14159358    -7414.51010660
  entropy T*S    EENTRO =         0.00000000
  eigenvalues    EBANDS =      -236.05450786
  atomic energy  EATOM  =      8345.82850422
  ---------------------------------------------------
  free energy    TOTEN  =       -20.53776034 eV

  energy without entropy =      -20.53776034  energy(sigma->0) =      -20.53776034


--------------------------------------------------------------------------------------------------------




----------------------------------------- Iteration    4(   4)  ---------------------------------------


    POTLOK:  cpu time    0.30: real time    0.30
    SETDIJ:  cpu time    0.03: real time    0.03
     EDDAV:  cpu time   13.63: real time   13.64
 BZINTS: Fermi energy: -0.827677; 66.000000 electrons
         Band energy:-235.747262;  BLOECHL correction: -0.192212
       DOS:  cpu time    0.04: real time    0.04
    CHARGE:  cpu time    0.62: real time    0.62
    MIXING:  cpu time    0.01: real time    0.01
    --------------------------------------------
      LOOP:  cpu time   14.63: real time   14.64

 eigenvalue-minimisations  :  1360
 total energy-change (2. order) :-0.3382031E-04  (-0.3116957E-04)
 number of electron      65.9999942 magnetization 
 augmentation part       43.2686881 magnetization 

 Broyden mixing:
  rms(total) = 0.26489E-02    rms(broyden)= 0.26488E-02
  rms(prec ) = 0.28719E-02
  weight for this iteration     100.00

 eigenvalues of (default mixing * dielectric matrix)
  average eigenvalue GAMMA=   1.2285
  2.6524  0.6267  0.4062

 Free energy of the ion-electron system (eV)
  ---------------------------------------------------
  alpha Z        PSCENC =       278.63143507
  Ewald energy   TEWEN  =     13886.12778362
  -1/2 Hartree   DENC   =    -21683.55606402
  -exchange  EXHF       =         0.00000000
  -V(xc)+E(xc)   XCENC  =       255.66114529
  PAW double counting   =      6547.97503105    -7415.45836715
  entropy T*S    EENTRO =         0.00000000
  eigenvalues    EBANDS =      -235.74726224
  atomic energy  EATOM  =      8345.82850422
  ---------------------------------------------------
  free energy    TOTEN  =       -20.53779416 eV

  energy without entropy =      -20.53779416  energy(sigma->0) =      -20.53779416


--------------------------------------------------------------------------------------------------------




----------------------------------------- Iteration    4(   5)  ---------------------------------------


    POTLOK:  cpu time    0.30: real time    0.30
    SETDIJ:  cpu time    0.03: real time    0.03
     EDDAV:  cpu time   13.67: real time   13.67
 BZINTS: Fermi energy: -0.828940; 66.000000 electrons
         Band energy:-235.898208;  BLOECHL correction: -0.192272
       DOS:  cpu time    0.04: real time    0.04
    CHARGE:  cpu time    0.64: real time    0.64
    MIXING:  cpu time    0.01: real time    0.01
    --------------------------------------------
      LOOP:  cpu time   14.69: real time   14.69

 eigenvalue-minimisations  :  1360
 total energy-change (2. order) : 0.1839182E-04  (-0.1217517E-04)
 number of electron      65.9999942 magnetization 
 augmentation part       43.2707741 magnetization 

 Broyden mixing:
  rms(total) = 0.88078E-03    rms(broyden)= 0.88071E-03
  rms(prec ) = 0.10429E-02
  weight for this iteration     100.00

 eigenvalues of (default mixing * dielectric matrix)
  average eigenvalue GAMMA=   1.0945
  2.5820  0.4014  0.6973  0.6973

 Free energy of the ion-electron system (eV)
  ---------------------------------------------------
  alpha Z        PSCENC =       278.63143507
  Ewald energy   TEWEN  =     13886.12778362
  -1/2 Hartree   DENC   =    -21683.42190246
  -exchange  EXHF       =         0.00000000
  -V(xc)+E(xc)   XCENC  =       255.65555122
  PAW double counting   =      6548.14016243    -7415.60110199
  entropy T*S    EENTRO =         0.00000000
  eigenvalues    EBANDS =      -235.89820788
  atomic energy  EATOM  =      8345.82850422
  ---------------------------------------------------
  free energy    TOTEN  =       -20.53777577 eV

  energy without entropy =      -20.53777577  energy(sigma->0) =      -20.53777577


--------------------------------------------------------------------------------------------------------




----------------------------------------- Iteration    4(   6)  ---------------------------------------


    POTLOK:  cpu time    0.30: real time    0.30
    SETDIJ:  cpu time    0.03: real time    0.03
     EDDAV:  cpu time   13.54: real time   13.54
 BZINTS: Fermi energy: -0.828922; 66.000000 electrons
         Band energy:-235.904555;  BLOECHL correction: -0.192289
       DOS:  cpu time    0.04: real time    0.04
    CHARGE:  cpu time    0.59: real time    0.59
    MIXING:  cpu time    0.01: real time    0.01
    --------------------------------------------
      LOOP:  cpu time   14.51: real time   14.52

 eigenvalue-minimisations  :  1344
 total energy-change (2. order) : 0.4960712E-05  (-0.2569177E-05)
 number of electron      65.9999942 magnetization 
 augmentation part       43.2714970 magnetization 

 Broyden mixing:
  rms(total) = 0.73382E-03    rms(broyden)= 0.73377E-03
  rms(prec ) = 0.82246E-03
  weight for this iteration     100.00

 eigenvalues of (default mixing * dielectric matrix)
  average eigenvalue GAMMA=   1.0072
  2.3697  1.1716  0.7344  0.4013  0.3590

 Free energy of the ion-electron system (eV)
  ---------------------------------------------------
  alpha Z        PSCENC =       278.63143507
  Ewald energy   TEWEN  =     13886.12778362
  -1/2 Hartree   DENC   =    -21683.42900154
  -exchange  EXHF       =         0.00000000
  -V(xc)+E(xc)   XCENC  =       255.65439909
  PAW double counting   =      6548.08404236    -7415.53037824
  entropy T*S    EENTRO =         0.00000000
  eigenvalues    EBANDS =      -235.90455538
  atomic energy  EATOM  =      8345.82850422
  ---------------------------------------------------
  free energy    TOTEN  =       -20.53777081 eV

  energy without entropy =      -20.53777081  energy(sigma->0) =      -20.53777081


--------------------------------------------------------------------------------------------------------




----------------------------------------- Iteration    4(   7)  ---------------------------------------


    POTLOK:  cpu time    0.30: real time    0.30
    SETDIJ:  cpu time    0.03: real time    0.03
     EDDAV:  cpu time   13.74: real time   13.74
 BZINTS: Fermi energy: -0.828956; 66.000000 electrons
         Band energy:-235.909837;  BLOECHL correction: -0.192318
       DOS:  cpu time    0.04: real time    0.04
    CHARGE:  cpu time    0.62: real time    0.62
    MIXING:  cpu time    0.01: real time    0.01
    --------------------------------------------
      LOOP:  cpu time   14.74: real time   14.74

 eigenvalue-minimisations  :  1360
 total energy-change (2. order) :-0.1686184E-04  (-0.6400187E-06)
 number of electron      65.9999942 magnetization 
 augmentation part       43.2720425 magnetization 

 Broyden mixing:
  rms(total) = 0.25824E-03    rms(broyden)= 0.25822E-03
  rms(prec ) = 0.28948E-03
  weight for this iteration     100.00

 eigenvalues of (default mixing * dielectric matrix)
  average eigenvalue GAMMA=   1.1595
  2.5412  1.6864  1.1835  0.7613  0.4073  0.3771

 Free energy of the ion-electron system (eV)
  ---------------------------------------------------
  alpha Z        PSCENC =       278.63143507
  Ewald energy   TEWEN  =     13886.12778362
  -1/2 Hartree   DENC   =    -21683.43393637
  -exchange  EXHF       =         0.00000000
  -V(xc)+E(xc)   XCENC  =       255.65375163
  PAW double counting   =      6548.03106912    -7415.46655746
  entropy T*S    EENTRO =         0.00000000
  eigenvalues    EBANDS =      -235.90983749
  atomic energy  EATOM  =      8345.82850422
  ---------------------------------------------------
  free energy    TOTEN  =       -20.53778767 eV

  energy without entropy =      -20.53778767  energy(sigma->0) =      -20.53778767


--------------------------------------------------------------------------------------------------------




----------------------------------------- Iteration    4(   8)  ---------------------------------------


    POTLOK:  cpu time    0.30: real time    0.30
    SETDIJ:  cpu time    0.03: real time    0.03
     EDDAV:  cpu time   10.01: real time   10.01
 BZINTS: Fermi energy: -0.828597; 66.000000 electrons
         Band energy:-235.875621;  BLOECHL correction: -0.192316
       DOS:  cpu time    0.04: real time    0.04
    CHARGE:  cpu time    0.68: real time    0.69
    MIXING:  cpu time    0.01: real time    0.01
    --------------------------------------------
      LOOP:  cpu time   11.08: real time   11.08

 eigenvalue-minimisations  :   856
 total energy-change (2. order) :-0.1128952E-04  (-0.1589267E-06)
 number of electron      65.9999942 magnetization 
 augmentation part       43.2716459 magnetization 

 Broyden mixing:
  rms(total) = 0.10469E-03    rms(broyden)= 0.10469E-03
  rms(prec ) = 0.11682E-03
  weight for this iteration     100.00

 eigenvalues of (default mixing * dielectric matrix)
  average eigenvalue GAMMA=   1.2099
  2.5097  1.7337  1.7337  0.8532  0.8532  0.4071  0.3789

 Free energy of the ion-electron system (eV)
  ---------------------------------------------------
  alpha Z        PSCENC =       278.63143507
  Ewald energy   TEWEN  =     13886.12778362
  -1/2 Hartree   DENC   =    -21683.45939287
  -exchange  EXHF       =         0.00000000
  -V(xc)+E(xc)   XCENC  =       255.65442707
  PAW double counting   =      6548.08980677    -7415.53474162
  entropy T*S    EENTRO =         0.00000000
  eigenvalues    EBANDS =      -235.87562122
  atomic energy  EATOM  =      8345.82850422
  ---------------------------------------------------
  free energy    TOTEN  =       -20.53779896 eV

  energy without entropy =      -20.53779896  energy(sigma->0) =      -20.53779896


--------------------------------------------------------------------------------------------------------




----------------------------------------- Iteration    4(   9)  ---------------------------------------


    POTLOK:  cpu time    0.30: real time    0.30
    SETDIJ:  cpu time    0.03: real time    0.03
     EDDAV:  cpu time    9.21: real time    9.21
 BZINTS: Fermi energy: -0.828601; 66.000000 electrons
         Band energy:-235.877556;  BLOECHL correction: -0.192318
       DOS:  cpu time    0.04: real time    0.04
    CHARGE:  cpu time    0.64: real time    0.64
    MIXING:  cpu time    0.01: real time    0.01
    --------------------------------------------
      LOOP:  cpu time   10.23: real time   10.23

 eigenvalue-minimisations  :   744
 total energy-change (2. order) : 0.1177857E-05  (-0.3308169E-07)
 number of electron      65.9999942 magnetization 
 augmentation part       43.2718027 magnetization 

 Broyden mixing:
  rms(total) = 0.49924E-04    rms(broyden)= 0.49920E-04
  rms(prec ) = 0.53834E-04
  weight for this iteration     100.00

 eigenvalues of (default mixing * dielectric matrix)
  average eigenvalue GAMMA=   1.2586
  2.5370  2.0801  2.0801  0.4080  0.3798  0.8238  0.8238  0.9357

 Free energy of the ion-electron system (eV)
  ---------------------------------------------------
  alpha Z        PSCENC =       278.63143507
  Ewald energy   TEWEN  =     13886.12778362
  -1/2 Hartree   DENC   =    -21683.45982913
  -exchange  EXHF       =         0.00000000
  -V(xc)+E(xc)   XCENC  =       255.65427610
  PAW double counting   =      6548.07761393    -7415.52002536
  entropy T*S    EENTRO =         0.00000000
  eigenvalues    EBANDS =      -235.87755623
  atomic energy  EATOM  =      8345.82850422
  ---------------------------------------------------
  free energy    TOTEN  =       -20.53779778 eV

  energy without entropy =      -20.53779778  energy(sigma->0) =      -20.53779778


--------------------------------------------------------------------------------------------------------




----------------------------------------- Iteration    4(  10)  ---------------------------------------


    POTLOK:  cpu time    0.30: real time    0.30
    SETDIJ:  cpu time    0.03: real time    0.03
     EDDAV:  cpu time    9.24: real time    9.24
 BZINTS: Fermi energy: -0.828577; 66.000000 electrons
         Band energy:-235.876127;  BLOECHL correction: -0.192316
       DOS:  cpu time    0.04: real time    0.04
    --------------------------------------------
      LOOP:  cpu time    9.60: real time    9.61

 eigenvalue-minimisations  :   752
 total energy-change (2. order) : 0.7962517E-06  (-0.1105510E-07)
 number of electron      65.9999942 magnetization 
 augmentation part       43.2718027 magnetization 

 Free energy of the ion-electron system (eV)
  ---------------------------------------------------
  alpha Z        PSCENC =       278.63143507
  Ewald energy   TEWEN  =     13886.12778362
  -1/2 Hartree   DENC   =    -21683.46048420
  -exchange  EXHF       =         0.00000000
  -V(xc)+E(xc)   XCENC  =       255.65431757
  PAW double counting   =      6548.07597232    -7415.51919905
  entropy T*S    EENTRO =         0.00000000
  eigenvalues    EBANDS =      -235.87612654
  atomic energy  EATOM  =      8345.82850422
  ---------------------------------------------------
  free energy    TOTEN  =       -20.53779699 eV

  energy without entropy =      -20.53779699  energy(sigma->0) =      -20.53779699


--------------------------------------------------------------------------------------------------------




 average (electrostatic) potential at core
  the test charge radii are     1.0053
  (the norm of the test charge is              1.0000)
       1 -44.0291       2 -44.4946       3 -44.4100       4 -44.4098       5 -44.4947
       6 -44.0292
 
 
 
 E-fermi :  -0.8286     XC(G=0):  -6.6568     alpha+bet : -4.1343


 k-point   1 :       0.0000    0.0000    0.0000
  band No.  band energies     occupation 
      1      -9.4772      2.00000
      2      -7.9714      2.00000
      3      -6.0199      2.00000
      4      -5.3363      2.00000
      5      -5.0085      2.00000
      6      -4.7944      2.00000
      7      -4.5461      2.00000
      8      -4.3566      2.00000
      9      -4.1124      2.00000
     10      -4.1121      2.00000
     11      -4.0171      2.00000
     12      -3.7987      2.00000
     13      -3.7244      2.00000
     14      -3.6660      2.00000
     15      -3.5640      2.00000
     16      -3.5070      2.00000
     17      -3.3962      2.00000
     18      -3.3446      2.00000
     19      -3.1932      2.00000
     20      -3.1810      2.00000
     21      -2.9860      2.00000
     22      -2.9717      2.00000
     23      -2.9627      2.00000
     24      -2.9053      2.00000
     25      -2.8027      2.00000
     26      -2.7197      2.00000
     27      -2.5970      2.00000
     28      -2.4646      2.00000
     29      -2.4332      2.00000
     30      -2.3663      2.00000
     31      -2.3345      2.00000
     32      -2.2493      2.00000
     33      -2.2033      2.00000
     34      -1.3203      2.07905
     35       0.7106      0.00000
     36       1.6708      0.00000
     37       2.8874      0.00000
     38       3.3286      0.00000
     39       3.7810      0.00000
     40       5.3981      0.00000

 k-point   2 :       0.1429    0.0000    0.0000
  band No.  band energies     occupation 
      1      -9.2376      2.00000
      2      -7.7596      2.00000
      3      -5.9292      2.00000
      4      -5.3308      2.00000
      5      -4.9981      2.00000
      6      -4.8312      2.00000
      7      -4.6883      2.00000
      8      -4.3061      2.00000
      9      -4.0023      2.00000
     10      -3.9779      2.00000
     11      -3.9448      2.00000
     12      -3.7794      2.00000
     13      -3.6419      2.00000
     14      -3.6099      2.00000
     15      -3.5800      2.00000
     16      -3.4677      2.00000
     17      -3.4639      2.00000
     18      -3.4096      2.00000
     19      -3.3219      2.00000
     20      -3.0994      2.00000
     21      -3.0941      2.00000
     22      -2.9854      2.00000
     23      -2.9522      2.00000
     24      -2.8726      2.00000
     25      -2.7820      2.00000
     26      -2.7095      2.00000
     27      -2.6067      2.00000
     28      -2.5155      2.00000
     29      -2.4117      2.00000
     30      -2.3716      2.00000
     31      -2.3177      2.00000
     32      -2.2406      2.00000
     33      -2.2380      2.00000
     34      -1.2249      2.12915
     35       0.3255     -0.01019
     36       0.8358      0.00000
     37       2.1354      0.00000
     38       2.9709      0.00000
     39       3.5474      0.00000
     40       4.4311      0.00000

 k-point   3 :       0.2857    0.0000    0.0000
  band No.  band energies     occupation 
      1      -8.5375      2.00000
      2      -7.1622      2.00000
      3      -5.7471      2.00000
      4      -5.4777      2.00000
      5      -5.1076      2.00000
      6      -4.9745      2.00000
      7      -4.6569      2.00000
      8      -4.1459      2.00000
      9      -3.9291      2.00000
     10      -3.8909      2.00000
     11      -3.8154      2.00000
     12      -3.7596      2.00000
     13      -3.6164      2.00000
     14      -3.5973      2.00000
     15      -3.5647      2.00000
     16      -3.4634      2.00000
     17      -3.4296      2.00000
     18      -3.3341      2.00000
     19      -3.1995      2.00000
     20      -3.1861      2.00000
     21      -3.1190      2.00000
     22      -3.0649      2.00000
     23      -2.9409      2.00000
     24      -2.8190      2.00000
     25      -2.7323      2.00000
     26      -2.6891      2.00000
     27      -2.6879      2.00000
     28      -2.6059      2.00000
     29      -2.3612      2.00000
     30      -2.3247      2.00000
     31      -2.3233      2.00000
     32      -2.2870      2.00000
     33      -2.2499      2.00000
     34      -1.5284      2.10472
     35      -0.8757      0.71943
     36      -0.1415     -0.00067
     37       1.2010      0.00000
     38       1.6457      0.00000
     39       4.0816      0.00000
     40       4.0993      0.00000

 k-point   4 :       0.4286    0.0000    0.0000
  band No.  band energies     occupation 
      1      -7.4555      2.00000
      2      -6.3598      2.00000
      3      -6.2125      2.00000
      4      -5.7224      2.00000
      5      -5.2492      2.00000
      6      -5.2415      2.00000
      7      -4.4295      2.00000
      8      -4.1682      2.00000
      9      -3.8860      2.00000
     10      -3.8353      2.00000
     11      -3.7681      2.00000
     12      -3.7454      2.00000
     13      -3.6658      2.00000
     14      -3.6618      2.00000
     15      -3.5968      2.00000
     16      -3.5802      2.00000
     17      -3.3716      2.00000
     18      -3.3218      2.00000
     19      -3.2933      2.00000
     20      -3.1968      2.00000
     21      -2.9703      2.00000
     22      -2.8755      2.00000
     23      -2.8055      2.00000
     24      -2.7425      2.00000
     25      -2.6905      2.00000
     26      -2.6149      2.00000
     27      -2.5358      2.00000
     28      -2.4469      2.00000
     29      -2.3764      2.00000
     30      -2.3186      2.00000
     31      -2.3149      2.00000
     32      -2.2885      2.00000
     33      -2.2735      2.00000
     34      -2.2432      2.00000
     35      -1.6814      2.11370
     36      -0.8339      0.16509
     37       0.3483      0.00000
     38       1.0163      0.00000
     39       4.1391      0.00000
     40       5.0850      0.00000

 k-point   5 :       0.0000    0.1429    0.0000
  band No.  band energies     occupation 
      1      -8.9970      2.00000
      2      -7.5248      2.00000
      3      -5.6964      2.00000
      4      -5.1565      2.00000
      5      -4.8438      2.00000
      6      -4.6151      2.00000
      7      -4.3223      2.00000
      8      -4.3218      2.00000
      9      -4.2941      2.00000
     10      -4.2273      2.00000
     11      -4.1275      2.00000
     12      -3.9127      2.00000
     13      -3.8740      2.00000
     14      -3.6996      2.00000
     15      -3.5377      2.00000
     16      -3.4778      2.00000
     17      -3.3936      2.00000
     18      -3.3326      2.00000
     19      -3.1353      2.00000
     20      -3.1254      2.00000
     21      -3.0430      2.00000
     22      -2.9178      2.00000
     23      -2.8722      2.00000
     24      -2.8659      2.00000
     25      -2.8169      2.00000
     26      -2.8102      2.00000
     27      -2.5323      2.00000
     28      -2.5089      2.00000
     29      -2.5059      2.00000
     30      -2.4504      2.00000
     31      -2.3846      2.00000
     32      -2.2198      2.00000
     33      -2.2074      2.00000
     34      -0.9607      1.30089
     35       1.1790      0.00000
     36       2.5854      0.00000
     37       3.3398      0.00000
     38       3.7913      0.00000
     39       4.4628      0.00000
     40       5.8786      0.00000

 k-point   6 :       0.1429    0.1429    0.0000
  band No.  band energies     occupation 
      1      -8.7638      2.00000
      2      -7.3180      2.00000
      3      -5.6015      2.00000
      4      -5.1280      2.00000
      5      -4.8210      2.00000
      6      -4.6437      2.00000
      7      -4.5429      2.00000
      8      -4.2386      2.00000
      9      -4.1746      2.00000
     10      -4.1420      2.00000
     11      -4.0347      2.00000
     12      -3.9245      2.00000
     13      -3.7561      2.00000
     14      -3.7149      2.00000
     15      -3.5475      2.00000
     16      -3.5085      2.00000
     17      -3.4487      2.00000
     18      -3.3196      2.00000
     19      -3.2888      2.00000
     20      -3.1583      2.00000
     21      -3.0238      2.00000
     22      -2.9626      2.00000
     23      -2.9457      2.00000
     24      -2.9182      2.00000
     25      -2.7779      2.00000
     26      -2.6730      2.00000
     27      -2.5763      2.00000
     28      -2.4941      2.00000
     29      -2.4707      2.00000
     30      -2.4362      2.00000
     31      -2.3850      2.00000
     32      -2.3084      2.00000
     33      -2.1647      2.00000
     34      -0.7894      0.91451
     35       1.1224     -0.00709
     36       1.3539      0.00000
     37       2.7087      0.00000
     38       3.4728      0.00000
     39       4.0119      0.00000
     40       4.8796      0.00000

 k-point   7 :       0.2857    0.1429    0.0000
  band No.  band energies     occupation 
      1      -8.0852      2.00000
      2      -6.7391      2.00000
      3      -5.4213      2.00000
      4      -5.2064      2.00000
      5      -4.8873      2.00000
      6      -4.7324      2.00000
      7      -4.5637      2.00000
      8      -4.1722      2.00000
      9      -4.0529      2.00000
     10      -3.9849      2.00000
     11      -3.9342      2.00000
     12      -3.9183      2.00000
     13      -3.7092      2.00000
     14      -3.6708      2.00000
     15      -3.5206      2.00000
     16      -3.4791      2.00000
     17      -3.4378      2.00000
     18      -3.3993      2.00000
     19      -3.3300      2.00000
     20      -3.2804      2.00000
     21      -3.1095      2.00000
     22      -3.0753      2.00000
     23      -3.0564      2.00000
     24      -2.9072      2.00000
     25      -2.7193      2.00000
     26      -2.6669      2.00000
     27      -2.6651      2.00000
     28      -2.5099      2.00000
     29      -2.4402      2.00000
     30      -2.4215      2.00000
     31      -2.3633      2.00000
     32      -2.3577      2.00000
     33      -1.9291      2.00000
     34      -0.8497      1.16707
     35      -0.2150     -0.05070
     36       0.4651     -0.00079
     37       1.7723      0.00000
     38       2.1930      0.00000
     39       4.4754      0.00000
     40       4.5628      0.00000

 k-point   8 :       0.4286    0.1429    0.0000
  band No.  band energies     occupation 
      1      -7.0471      2.00000
      2      -5.9963      2.00000
      3      -5.8584      2.00000
      4      -5.4097      2.00000
      5      -4.9847      2.00000
      6      -4.9389      2.00000
      7      -4.3760      2.00000
      8      -4.1656      2.00000
      9      -3.9610      2.00000
     10      -3.9308      2.00000
     11      -3.9098      2.00000
     12      -3.8716      2.00000
     13      -3.6962      2.00000
     14      -3.6859      2.00000
     15      -3.6307      2.00000
     16      -3.5404      2.00000
     17      -3.4222      2.00000
     18      -3.3560      2.00000
     19      -3.1688      2.00000
     20      -3.1443      2.00000
     21      -3.1256      2.00000
     22      -3.0783      2.00000
     23      -3.0645      2.00000
     24      -3.0466      2.00000
     25      -2.7777      2.00000
     26      -2.7299      2.00000
     27      -2.6402      2.00000
     28      -2.5986      2.00000
     29      -2.4636      2.00000
     30      -2.4421      2.00000
     31      -2.3964      2.00000
     32      -2.0965      2.00000
     33      -1.9463      2.00000
     34      -1.4134      1.90646
     35      -0.9251      1.05321
     36       0.1342     -0.07587
     37       0.7898      0.00000
     38       1.6732      0.00000
     39       4.4770      0.00000
     40       5.4530      0.00000

 k-point   9 :       0.0000    0.2857    0.0000
  band No.  band energies     occupation 
      1      -7.6507      2.00000
      2      -6.3964      2.00000
      3      -5.3116      2.00000
      4      -4.8971      2.00000
      5      -4.6933      2.00000
      6      -4.6930      2.00000
      7      -4.5056      2.00000
      8      -4.3754      2.00000
      9      -4.3706      2.00000
     10      -4.2889      2.00000
     11      -4.2028      2.00000
     12      -3.8171      2.00000
     13      -3.6964      2.00000
     14      -3.6501      2.00000
     15      -3.4462      2.00000
     16      -3.3664      2.00000
     17      -3.2560      2.00000
     18      -3.1080      2.00000
     19      -3.0622      2.00000
     20      -3.0308      2.00000
     21      -2.9739      2.00000
     22      -2.9250      2.00000
     23      -2.8295      2.00000
     24      -2.7662      2.00000
     25      -2.6490      2.00000
     26      -2.6365      2.00000
     27      -2.4940      2.00000
     28      -2.4887      2.00000
     29      -2.4794      2.00000
     30      -2.3946      2.00000
     31      -2.3028      2.00000
     32      -2.2589      2.00000
     33      -1.9694      2.07533
     34       0.0716     -0.11237
     35       2.3801      0.00000
     36       4.0891      0.00000
     37       4.7361      0.00000
     38       4.7556      0.00000
     39       5.0199      0.00000
     40       5.8871      0.00000

 k-point  10 :       0.1429    0.2857    0.0000
  band No.  band energies     occupation 
      1      -7.4505      2.00000
      2      -6.2169      2.00000
      3      -5.1942      2.00000
      4      -4.8296      2.00000
      5      -4.6878      2.00000
      6      -4.6735      2.00000
      7      -4.5447      2.00000
      8      -4.3434      2.00000
      9      -4.3116      2.00000
     10      -4.2211      2.00000
     11      -4.1719      2.00000
     12      -3.8523      2.00000
     13      -3.6923      2.00000
     14      -3.6683      2.00000
     15      -3.5199      2.00000
     16      -3.4339      2.00000
     17      -3.3294      2.00000
     18      -3.2475      2.00000
     19      -3.0473      2.00000
     20      -3.0120      2.00000
     21      -2.9525      2.00000
     22      -2.8912      2.00000
     23      -2.8467      2.00000
     24      -2.8323      2.00000
     25      -2.7985      2.00000
     26      -2.6298      2.00000
     27      -2.5143      2.00000
     28      -2.4857      2.00000
     29      -2.4257      2.00000
     30      -2.3629      2.00000
     31      -2.3331      2.00000
     32      -2.3179      2.00513
     33      -1.6659      1.95183
     34       0.3594     -0.08738
     35       2.6191      0.00000
     36       2.7353      0.00000
     37       4.1926      0.00000
     38       4.4761      0.00000
     39       5.0531      0.00000
     40       5.3000      0.00000

 k-point  11 :       0.2857    0.2857    0.0000
  band No.  band energies     occupation 
      1      -6.8897      2.00000
      2      -5.7351      2.00000
      3      -4.9176      2.00000
      4      -4.8960      2.00000
      5      -4.6785      2.00000
      6      -4.6239      2.00000
      7      -4.4538      2.00000
      8      -4.3080      2.00000
      9      -4.1807      2.00000
     10      -4.1027      2.00000
     11      -4.0508      2.00000
     12      -3.9294      2.00000
     13      -3.7389      2.00000
     14      -3.6769      2.00000
     15      -3.5990      2.00000
     16      -3.5464      2.00000
     17      -3.4361      2.00000
     18      -3.4343      2.00000
     19      -3.1148      2.00000
     20      -3.0185      2.00000
     21      -3.0043      2.00000
     22      -3.0040      2.00000
     23      -2.9606      2.00000
     24      -2.8831      2.00000
     25      -2.7485      2.00000
     26      -2.6739      2.00000
     27      -2.5930      2.00000
     28      -2.5062      2.00000
     29      -2.4254      2.00000
     30      -2.4175      2.00000
     31      -2.3956      2.00000
     32      -2.0896      2.08333
     33      -0.9346      1.39265
     34       0.4198     -0.09860
     35       1.1813     -0.01319
     36       1.8012      0.00000
     37       3.2839      0.00000
     38       3.6913      0.00000
     39       5.3857      0.00000
     40       5.7690      0.00000

 k-point  12 :       0.4286    0.2857    0.0000
  band No.  band energies     occupation 
      1      -6.1134      2.00000
      2      -5.4016      2.00000
      3      -5.1174      2.00000
      4      -4.7872      2.00000
      5      -4.5795      2.00000
      6      -4.5682      2.00000
      7      -4.2676      2.00000
      8      -4.2601      2.00000
      9      -4.0971      2.00000
     10      -4.0813      2.00000
     11      -4.0389      2.00000
     12      -3.8892      2.00000
     13      -3.7207      2.00000
     14      -3.6831      2.00000
     15      -3.6490      2.00000
     16      -3.5979      2.00000
     17      -3.5414      2.00000
     18      -3.5289      2.00000
     19      -3.1995      2.00000
     20      -3.1764      2.00000
     21      -3.0626      2.00000
     22      -3.0110      2.00000
     23      -2.9630      2.00000
     24      -2.9438      2.00000
     25      -2.7358      2.00000
     26      -2.7344      2.00000
     27      -2.6817      2.00000
     28      -2.5509      2.00000
     29      -2.4637      2.00000
     30      -2.4584      2.00000
     31      -2.1931      2.00000
     32      -1.4405      2.03750
     33      -1.1660      1.58255
     34      -0.3119      0.05266
     35       0.4128     -0.08548
     36       1.6679      0.00000
     37       2.3235      0.00000
     38       3.3949      0.00000
     39       5.5471      0.00000
     40       6.4928      0.00000

 k-point  13 :       0.0000    0.4286    0.0000
  band No.  band energies     occupation 
      1      -5.9052      2.00000
      2      -5.5458      2.00000
      3      -5.3392      2.00000
      4      -4.9424      2.00000
      5      -4.9415      2.00000
      6      -4.9313      2.00000
      7      -4.5266      2.00000
      8      -4.5010      2.00000
      9      -4.4257      2.00000
     10      -4.3928      2.00000
     11      -4.0214      2.00000
     12      -3.8942      2.00000
     13      -3.8828      2.00000
     14      -3.6841      2.00000
     15      -3.3708      2.00000
     16      -3.1892      2.00000
     17      -3.0970      2.00000
     18      -3.0387      2.00000
     19      -2.8906      2.00000
     20      -2.7311      2.00000
     21      -2.6779      2.00000
     22      -2.6231      2.00000
     23      -2.5395      2.00000
     24      -2.4602      2.00000
     25      -2.4351      2.00000
     26      -2.3959      2.00000
     27      -2.3916      2.00000
     28      -2.3244      2.00000
     29      -2.2872      2.00000
     30      -2.2734      2.00000
     31      -1.7952      2.00000
     32      -1.5338      2.00000
     33      -0.4916      0.37175
     34       0.4349      0.00000
     35       1.2522      0.00000
     36       1.3164      0.00000
     37       3.9945      0.00000
     38       4.3714      0.00000
     39       6.9158      0.00000
     40       7.3753      0.00000

 k-point  14 :       0.1429    0.4286    0.0000
  band No.  band energies     occupation 
      1      -5.8344      2.00000
      2      -5.4270      2.00000
      3      -5.2348      2.00000
      4      -4.9804      2.00000
      5      -4.8981      2.00000
      6      -4.8394      2.00000
      7      -4.6796      2.00000
      8      -4.5507      2.00000
      9      -4.2249      2.00000
     10      -4.2144      2.00000
     11      -3.9804      2.00000
     12      -3.8954      2.00000
     13      -3.7748      2.00000
     14      -3.6417      2.00000
     15      -3.4247      2.00000
     16      -3.4047      2.00000
     17      -3.0940      2.00000
     18      -3.0750      2.00000
     19      -2.8795      2.00000
     20      -2.8586      2.00000
     21      -2.7282      2.00000
     22      -2.7264      2.00000
     23      -2.6092      2.00000
     24      -2.5167      2.00000
     25      -2.4611      2.00000
     26      -2.4174      2.00000
     27      -2.3757      2.00000
     28      -2.3610      2.00000
     29      -2.3131      2.00000
     30      -2.2951      2.00000
     31      -1.8049      2.00000
     32      -1.3592      2.07654
     33      -0.0433      0.05540
     34       0.5121      0.00000
     35       1.4849      0.00000
     36       1.7316      0.00000
     37       4.1904      0.00000
     38       4.6188      0.00000
     39       5.4890      0.00000
     40       6.6479      0.00000

 k-point  15 :       0.2857    0.4286    0.0000
  band No.  band energies     occupation 
      1      -5.6916      2.00000
      2      -5.1849      2.00000
      3      -5.0940      2.00000
      4      -4.9658      2.00000
      5      -4.7967      2.00000
      6      -4.7896      2.00000
      7      -4.4488      2.00000
      8      -4.3884      2.00000
      9      -4.1463      2.00000
     10      -4.1061      2.00000
     11      -3.7802      2.00000
     12      -3.7427      2.00000
     13      -3.7069      2.00000
     14      -3.6775      2.00000
     15      -3.5792      2.00000
     16      -3.5269      2.00000
     17      -3.3614      2.00000
     18      -3.2769      2.00000
     19      -3.0392      2.00000
     20      -2.9580      2.00000
     21      -2.8492      2.00000
     22      -2.7348      2.00000
     23      -2.6916      2.00000
     24      -2.6067      2.00000
     25      -2.5161      2.00000
     26      -2.4712      2.00000
     27      -2.3748      2.00000
     28      -2.3512      2.00000
     29      -2.2953      2.00000
     30      -2.2603      2.00000
     31      -1.8250      2.00000
     32      -0.7960      1.19536
     33       0.4771     -0.12723
     34       0.9151      0.00000
     35       1.9445      0.00000
     36       2.7234      0.00000
     37       3.6211      0.00000
     38       4.5584      0.00000
     39       4.7618      0.00000
     40       5.3165      0.00000

 k-point  16 :       0.4286    0.4286    0.0000
  band No.  band energies     occupation 
      1      -5.5501      2.00000
      2      -5.3819      2.00000
      3      -4.8243      2.00000
      4      -4.7308      2.00000
      5      -4.6542      2.00000
      6      -4.6009      2.00000
      7      -4.2348      2.00000
      8      -4.1465      2.00000
      9      -4.0929      2.00000
     10      -4.0756      2.00000
     11      -3.8961      2.00000
     12      -3.8704      2.00000
     13      -3.7449      2.00000
     14      -3.7303      2.00000
     15      -3.5853      2.00000
     16      -3.5816      2.00000
     17      -3.4487      2.00000
     18      -3.4271      2.00000
     19      -3.1121      2.00000
     20      -3.0863      2.00000
     21      -2.8088      2.00000
     22      -2.7652      2.00000
     23      -2.6682      2.00000
     24      -2.6308      2.00000
     25      -2.5242      2.00000
     26      -2.4545      2.00000
     27      -2.3919      2.00000
     28      -2.3766      2.00000
     29      -2.2618      2.00000
     30      -2.2354      2.00000
     31      -1.4696      2.00000
     32      -0.4130      0.23680
     33       0.1775     -0.11286
     34       1.3261      0.00000
     35       2.2695      0.00000
     36       3.3252      0.00000
     37       3.5119      0.00000
     38       4.1809      0.00000
     39       4.5386      0.00000
     40       4.7432      0.00000


--------------------------------------------------------------------------------------------------------


 soft charge-density along one line, spin component           1
         0         1         2         3         4         5         6         7         8         9
 total charge-density along one line
 
 pseudopotential strength for first ion, spin component:           1
 -9.463   0.000   0.000   0.000   0.000   1.108   0.000   0.000
  0.000  -9.442   0.000   0.000   0.000   0.000   1.097   0.000
  0.000   0.000  -9.433   0.000  -0.019   0.000   0.000   1.093
  0.000   0.000   0.000  -9.425   0.000   0.000   0.000   0.000
  0.000   0.000  -0.019   0.000  -9.459   0.000   0.000   0.009
  1.108   0.000   0.000   0.000   0.000   1.068   0.000   0.000
  0.000   1.097   0.000   0.000   0.000   0.000   1.073   0.000
  0.000   0.000   1.093   0.000   0.009   0.000   0.000   1.075
  0.000   0.000   0.000   1.089   0.000   0.000   0.000   0.000
  0.000   0.000   0.009   0.000   1.106   0.000   0.000  -0.004
  0.000   0.000  -0.005   0.000  -0.003   0.000   0.000   0.002
  0.000   0.000   0.000   0.000   0.000   0.000   0.000   0.000
  0.000  -0.018   0.000   0.000   0.000   0.000   0.009   0.000
  0.000   0.000  -0.020   0.000   0.001   0.000   0.000   0.010
  0.000   0.000   0.000  -0.017   0.000   0.000   0.000   0.000
  0.000   0.010   0.000   0.000   0.000   0.000  -0.005   0.000
  0.000   0.000   0.012   0.000  -0.001   0.000   0.000  -0.005
  0.000   0.000   0.000   0.009   0.000   0.000   0.000   0.000
 total augmentation occupancy for first ion, spin component:           1
  1.915   0.000   0.000   0.000   0.000  -0.024   0.000   0.000   0.000   0.000   0.000   0.000   0.000   0.000   0.000   0.000
  0.000   1.931   0.000   0.000   0.000   0.000  -0.051   0.000   0.000   0.000   0.000   0.000  -0.007   0.000   0.000  -0.009
  0.000   0.000   1.929   0.000  -0.003   0.000   0.000  -0.036   0.000   0.019   0.012   0.026   0.000   0.019   0.000   0.000
  0.000   0.000   0.000   1.928   0.000   0.000   0.000   0.000  -0.047   0.000   0.000   0.000   0.000   0.000   0.035   0.000
  0.000   0.000  -0.003   0.000   1.918   0.000   0.000   0.019   0.000  -0.028  -0.010   0.018   0.000   0.022   0.000   0.000
 -0.024   0.000   0.000   0.000   0.000   0.042   0.000   0.000   0.000   0.000   0.000   0.000   0.000   0.000   0.000   0.000
  0.000  -0.051   0.000   0.000   0.000   0.000   0.041   0.000   0.000   0.000   0.000   0.000   0.040   0.000   0.000  -0.003
  0.000   0.000  -0.036   0.000   0.019   0.000   0.000   0.046   0.000   0.009  -0.047   0.001   0.000   0.037   0.000   0.000
  0.000   0.000   0.000  -0.047   0.000   0.000   0.000   0.000   0.048   0.000   0.000   0.000   0.000   0.000   0.053   0.000
  0.000   0.000   0.019   0.000  -0.028   0.000   0.000   0.009   0.000   0.048  -0.037   0.008   0.000   0.007   0.000   0.000
  0.000   0.000   0.012   0.000  -0.010   0.000   0.000  -0.047   0.000  -0.037   1.214  -0.252   0.000   0.113   0.000   0.000
  0.000   0.000   0.026   0.000   0.018   0.000   0.000   0.001   0.000   0.008  -0.252   0.094   0.000  -0.055   0.000   0.000
  0.000  -0.007   0.000   0.000   0.000   0.000   0.040   0.000   0.000   0.000   0.000   0.000   0.149   0.000   0.000  -0.009
  0.000   0.000   0.019   0.000   0.022   0.000   0.000   0.037   0.000   0.007   0.113  -0.055   0.000   0.080   0.000   0.000
  0.000   0.000   0.000   0.035   0.000   0.000   0.000   0.000   0.053   0.000   0.000   0.000   0.000   0.000   0.110   0.000
  0.000  -0.009   0.000   0.000   0.000   0.000  -0.003   0.000   0.000   0.000   0.000   0.000  -0.009   0.000   0.000   0.001
  0.000   0.000  -0.012   0.000  -0.001   0.000   0.000  -0.002   0.000   0.000  -0.019   0.007   0.000  -0.007   0.000   0.000
  0.000   0.000   0.000  -0.012   0.000   0.000   0.000   0.000  -0.003   0.000   0.000   0.000   0.000   0.000  -0.007   0.000


------------------------ aborting loop because EDIFF is reached ----------------------------------------


    CHARGE:  cpu time    0.67: real time    0.67
    FORLOC:  cpu time    0.02: real time    0.02
    FORNL :  cpu time    5.54: real time    5.54
    STRESS:  cpu time    8.63: real time    8.63
    FORCOR:  cpu time    0.30: real time    0.30
    FORHAR:  cpu time    0.09: real time    0.09
    MIXING:  cpu time    0.01: real time    0.01

  FORCE on cell =-STRESS in cart. coord.  units (eV):
  Direction    XX          YY          ZZ          XY          YZ          ZX
  --------------------------------------------------------------------------------------
  Alpha Z   278.63144   278.63144   278.63144
  Ewald   18049.26309 18249.34296-22412.48154     0.00000     0.00000     0.00000
  Hartree 20297.29861 20429.83656-19043.66442     0.00000     0.00000     0.00000
  E(xc)    -375.18308  -374.96756  -375.68900     0.00000     0.00000     0.00000
  Local  -38834.57266-39166.20450 40967.06253     0.00000     0.00000     0.00000
  n-local  -224.45047  -223.48185  -224.93387     2.93856     0.00000     0.00000
  augment   336.75923   336.36112   337.74702    -0.00002    -0.00002    -0.00002
  Kinetic   469.94810   468.71012   472.14679     4.61353     0.00000     0.00000
  Fock        0.00000     0.00000     0.00000     0.00000     0.00000     0.00000
  -------------------------------------------------------------------------------------
  Total      -2.30577    -1.77170    -1.18104     0.00000     0.00000     0.00000
  in kB     -22.37955   -17.19593   -11.46303     0.00000     0.00000     0.00000
  external pressure =      -17.01 kB  Pullay stress =        0.00 kB


 VOLUME and BASIS-vectors are now :
 -----------------------------------------------------------------------------
  energy-cutoff  :      415.00
  volume of cell :      165.07
      direct lattice vectors                 reciprocal lattice vectors
     3.631354857  0.000000000  0.000000000     0.275379311  0.000000000  0.000000000
     0.000000000  2.567755644  0.000000000     0.000000000  0.389445157  0.000000000
     0.000000000  0.000000000 17.703266931     0.000000000  0.000000000  0.056486749

  length of vectors
     3.631354857  2.567755644 17.703266931     0.275379311  0.389445157  0.056486749


 FORCES acting on ions
    electron-ion (+dipol)            ewald-force                    non-local-force                 convergence-correction
 -----------------------------------------------------------------------------------------------
   0.140E-13 -.222E-13 0.311E+04   -.205E-13 0.128E-13 -.310E+04   0.000E+00 0.000E+00 -.420E+01   -.350E-13 0.209E-13 -.122E-02
   -.190E-13 -.591E-14 0.652E+03   0.667E-14 0.338E-13 -.651E+03   0.000E+00 0.000E+00 -.477E+00   0.107E-13 0.367E-13 0.442E-03
   -.587E-13 0.365E-13 -.203E+04   0.284E-14 0.194E-13 0.203E+04   0.000E+00 0.000E+00 -.651E+00   0.392E-13 -.150E-13 -.232E-03
   0.544E-12 -.672E-12 0.203E+04   0.133E-13 0.975E-14 -.203E+04   0.000E+00 0.000E+00 0.651E+00   0.121E-13 0.360E-13 0.375E-04
   0.602E-12 -.109E-12 -.652E+03   -.137E-13 0.212E-14 0.651E+03   0.000E+00 0.000E+00 0.477E+00   0.536E-13 -.186E-13 -.710E-03
   0.616E-12 0.430E-12 -.311E+04   -.137E-13 0.139E-13 0.310E+04   0.000E+00 0.000E+00 0.420E+01   0.618E-13 -.200E-13 0.114E-02
 -----------------------------------------------------------------------------------------------
   0.170E-11 -.343E-12 0.462E-03   -.251E-13 0.918E-13 0.000E+00   0.000E+00 0.000E+00 -.888E-15   0.142E-12 0.400E-13 -.545E-03
 
 
 POSITION                                       TOTAL-FORCE (eV/Angst)
 -----------------------------------------------------------------------------------
      0.00000      0.00000      0.01944         0.000000      0.000000      0.292659
      0.00000      0.00000      2.56489         0.000000      0.000000      0.000315
      0.00000      0.00000      5.15340         0.000000      0.000000      0.244265
      1.81568      1.28388      1.26599         0.000000      0.000000     -0.244265
      1.81568      1.28388      3.85450         0.000000      0.000000     -0.000315
      1.81568      1.28388      6.39995         0.000000      0.000000     -0.292659
 -----------------------------------------------------------------------------------
    total drift:                                0.000000      0.000000     -0.000083


--------------------------------------------------------------------------------------------------------



  FREE ENERGIE OF THE ION-ELECTRON SYSTEM (eV)
  ---------------------------------------------------
  free  energy   TOTEN  =       -20.537797 eV

  energy  without entropy=      -20.537797  energy(sigma->0) =      -20.537797
 
 d Force = 0.1371632E-01[ 0.121E-01, 0.154E-01]  d Energy = 0.1826009E-01-0.454E-02
 d Force =-0.2662777E+02[-0.266E+02,-0.266E+02]  d Ewald  =-0.2662863E+02 0.860E-03


--------------------------------------------------------------------------------------------------------


    POTLOK:  cpu time    0.34: real time    0.33


--------------------------------------------------------------------------------------------------------




--------------------------------------------------------------------------------------------------------


    WAVPRE:  cpu time    0.06: real time    0.06
    FEWALD:  cpu time    0.00: real time    0.00
    ORTHCH:  cpu time    1.18: real time    1.18
     LOOP+:  cpu time  150.84: real time  150.85


----------------------------------------- Iteration    5(   1)  ---------------------------------------


    POTLOK:  cpu time    0.30: real time    0.30
    SETDIJ:  cpu time    0.04: real time    0.03
     EDDAV:  cpu time   13.16: real time   13.16
 BZINTS: Fermi energy: -0.828874; 66.000000 electrons
         Band energy:-236.204982;  BLOECHL correction: -0.190007
       DOS:  cpu time    0.04: real time    0.04
    CHARGE:  cpu time    0.65: real time    0.65
    MIXING:  cpu time    0.01: real time    0.01
    --------------------------------------------
      LOOP:  cpu time   14.20: real time   14.20

 eigenvalue-minimisations  :  1280
 total energy-change (2. order) :-0.1299382E-01  (-0.1072176E+01)
 number of electron      65.9999726 magnetization 
 augmentation part       43.2500709 magnetization 

 Broyden mixing:
  rms(total) = 0.23906E-01    rms(broyden)= 0.23883E-01
  rms(prec ) = 0.25844E-01
  weight for this iteration     100.00

 Free energy of the ion-electron system (eV)
  ---------------------------------------------------
  alpha Z        PSCENC =       278.63143507
  Ewald energy   TEWEN  =     13939.32379826
  -1/2 Hartree   DENC   =    -21736.41237000
  -exchange  EXHF       =         0.00000000
  -V(xc)+E(xc)   XCENC  =       255.72585788
  PAW double counting   =      6548.07499525    -7415.51803056
  entropy T*S    EENTRO =         0.00000000
  eigenvalues    EBANDS =      -236.20498171
  atomic energy  EATOM  =      8345.82850422
  ---------------------------------------------------
  free energy    TOTEN  =       -20.55079160 eV

  energy without entropy =      -20.55079160  energy(sigma->0) =      -20.55079160


--------------------------------------------------------------------------------------------------------




----------------------------------------- Iteration    5(   2)  ---------------------------------------


    POTLOK:  cpu time    0.30: real time    0.30
    SETDIJ:  cpu time    0.03: real time    0.03
     EDDAV:  cpu time   14.38: real time   14.38
 BZINTS: Fermi energy: -0.839353; 66.000000 electrons
         Band energy:-237.398161;  BLOECHL correction: -0.190531
       DOS:  cpu time    0.04: real time    0.04
    CHARGE:  cpu time    0.62: real time    0.61
    MIXING:  cpu time    0.01: real time    0.01
    --------------------------------------------
      LOOP:  cpu time   15.37: real time   15.37

 eigenvalue-minimisations  :  1456
 total energy-change (2. order) :-0.2554924E-02  (-0.3685727E-02)
 number of electron      65.9999726 magnetization 
 augmentation part       43.2699109 magnetization 

 Broyden mixing:
  rms(total) = 0.19777E-01    rms(broyden)= 0.19774E-01
  rms(prec ) = 0.21866E-01
  weight for this iteration     100.00

 eigenvalues of (default mixing * dielectric matrix)
  average eigenvalue GAMMA=   0.6143
  0.6143

 Free energy of the ion-electron system (eV)
  ---------------------------------------------------
  alpha Z        PSCENC =       278.63143507
  Ewald energy   TEWEN  =     13939.32379826
  -1/2 Hartree   DENC   =    -21735.36431477
  -exchange  EXHF       =         0.00000000
  -V(xc)+E(xc)   XCENC  =       255.68702143
  PAW double counting   =      6548.04833715    -7415.30996719
  entropy T*S    EENTRO =         0.00000000
  eigenvalues    EBANDS =      -237.39816069
  atomic energy  EATOM  =      8345.82850422
  ---------------------------------------------------
  free energy    TOTEN  =       -20.55334652 eV

  energy without entropy =      -20.55334652  energy(sigma->0) =      -20.55334652


--------------------------------------------------------------------------------------------------------




----------------------------------------- Iteration    5(   3)  ---------------------------------------


    POTLOK:  cpu time    0.30: real time    0.30
    SETDIJ:  cpu time    0.03: real time    0.03
     EDDAV:  cpu time   13.93: real time   13.93
 BZINTS: Fermi energy: -0.839175; 66.000000 electrons
         Band energy:-237.326699;  BLOECHL correction: -0.190292
       DOS:  cpu time    0.04: real time    0.04
    CHARGE:  cpu time    0.66: real time    0.66
    MIXING:  cpu time    0.01: real time    0.01
    --------------------------------------------
      LOOP:  cpu time   14.98: real time   14.98

 eigenvalue-minimisations  :  1392
 total energy-change (2. order) : 0.2386540E-03  (-0.8977598E-03)
 number of electron      65.9999726 magnetization 
 augmentation part       43.2679483 magnetization 

 Broyden mixing:
  rms(total) = 0.12961E-01    rms(broyden)= 0.12960E-01
  rms(prec ) = 0.14209E-01
  weight for this iteration     100.00

 eigenvalues of (default mixing * dielectric matrix)
  average eigenvalue GAMMA=   1.0965
  0.4140  1.7790

 Free energy of the ion-electron system (eV)
  ---------------------------------------------------
  alpha Z        PSCENC =       278.63143507
  Ewald energy   TEWEN  =     13939.32379826
  -1/2 Hartree   DENC   =    -21735.31300168
  -exchange  EXHF       =         0.00000000
  -V(xc)+E(xc)   XCENC  =       255.69646123
  PAW double counting   =      6549.03659057    -7416.43019661
  entropy T*S    EENTRO =         0.00000000
  eigenvalues    EBANDS =      -237.32669892
  atomic energy  EATOM  =      8345.82850422
  ---------------------------------------------------
  free energy    TOTEN  =       -20.55310787 eV

  energy without entropy =      -20.55310787  energy(sigma->0) =      -20.55310787


--------------------------------------------------------------------------------------------------------




----------------------------------------- Iteration    5(   4)  ---------------------------------------


    POTLOK:  cpu time    0.30: real time    0.30
    SETDIJ:  cpu time    0.03: real time    0.03
     EDDAV:  cpu time   13.67: real time   13.67
 BZINTS: Fermi energy: -0.832253; 66.000000 electrons
         Band energy:-236.659494;  BLOECHL correction: -0.190172
       DOS:  cpu time    0.04: real time    0.04
    CHARGE:  cpu time    0.68: real time    0.68
    MIXING:  cpu time    0.01: real time    0.01
    --------------------------------------------
      LOOP:  cpu time   14.74: real time   14.74

 eigenvalue-minimisations  :  1352
 total energy-change (2. order) : 0.1112091E-03  (-0.1354102E-03)
 number of electron      65.9999726 magnetization 
 augmentation part       43.2571870 magnetization 

 Broyden mixing:
  rms(total) = 0.55914E-02    rms(broyden)= 0.55913E-02
  rms(prec ) = 0.60336E-02
  weight for this iteration     100.00

 eigenvalues of (default mixing * dielectric matrix)
  average eigenvalue GAMMA=   1.2305
  2.6657  0.6192  0.4067

 Free energy of the ion-electron system (eV)
  ---------------------------------------------------
  alpha Z        PSCENC =       278.63143507
  Ewald energy   TEWEN  =     13939.32379826
  -1/2 Hartree   DENC   =    -21735.75962444
  -exchange  EXHF       =         0.00000000
  -V(xc)+E(xc)   XCENC  =       255.70838378
  PAW double counting   =      6550.89528215    -7418.52128133
  entropy T*S    EENTRO =         0.00000000
  eigenvalues    EBANDS =      -236.65949435
  atomic energy  EATOM  =      8345.82850422
  ---------------------------------------------------
  free energy    TOTEN  =       -20.55299666 eV

  energy without entropy =      -20.55299666  energy(sigma->0) =      -20.55299666


--------------------------------------------------------------------------------------------------------




----------------------------------------- Iteration    5(   5)  ---------------------------------------


    POTLOK:  cpu time    0.30: real time    0.30
    SETDIJ:  cpu time    0.03: real time    0.03
     EDDAV:  cpu time   13.55: real time   13.55
 BZINTS: Fermi energy: -0.834538; 66.000000 electrons
         Band energy:-236.941811;  BLOECHL correction: -0.190320
       DOS:  cpu time    0.04: real time    0.04
    CHARGE:  cpu time    0.60: real time    0.60
    MIXING:  cpu time    0.01: real time    0.01
    --------------------------------------------
      LOOP:  cpu time   14.53: real time   14.53

 eigenvalue-minimisations  :  1336
 total energy-change (2. order) : 0.1939556E-04  (-0.5272025E-04)
 number of electron      65.9999726 magnetization 
 augmentation part       43.2611701 magnetization 

 Broyden mixing:
  rms(total) = 0.19009E-02    rms(broyden)= 0.19008E-02
  rms(prec ) = 0.22146E-02
  weight for this iteration     100.00

 eigenvalues of (default mixing * dielectric matrix)
  average eigenvalue GAMMA=   1.0947
  2.5847  0.4031  0.6954  0.6954

 Free energy of the ion-electron system (eV)
  ---------------------------------------------------
  alpha Z        PSCENC =       278.63143507
  Ewald energy   TEWEN  =     13939.32379826
  -1/2 Hartree   DENC   =    -21735.50890203
  -exchange  EXHF       =         0.00000000
  -V(xc)+E(xc)   XCENC  =       255.69718579
  PAW double counting   =      6551.41779781    -7419.00098551
  entropy T*S    EENTRO =         0.00000000
  eigenvalues    EBANDS =      -236.94181086
  atomic energy  EATOM  =      8345.82850422
  ---------------------------------------------------
  free energy    TOTEN  =       -20.55297726 eV

  energy without entropy =      -20.55297726  energy(sigma->0) =      -20.55297726


--------------------------------------------------------------------------------------------------------




----------------------------------------- Iteration    5(   6)  ---------------------------------------


    POTLOK:  cpu time    0.30: real time    0.30
    SETDIJ:  cpu time    0.04: real time    0.03
     EDDAV:  cpu time   13.64: real time   13.64
 BZINTS: Fermi energy: -0.834668; 66.000000 electrons
         Band energy:-236.972274;  BLOECHL correction: -0.190348
       DOS:  cpu time    0.04: real time    0.04
    CHARGE:  cpu time    0.61: real time    0.61
    MIXING:  cpu time    0.01: real time    0.01
    --------------------------------------------
      LOOP:  cpu time   14.64: real time   14.64

 eigenvalue-minimisations  :  1352
 total energy-change (2. order) : 0.2422424E-04  (-0.1107585E-04)
 number of electron      65.9999726 magnetization 
 augmentation part       43.2628793 magnetization 

 Broyden mixing:
  rms(total) = 0.15546E-02    rms(broyden)= 0.15545E-02
  rms(prec ) = 0.17360E-02
  weight for this iteration     100.00

 eigenvalues of (default mixing * dielectric matrix)
  average eigenvalue GAMMA=   1.0059
  2.3688  1.1625  0.7364  0.4020  0.3598

 Free energy of the ion-electron system (eV)
  ---------------------------------------------------
  alpha Z        PSCENC =       278.63143507
  Ewald energy   TEWEN  =     13939.32379826
  -1/2 Hartree   DENC   =    -21735.50995154
  -exchange  EXHF       =         0.00000000
  -V(xc)+E(xc)   XCENC  =       255.69449743
  PAW double counting   =      6551.27290315    -7418.82186605
  entropy T*S    EENTRO =         0.00000000
  eigenvalues    EBANDS =      -236.97227357
  atomic energy  EATOM  =      8345.82850422
  ---------------------------------------------------
  free energy    TOTEN  =       -20.55295304 eV

  energy without entropy =      -20.55295304  energy(sigma->0) =      -20.55295304


--------------------------------------------------------------------------------------------------------




----------------------------------------- Iteration    5(   7)  ---------------------------------------


    POTLOK:  cpu time    0.30: real time    0.30
    SETDIJ:  cpu time    0.04: real time    0.03
     EDDAV:  cpu time   14.14: real time   14.17
 BZINTS: Fermi energy: -0.834801; 66.000000 electrons
         Band energy:-236.988923;  BLOECHL correction: -0.190396
       DOS:  cpu time    0.04: real time    0.04
    CHARGE:  cpu time    0.60: real time    0.60
    MIXING:  cpu time    0.01: real time    0.01
    --------------------------------------------
      LOOP:  cpu time   15.12: real time   15.15

 eigenvalue-minimisations  :  1416
 total energy-change (2. order) :-0.2062470E-04  (-0.2679110E-05)
 number of electron      65.9999726 magnetization 
 augmentation part       43.2640350 magnetization 

 Broyden mixing:
  rms(total) = 0.53724E-03    rms(broyden)= 0.53718E-03
  rms(prec ) = 0.60449E-03
  weight for this iteration     100.00

 eigenvalues of (default mixing * dielectric matrix)
  average eigenvalue GAMMA=   1.1564
  2.5397  1.6628  1.1796  0.7678  0.4082  0.3804

 Free energy of the ion-electron system (eV)
  ---------------------------------------------------
  alpha Z        PSCENC =       278.63143507
  Ewald energy   TEWEN  =     13939.32379826
  -1/2 Hartree   DENC   =    -21735.51381365
  -exchange  EXHF       =         0.00000000
  -V(xc)+E(xc)   XCENC  =       255.69313201
  PAW double counting   =      6551.15688949    -7418.68399608
  entropy T*S    EENTRO =         0.00000000
  eigenvalues    EBANDS =      -236.98892299
  atomic energy  EATOM  =      8345.82850422
  ---------------------------------------------------
  free energy    TOTEN  =       -20.55297367 eV

  energy without entropy =      -20.55297367  energy(sigma->0) =      -20.55297367


--------------------------------------------------------------------------------------------------------




----------------------------------------- Iteration    5(   8)  ---------------------------------------


    POTLOK:  cpu time    0.30: real time    0.30
    SETDIJ:  cpu time    0.03: real time    0.03
     EDDAV:  cpu time   14.12: real time   14.13
 BZINTS: Fermi energy: -0.833984; 66.000000 electrons
         Band energy:-236.910444;  BLOECHL correction: -0.190386
       DOS:  cpu time    0.04: real time    0.04
    CHARGE:  cpu time    0.61: real time    0.61
    MIXING:  cpu time    0.01: real time    0.01
    --------------------------------------------
      LOOP:  cpu time   15.12: real time   15.12

 eigenvalue-minimisations  :  1424
 total energy-change (2. order) :-0.2082382E-04  (-0.7689786E-06)
 number of electron      65.9999726 magnetization 
 augmentation part       43.2632174 magnetization 

 Broyden mixing:
  rms(total) = 0.21933E-03    rms(broyden)= 0.21932E-03
  rms(prec ) = 0.25074E-03
  weight for this iteration     100.00

 eigenvalues of (default mixing * dielectric matrix)
  average eigenvalue GAMMA=   1.2008
  2.4875  1.7011  1.7011  0.8624  0.8624  0.4087  0.3826

 Free energy of the ion-electron system (eV)
  ---------------------------------------------------
  alpha Z        PSCENC =       278.63143507
  Ewald energy   TEWEN  =     13939.32379826
  -1/2 Hartree   DENC   =    -21735.57423731
  -exchange  EXHF       =         0.00000000
  -V(xc)+E(xc)   XCENC  =       255.69465220
  PAW double counting   =      6551.28693494    -7418.83363758
  entropy T*S    EENTRO =         0.00000000
  eigenvalues    EBANDS =      -236.91044429
  atomic energy  EATOM  =      8345.82850422
  ---------------------------------------------------
  free energy    TOTEN  =       -20.55299449 eV

  energy without entropy =      -20.55299449  energy(sigma->0) =      -20.55299449


--------------------------------------------------------------------------------------------------------




----------------------------------------- Iteration    5(   9)  ---------------------------------------


    POTLOK:  cpu time    0.30: real time    0.30
    SETDIJ:  cpu time    0.03: real time    0.03
     EDDAV:  cpu time    9.38: real time    9.39
 BZINTS: Fermi energy: -0.834041; 66.000000 electrons
         Band energy:-236.919748;  BLOECHL correction: -0.190388
       DOS:  cpu time    0.05: real time    0.05
    CHARGE:  cpu time    0.59: real time    0.59
    MIXING:  cpu time    0.01: real time    0.01
    --------------------------------------------
      LOOP:  cpu time   10.36: real time   10.37

 eigenvalue-minimisations  :   768
 total energy-change (2. order) : 0.6097736E-05  (-0.7208087E-07)
 number of electron      65.9999726 magnetization 
 augmentation part       43.2634686 magnetization 

 Broyden mixing:
  rms(total) = 0.94919E-04    rms(broyden)= 0.94910E-04
  rms(prec ) = 0.10226E-03
  weight for this iteration     100.00

 eigenvalues of (default mixing * dielectric matrix)
  average eigenvalue GAMMA=   1.2665
  2.5477  1.9855  1.9855  1.0091  1.0091  0.8014  0.4096  0.3841

 Free energy of the ion-electron system (eV)
  ---------------------------------------------------
  alpha Z        PSCENC =       278.63143507
  Ewald energy   TEWEN  =     13939.32379826
  -1/2 Hartree   DENC   =    -21735.57010533
  -exchange  EXHF       =         0.00000000
  -V(xc)+E(xc)   XCENC  =       255.69427040
  PAW double counting   =      6551.25424569    -7418.79538821
  entropy T*S    EENTRO =         0.00000000
  eigenvalues    EBANDS =      -236.91974848
  atomic energy  EATOM  =      8345.82850422
  ---------------------------------------------------
  free energy    TOTEN  =       -20.55298839 eV

  energy without entropy =      -20.55298839  energy(sigma->0) =      -20.55298839


--------------------------------------------------------------------------------------------------------




----------------------------------------- Iteration    5(  10)  ---------------------------------------


    POTLOK:  cpu time    0.30: real time    0.30
    SETDIJ:  cpu time    0.03: real time    0.03
     EDDAV:  cpu time    9.67: real time    9.67
 BZINTS: Fermi energy: -0.833974; 66.000000 electrons
         Band energy:-236.916228;  BLOECHL correction: -0.190389
       DOS:  cpu time    0.04: real time    0.04
    --------------------------------------------
      LOOP:  cpu time   10.04: real time   10.04

 eigenvalue-minimisations  :   808
 total energy-change (2. order) :-0.1512362E-06  (-0.4059217E-07)
 number of electron      65.9999726 magnetization 
 augmentation part       43.2634686 magnetization 

 Free energy of the ion-electron system (eV)
  ---------------------------------------------------
  alpha Z        PSCENC =       278.63143507
  Ewald energy   TEWEN  =     13939.32379826
  -1/2 Hartree   DENC   =    -21735.57396741
  -exchange  EXHF       =         0.00000000
  -V(xc)+E(xc)   XCENC  =       255.69422577
  PAW double counting   =      6551.25123234    -7418.79198925
  entropy T*S    EENTRO =         0.00000000
  eigenvalues    EBANDS =      -236.91622753
  atomic energy  EATOM  =      8345.82850422
  ---------------------------------------------------
  free energy    TOTEN  =       -20.55298854 eV

  energy without entropy =      -20.55298854  energy(sigma->0) =      -20.55298854


--------------------------------------------------------------------------------------------------------




 average (electrostatic) potential at core
  the test charge radii are     1.0053
  (the norm of the test charge is              1.0000)
       1 -44.0608       2 -44.4922       3 -44.4213       4 -44.4214       5 -44.4922
       6 -44.0607
 
 
 
 E-fermi :  -0.8340     XC(G=0):  -6.6393     alpha+bet : -4.1343


 k-point   1 :       0.0000    0.0000    0.0000
  band No.  band energies     occupation 
      1      -9.4751      2.00000
      2      -8.0223      2.00000
      3      -6.0484      2.00000
      4      -5.3332      2.00000
      5      -5.0020      2.00000
      6      -4.8342      2.00000
      7      -4.5576      2.00000
      8      -4.3706      2.00000
      9      -4.1148      2.00000
     10      -4.1122      2.00000
     11      -4.0496      2.00000
     12      -3.8056      2.00000
     13      -3.7386      2.00000
     14      -3.6629      2.00000
     15      -3.5899      2.00000
     16      -3.5045      2.00000
     17      -3.3982      2.00000
     18      -3.3816      2.00000
     19      -3.1956      2.00000
     20      -3.1790      2.00000
     21      -3.0249      2.00000
     22      -3.0206      2.00000
     23      -2.9742      2.00000
     24      -2.9146      2.00000
     25      -2.8264      2.00000
     26      -2.7546      2.00000
     27      -2.6152      2.00000
     28      -2.4922      2.00000
     29      -2.4581      2.00000
     30      -2.3863      2.00000
     31      -2.3329      2.00000
     32      -2.2478      2.00000
     33      -2.2037      2.00000
     34      -1.3200      2.10996
     35       0.7574      0.00000
     36       1.6654      0.00000
     37       2.9473      0.00000
     38       3.3393      0.00000
     39       3.7209      0.00000
     40       5.4649      0.00000

 k-point   2 :       0.1429    0.0000    0.0000
  band No.  band energies     occupation 
      1      -9.2355      2.00000
      2      -7.8096      2.00000
      3      -5.9549      2.00000
      4      -5.3285      2.00000
      5      -4.9880      2.00000
      6      -4.8681      2.00000
      7      -4.7043      2.00000
      8      -4.3288      2.00000
      9      -4.0294      2.00000
     10      -3.9811      2.00000
     11      -3.9726      2.00000
     12      -3.7954      2.00000
     13      -3.6345      2.00000
     14      -3.6005      2.00000
     15      -3.5972      2.00000
     16      -3.4857      2.00000
     17      -3.4598      2.00000
     18      -3.4164      2.00000
     19      -3.3440      2.00000
     20      -3.1302      2.00000
     21      -3.1255      2.00000
     22      -2.9965      2.00000
     23      -2.9616      2.00000
     24      -2.8928      2.00000
     25      -2.8131      2.00000
     26      -2.7386      2.00000
     27      -2.6260      2.00000
     28      -2.5390      2.00000
     29      -2.4323      2.00000
     30      -2.3919      2.00000
     31      -2.3154      2.00000
     32      -2.2409      2.00000
     33      -2.2396      2.00000
     34      -1.2219      2.15881
     35       0.3188     -0.00843
     36       0.8791      0.00000
     37       2.0910      0.00000
     38       3.0255      0.00000
     39       3.5596      0.00000
     40       4.4347      0.00000

 k-point   3 :       0.2857    0.0000    0.0000
  band No.  band energies     occupation 
      1      -8.5355      2.00000
      2      -7.2089      2.00000
      3      -5.7652      2.00000
      4      -5.4756      2.00000
      5      -5.1088      2.00000
      6      -5.0111      2.00000
      7      -4.6697      2.00000
      8      -4.1774      2.00000
      9      -3.9496      2.00000
     10      -3.9195      2.00000
     11      -3.8496      2.00000
     12      -3.7684      2.00000
     13      -3.6028      2.00000
     14      -3.6022      2.00000
     15      -3.5808      2.00000
     16      -3.4708      2.00000
     17      -3.4594      2.00000
     18      -3.3631      2.00000
     19      -3.2332      2.00000
     20      -3.1843      2.00000
     21      -3.1007      2.00000
     22      -3.0736      2.00000
     23      -2.9738      2.00000
     24      -2.8351      2.00000
     25      -2.7579      2.00000
     26      -2.7104      2.00000
     27      -2.7071      2.00000
     28      -2.6202      2.00000
     29      -2.3827      2.00000
     30      -2.3408      2.00000
     31      -2.3162      2.00000
     32      -2.2898      2.00000
     33      -2.2544      2.00000
     34      -1.5328      2.12727
     35      -0.8736      0.70350
     36      -0.1858     -0.00171
     37       1.2504      0.00000
     38       1.6595      0.00000
     39       4.1186      0.00000
     40       4.1196      0.00000

 k-point   4 :       0.4286    0.0000    0.0000
  band No.  band energies     occupation 
      1      -7.4536      2.00000
      2      -6.3940      2.00000
      3      -6.2154      2.00000
      4      -5.7413      2.00000
      5      -5.2738      2.00000
      6      -5.2625      2.00000
      7      -4.4401      2.00000
      8      -4.1780      2.00000
      9      -3.9291      2.00000
     10      -3.8556      2.00000
     11      -3.7806      2.00000
     12      -3.7804      2.00000
     13      -3.6656      2.00000
     14      -3.6591      2.00000
     15      -3.6042      2.00000
     16      -3.5840      2.00000
     17      -3.3900      2.00000
     18      -3.3572      2.00000
     19      -3.3219      2.00000
     20      -3.2325      2.00000
     21      -3.0102      2.00000
     22      -2.9066      2.00000
     23      -2.8098      2.00000
     24      -2.7748      2.00000
     25      -2.6758      2.00000
     26      -2.6266      2.00000
     27      -2.5445      2.00000
     28      -2.4452      2.00000
     29      -2.3795      2.00000
     30      -2.3330      2.00000
     31      -2.3317      2.00000
     32      -2.2988      2.00000
     33      -2.2816      2.00000
     34      -2.2336      2.00000
     35      -1.7220      2.11540
     36      -0.8484      0.19109
     37       0.3905      0.00000
     38       1.0667      0.00000
     39       4.1619      0.00000
     40       5.1055      0.00000

 k-point   5 :       0.0000    0.1429    0.0000
  band No.  band energies     occupation 
      1      -8.9948      2.00000
      2      -7.5749      2.00000
      3      -5.7223      2.00000
      4      -5.1488      2.00000
      5      -4.8404      2.00000
      6      -4.6548      2.00000
      7      -4.3223      2.00000
      8      -4.3205      2.00000
      9      -4.3062      2.00000
     10      -4.2471      2.00000
     11      -4.1647      2.00000
     12      -3.9319      2.00000
     13      -3.8985      2.00000
     14      -3.7137      2.00000
     15      -3.5597      2.00000
     16      -3.4812      2.00000
     17      -3.4284      2.00000
     18      -3.3419      2.00000
     19      -3.1646      2.00000
     20      -3.1452      2.00000
     21      -3.0636      2.00000
     22      -2.9183      2.00000
     23      -2.8984      2.00000
     24      -2.8756      2.00000
     25      -2.8401      2.00000
     26      -2.8262      2.00000
     27      -2.5446      2.00000
     28      -2.5314      2.00000
     29      -2.5193      2.00000
     30      -2.4451      2.00000
     31      -2.4070      2.00000
     32      -2.2215      2.00000
     33      -2.2033      2.00000
     34      -0.9535      1.25240
     35       1.2222      0.00000
     36       2.5823      0.00000
     37       3.3953      0.00000
     38       3.8030      0.00000
     39       4.4099      0.00000
     40       5.9403      0.00000

 k-point   6 :       0.1429    0.1429    0.0000
  band No.  band energies     occupation 
      1      -8.7616      2.00000
      2      -7.3672      2.00000
      3      -5.6243      2.00000
      4      -5.1220      2.00000
      5      -4.8135      2.00000
      6      -4.6769      2.00000
      7      -4.5509      2.00000
      8      -4.2574      2.00000
      9      -4.1932      2.00000
     10      -4.1733      2.00000
     11      -4.0669      2.00000
     12      -3.9421      2.00000
     13      -3.7596      2.00000
     14      -3.7206      2.00000
     15      -3.5609      2.00000
     16      -3.5348      2.00000
     17      -3.4593      2.00000
     18      -3.3406      2.00000
     19      -3.2972      2.00000
     20      -3.1803      2.00000
     21      -3.0465      2.00000
     22      -3.0015      2.00000
     23      -2.9544      2.00000
     24      -2.9365      2.00000
     25      -2.8018      2.00000
     26      -2.6752      2.00000
     27      -2.6003      2.00000
     28      -2.5142      2.00000
     29      -2.4872      2.00000
     30      -2.4366      2.00000
     31      -2.3923      2.00000
     32      -2.3100      2.00000
     33      -2.1609      2.00000
     34      -0.7769      0.82173
     35       1.1179     -0.00591
     36       1.3958      0.00000
     37       2.6691      0.00000
     38       3.5240      0.00000
     39       4.0247      0.00000
     40       4.8817      0.00000

 k-point   7 :       0.2857    0.1429    0.0000
  band No.  band energies     occupation 
      1      -8.0831      2.00000
      2      -6.7854      2.00000
      3      -5.4359      2.00000
      4      -5.2038      2.00000
      5      -4.8827      2.00000
      6      -4.7659      2.00000
      7      -4.5750      2.00000
      8      -4.1954      2.00000
      9      -4.0796      2.00000
     10      -4.0160      2.00000
     11      -3.9663      2.00000
     12      -3.9313      2.00000
     13      -3.7177      2.00000
     14      -3.6889      2.00000
     15      -3.5388      2.00000
     16      -3.4825      2.00000
     17      -3.4365      2.00000
     18      -3.3933      2.00000
     19      -3.3655      2.00000
     20      -3.2965      2.00000
     21      -3.1361      2.00000
     22      -3.1001      2.00000
     23      -3.0791      2.00000
     24      -2.9519      2.00000
     25      -2.7446      2.00000
     26      -2.6750      2.00000
     27      -2.6711      2.00000
     28      -2.5260      2.00000
     29      -2.4501      2.00000
     30      -2.4286      2.00000
     31      -2.3700      2.00000
     32      -2.3603      2.00000
     33      -1.9263      2.00000
     34      -0.8497      1.12990
     35      -0.2019     -0.04947
     36       0.4296     -0.00217
     37       1.8167      0.00000
     38       2.1999      0.00000
     39       4.5138      0.00000
     40       4.5835      0.00000

 k-point   8 :       0.4286    0.1429    0.0000
  band No.  band energies     occupation 
      1      -7.0452      2.00000
      2      -6.0266      2.00000
      3      -5.8647      2.00000
      4      -5.4270      2.00000
      5      -4.9928      2.00000
      6      -4.9671      2.00000
      7      -4.3855      2.00000
      8      -4.1744      2.00000
      9      -3.9800      2.00000
     10      -3.9535      2.00000
     11      -3.9364      2.00000
     12      -3.8839      2.00000
     13      -3.7149      2.00000
     14      -3.6936      2.00000
     15      -3.6622      2.00000
     16      -3.5627      2.00000
     17      -3.4447      2.00000
     18      -3.3724      2.00000
     19      -3.2007      2.00000
     20      -3.1704      2.00000
     21      -3.1377      2.00000
     22      -3.0922      2.00000
     23      -3.0877      2.00000
     24      -3.0607      2.00000
     25      -2.7985      2.00000
     26      -2.7573      2.00000
     27      -2.6441      2.00000
     28      -2.6136      2.00000
     29      -2.4692      2.00000
     30      -2.4488      2.00000
     31      -2.3970      2.00000
     32      -2.1103      2.00000
     33      -1.9567      2.00000
     34      -1.4206      1.90691
     35      -0.9436      1.07234
     36       0.1252     -0.07735
     37       0.8308      0.00000
     38       1.7181      0.00000
     39       4.5008      0.00000
     40       5.4752      0.00000

 k-point   9 :       0.0000    0.2857    0.0000
  band No.  band energies     occupation 
      1      -7.6481      2.00000
      2      -6.4413      2.00000
      3      -5.3242      2.00000
      4      -4.8794      2.00000
      5      -4.6947      2.00000
      6      -4.6899      2.00000
      7      -4.5102      2.00000
      8      -4.4204      2.00000
      9      -4.4157      2.00000
     10      -4.3085      2.00000
     11      -4.2386      2.00000
     12      -3.8467      2.00000
     13      -3.7480      2.00000
     14      -3.6889      2.00000
     15      -3.4685      2.00000
     16      -3.3972      2.00000
     17      -3.2917      2.00000
     18      -3.1324      2.00000
     19      -3.0845      2.00000
     20      -3.0461      2.00000
     21      -2.9811      2.00000
     22      -2.9352      2.00000
     23      -2.8475      2.00000
     24      -2.7676      2.00000
     25      -2.6505      2.00000
     26      -2.6371      2.00000
     27      -2.4945      2.00000
     28      -2.4858      2.00000
     29      -2.4828      2.00000
     30      -2.4195      2.00000
     31      -2.3046      2.00000
     32      -2.2659      2.00000
     33      -1.9537      2.07103
     34       0.0966     -0.09956
     35       2.4153      0.00000
     36       4.1095      0.00000
     37       4.7351      0.00000
     38       4.7805      0.00000
     39       5.0263      0.00000
     40       5.8715      0.00000

 k-point  10 :       0.1429    0.2857    0.0000
  band No.  band energies     occupation 
      1      -7.4480      2.00000
      2      -6.2617      2.00000
      3      -5.2042      2.00000
      4      -4.8171      2.00000
      5      -4.6799      2.00000
      6      -4.6787      2.00000
      7      -4.5470      2.00000
      8      -4.3838      2.00000
      9      -4.3548      2.00000
     10      -4.2469      2.00000
     11      -4.2010      2.00000
     12      -3.8775      2.00000
     13      -3.7432      2.00000
     14      -3.7022      2.00000
     15      -3.5550      2.00000
     16      -3.4509      2.00000
     17      -3.3546      2.00000
     18      -3.2691      2.00000
     19      -3.0833      2.00000
     20      -3.0306      2.00000
     21      -2.9634      2.00000
     22      -2.8958      2.00000
     23      -2.8704      2.00000
     24      -2.8362      2.00000
     25      -2.7979      2.00000
     26      -2.6308      2.00000
     27      -2.5207      2.00000
     28      -2.5005      2.00000
     29      -2.4338      2.00000
     30      -2.3677      2.00000
     31      -2.3361      2.00000
     32      -2.3238      2.00088
     33      -1.6574      1.94610
     34       0.3881     -0.07008
     35       2.6538      0.00000
     36       2.7321      0.00000
     37       4.1612      0.00000
     38       4.5031      0.00000
     39       5.0692      0.00000
     40       5.3076      0.00000

 k-point  11 :       0.2857    0.2857    0.0000
  band No.  band energies     occupation 
      1      -6.8873      2.00000
      2      -5.7791      2.00000
      3      -4.9182      2.00000
      4      -4.8922      2.00000
      5      -4.6768      2.00000
      6      -4.6418      2.00000
      7      -4.4423      2.00000
      8      -4.3374      2.00000
      9      -4.2120      2.00000
     10      -4.1269      2.00000
     11      -4.0762      2.00000
     12      -3.9441      2.00000
     13      -3.7571      2.00000
     14      -3.7238      2.00000
     15      -3.6471      2.00000
     16      -3.5731      2.00000
     17      -3.4574      2.00000
     18      -3.4461      2.00000
     19      -3.1409      2.00000
     20      -3.0415      2.00000
     21      -3.0202      2.00000
     22      -3.0182      2.00000
     23      -2.9738      2.00000
     24      -2.9149      2.00000
     25      -2.7479      2.00000
     26      -2.6848      2.00000
     27      -2.6085      2.00000
     28      -2.5142      2.00000
     29      -2.4411      2.00000
     30      -2.4211      2.00000
     31      -2.3931      2.00000
     32      -2.1072      2.07842
     33      -0.9274      1.37994
     34       0.4233     -0.08824
     35       1.2073     -0.01451
     36       1.7725      0.00000
     37       3.3166      0.00000
     38       3.6882      0.00000
     39       5.4041      0.00000
     40       5.7880      0.00000

 k-point  12 :       0.4286    0.2857    0.0000
  band No.  band energies     occupation 
      1      -6.1116      2.00000
      2      -5.4083      2.00000
      3      -5.1463      2.00000
      4      -4.8044      2.00000
      5      -4.5808      2.00000
      6      -4.5743      2.00000
      7      -4.2781      2.00000
      8      -4.2564      2.00000
      9      -4.1193      2.00000
     10      -4.0964      2.00000
     11      -4.0595      2.00000
     12      -3.9048      2.00000
     13      -3.7408      2.00000
     14      -3.7227      2.00000
     15      -3.6825      2.00000
     16      -3.6454      2.00000
     17      -3.5562      2.00000
     18      -3.5329      2.00000
     19      -3.2225      2.00000
     20      -3.1867      2.00000
     21      -3.0823      2.00000
     22      -3.0386      2.00000
     23      -2.9901      2.00000
     24      -2.9840      2.00000
     25      -2.7525      2.00000
     26      -2.7475      2.00000
     27      -2.6884      2.00000
     28      -2.5691      2.00000
     29      -2.4696      2.00000
     30      -2.4632      2.00000
     31      -2.2010      2.00000
     32      -1.4566      2.04455
     33      -1.1745      1.59068
     34      -0.3171      0.05257
     35       0.3969     -0.08584
     36       1.6762      0.00000
     37       2.3456      0.00000
     38       3.4287      0.00000
     39       5.5748      0.00000
     40       6.5114      0.00000

 k-point  13 :       0.0000    0.4286    0.0000
  band No.  band energies     occupation 
      1      -5.8982      2.00000
      2      -5.5668      2.00000
      3      -5.3567      2.00000
      4      -4.9428      2.00000
      5      -4.9396      2.00000
      6      -4.9353      2.00000
      7      -4.5493      2.00000
      8      -4.5295      2.00000
      9      -4.4433      2.00000
     10      -4.4331      2.00000
     11      -4.0584      2.00000
     12      -3.9541      2.00000
     13      -3.9391      2.00000
     14      -3.7176      2.00000
     15      -3.4024      2.00000
     16      -3.2322      2.00000
     17      -3.0980      2.00000
     18      -3.0376      2.00000
     19      -2.9027      2.00000
     20      -2.7486      2.00000
     21      -2.6854      2.00000
     22      -2.6432      2.00000
     23      -2.5504      2.00000
     24      -2.4628      2.00000
     25      -2.4320      2.00000
     26      -2.4014      2.00000
     27      -2.3990      2.00000
     28      -2.3306      2.00000
     29      -2.3014      2.00000
     30      -2.2704      2.00000
     31      -1.8011      2.00000
     32      -1.5493      2.00000
     33      -0.4900      0.36197
     34       0.4340      0.00000
     35       1.2298      0.00000
     36       1.3373      0.00000
     37       4.0130      0.00000
     38       4.4072      0.00000
     39       6.9440      0.00000
     40       7.4075      0.00000

 k-point  14 :       0.1429    0.4286    0.0000
  band No.  band energies     occupation 
      1      -5.8284      2.00000
      2      -5.4483      2.00000
      3      -5.2486      2.00000
      4      -4.9682      2.00000
      5      -4.9058      2.00000
      6      -4.8638      2.00000
      7      -4.6885      2.00000
      8      -4.5776      2.00000
      9      -4.2580      2.00000
     10      -4.2460      2.00000
     11      -4.0217      2.00000
     12      -3.9451      2.00000
     13      -3.8177      2.00000
     14      -3.6786      2.00000
     15      -3.4439      2.00000
     16      -3.4240      2.00000
     17      -3.1183      2.00000
     18      -3.0881      2.00000
     19      -2.8790      2.00000
     20      -2.8671      2.00000
     21      -2.7513      2.00000
     22      -2.7367      2.00000
     23      -2.6222      2.00000
     24      -2.5238      2.00000
     25      -2.4718      2.00000
     26      -2.4230      2.00000
     27      -2.3796      2.00000
     28      -2.3665      2.00000
     29      -2.3212      2.00000
     30      -2.3016      2.00000
     31      -1.8112      2.00000
     32      -1.3820      2.07554
     33      -0.0422      0.04869
     34       0.5100      0.00000
     35       1.4590      0.00000
     36       1.7540      0.00000
     37       4.2069      0.00000
     38       4.6534      0.00000
     39       5.4872      0.00000
     40       6.6276      0.00000

 k-point  15 :       0.2857    0.4286    0.0000
  band No.  band energies     occupation 
      1      -5.6879      2.00000
      2      -5.1954      2.00000
      3      -5.1035      2.00000
      4      -4.9725      2.00000
      5      -4.8159      2.00000
      6      -4.8054      2.00000
      7      -4.4580      2.00000
      8      -4.4159      2.00000
      9      -4.1761      2.00000
     10      -4.1358      2.00000
     11      -3.8093      2.00000
     12      -3.7787      2.00000
     13      -3.7408      2.00000
     14      -3.7077      2.00000
     15      -3.5964      2.00000
     16      -3.5433      2.00000
     17      -3.3593      2.00000
     18      -3.2802      2.00000
     19      -3.0626      2.00000
     20      -2.9765      2.00000
     21      -2.8739      2.00000
     22      -2.7659      2.00000
     23      -2.7036      2.00000
     24      -2.6076      2.00000
     25      -2.5356      2.00000
     26      -2.4844      2.00000
     27      -2.3817      2.00000
     28      -2.3544      2.00000
     29      -2.3053      2.00000
     30      -2.2723      2.00000
     31      -1.8356      2.00000
     32      -0.8285      1.27497
     33       0.4734     -0.12851
     34       0.9183      0.00000
     35       1.9043      0.00000
     36       2.7487      0.00000
     37       3.6157      0.00000
     38       4.5445      0.00000
     39       4.7738      0.00000
     40       5.3455      0.00000

 k-point  16 :       0.4286    0.4286    0.0000
  band No.  band energies     occupation 
      1      -5.5488      2.00000
      2      -5.3822      2.00000
      3      -4.8496      2.00000
      4      -4.7578      2.00000
      5      -4.6567      2.00000
      6      -4.6098      2.00000
      7      -4.2474      2.00000
      8      -4.1570      2.00000
      9      -4.1138      2.00000
     10      -4.0992      2.00000
     11      -3.9338      2.00000
     12      -3.8918      2.00000
     13      -3.7684      2.00000
     14      -3.7462      2.00000
     15      -3.5895      2.00000
     16      -3.5814      2.00000
     17      -3.4794      2.00000
     18      -3.4540      2.00000
     19      -3.1316      2.00000
     20      -3.1042      2.00000
     21      -2.8372      2.00000
     22      -2.7892      2.00000
     23      -2.6941      2.00000
     24      -2.6583      2.00000
     25      -2.5326      2.00000
     26      -2.4542      2.00000
     27      -2.4020      2.00000
     28      -2.3859      2.00000
     29      -2.2770      2.00000
     30      -2.2516      2.00000
     31      -1.4829      2.00000
     32      -0.4242      0.24598
     33       0.1452     -0.11049
     34       1.2945      0.00000
     35       2.2567      0.00000
     36       3.3153      0.00000
     37       3.5285      0.00000
     38       4.1666      0.00000
     39       4.5458      0.00000
     40       4.7449      0.00000


--------------------------------------------------------------------------------------------------------


 soft charge-density along one line, spin component           1
         0         1         2         3         4         5         6         7         8         9
 total charge-density along one line
 
 pseudopotential strength for first ion, spin component:           1
 -9.490   0.000   0.000   0.000   0.000   1.120   0.000   0.000
  0.000  -9.465   0.000   0.000   0.000   0.000   1.108   0.000
  0.000   0.000  -9.459   0.000  -0.017   0.000   0.000   1.105
  0.000   0.000   0.000  -9.451   0.000   0.000   0.000   0.000
  0.000   0.000  -0.017   0.000  -9.485   0.000   0.000   0.008
  1.120   0.000   0.000   0.000   0.000   1.062   0.000   0.000
  0.000   1.108   0.000   0.000   0.000   0.000   1.067   0.000
  0.000   0.000   1.105   0.000   0.008   0.000   0.000   1.069
  0.000   0.000   0.000   1.101   0.000   0.000   0.000   0.000
  0.000   0.000   0.008   0.000   1.118   0.000   0.000  -0.004
  0.000   0.000  -0.006   0.000  -0.003   0.000   0.000   0.002
  0.000   0.000   0.000   0.000   0.000   0.000   0.000   0.000
  0.000  -0.018   0.000   0.000   0.000   0.000   0.009   0.000
  0.000   0.000  -0.019   0.000   0.001   0.000   0.000   0.010
  0.000   0.000   0.000  -0.016   0.000   0.000   0.000   0.000
  0.000   0.010   0.000   0.000   0.000   0.000  -0.005   0.000
  0.000   0.000   0.011   0.000  -0.001   0.000   0.000  -0.005
  0.000   0.000   0.000   0.009   0.000   0.000   0.000   0.000
 total augmentation occupancy for first ion, spin component:           1
  1.915   0.000   0.000   0.000   0.000  -0.020   0.000   0.000   0.000   0.000   0.000   0.000   0.000   0.000   0.000   0.000
  0.000   1.931   0.000   0.000   0.000   0.000  -0.051   0.000   0.000   0.000   0.000   0.000  -0.006   0.000   0.000  -0.009
  0.000   0.000   1.930   0.000  -0.003   0.000   0.000  -0.034   0.000   0.018   0.014   0.027   0.000   0.020   0.000   0.000
  0.000   0.000   0.000   1.929   0.000   0.000   0.000   0.000  -0.046   0.000   0.000   0.000   0.000   0.000   0.037   0.000
  0.000   0.000  -0.003   0.000   1.919   0.000   0.000   0.017   0.000  -0.028  -0.008   0.017   0.000   0.022   0.000   0.000
 -0.020   0.000   0.000   0.000   0.000   0.044   0.000   0.000   0.000   0.000   0.000   0.000   0.000   0.000   0.000   0.000
  0.000  -0.051   0.000   0.000   0.000   0.000   0.043   0.000   0.000   0.000   0.000   0.000   0.042   0.000   0.000  -0.003
  0.000   0.000  -0.034   0.000   0.017   0.000   0.000   0.048   0.000   0.009  -0.049   0.001   0.000   0.039   0.000   0.000
  0.000   0.000   0.000  -0.046   0.000   0.000   0.000   0.000   0.051   0.000   0.000   0.000   0.000   0.000   0.056   0.000
  0.000   0.000   0.018   0.000  -0.028   0.000   0.000   0.009   0.000   0.051  -0.033   0.008   0.000   0.007   0.000   0.000
  0.000   0.000   0.014   0.000  -0.008   0.000   0.000  -0.049   0.000  -0.033   1.227  -0.259   0.000   0.117   0.000   0.000
  0.000   0.000   0.027   0.000   0.017   0.000   0.000   0.001   0.000   0.008  -0.259   0.097   0.000  -0.057   0.000   0.000
  0.000  -0.006   0.000   0.000   0.000   0.000   0.042   0.000   0.000   0.000   0.000   0.000   0.153   0.000   0.000  -0.009
  0.000   0.000   0.020   0.000   0.022   0.000   0.000   0.039   0.000   0.007   0.117  -0.057   0.000   0.083   0.000   0.000
  0.000   0.000   0.000   0.037   0.000   0.000   0.000   0.000   0.056   0.000   0.000   0.000   0.000   0.000   0.116   0.000
  0.000  -0.009   0.000   0.000   0.000   0.000  -0.003   0.000   0.000   0.000   0.000   0.000  -0.009   0.000   0.000   0.001
  0.000   0.000  -0.011   0.000  -0.001   0.000   0.000  -0.002   0.000   0.000  -0.019   0.007   0.000  -0.007   0.000   0.000
  0.000   0.000   0.000  -0.012   0.000   0.000   0.000   0.000  -0.004   0.000   0.000   0.000   0.000   0.000  -0.007   0.000


------------------------ aborting loop because EDIFF is reached ----------------------------------------


    CHARGE:  cpu time    0.61: real time    0.61
    FORLOC:  cpu time    0.02: real time    0.02
    FORNL :  cpu time    5.54: real time    5.54
    STRESS:  cpu time    8.63: real time    8.63
    FORCOR:  cpu time    0.30: real time    0.30
    FORHAR:  cpu time    0.09: real time    0.09
    MIXING:  cpu time    0.02: real time    0.01

  FORCE on cell =-STRESS in cart. coord.  units (eV):
  Direction    XX          YY          ZZ          XY          YZ          ZX
  --------------------------------------------------------------------------------------
  Alpha Z   278.63144   278.63144   278.63144
  Ewald   18120.68863 18306.89376-22488.26187     0.00000     0.00000     0.00000
  Hartree 20360.60444 20484.59622-19109.59464     0.00000     0.00000     0.00000
  E(xc)    -375.20337  -375.00259  -375.74171     0.00000     0.00000     0.00000
  Local  -38969.30580-39278.80973 41108.39683     0.00000     0.00000     0.00000
  n-local  -224.10502  -223.18000  -224.62944     2.99120     0.00000     0.00000
  augment   336.73061   336.45316   337.88750    -0.00001    -0.00002     0.00000
  Kinetic   469.94676   468.82593   472.37718     4.62785     0.00000     0.00000
  Fock        0.00000     0.00000     0.00000     0.00000     0.00000     0.00000
  -------------------------------------------------------------------------------------
  Total      -2.01231    -1.59181    -0.93472     0.00000     0.00000     0.00000
  in kB     -19.53128   -15.44993    -9.07224     0.00000     0.00000     0.00000
  external pressure =      -14.68 kB  Pullay stress =        0.00 kB


 VOLUME and BASIS-vectors are now :
 -----------------------------------------------------------------------------
  energy-cutoff  :      415.00
  volume of cell :      165.07
      direct lattice vectors                 reciprocal lattice vectors
     3.631354857  0.000000000  0.000000000     0.275379311  0.000000000  0.000000000
     0.000000000  2.567755644  0.000000000     0.000000000  0.389445157  0.000000000
     0.000000000  0.000000000 17.703266931     0.000000000  0.000000000  0.056486749

  length of vectors
     3.631354857  2.567755644 17.703266931     0.275379311  0.389445157  0.056486749


 FORCES acting on ions
    electron-ion (+dipol)            ewald-force                    non-local-force                 convergence-correction
 -----------------------------------------------------------------------------------------------
   -.282E-13 0.217E-13 0.311E+04   -.199E-13 0.124E-13 -.310E+04   0.000E+00 0.000E+00 -.410E+01   -.285E-14 -.417E-13 -.125E-02
   -.655E-13 -.131E-13 0.642E+03   -.551E-13 0.202E-13 -.641E+03   0.000E+00 0.000E+00 -.510E+00   -.322E-14 0.188E-13 0.820E-03
   -.758E-13 0.744E-14 -.203E+04   -.216E-13 0.174E-13 0.203E+04   0.000E+00 0.000E+00 -.776E+00   -.612E-13 0.801E-13 -.195E-03
   0.620E-12 0.155E-12 0.203E+04   0.132E-13 0.132E-13 -.203E+04   0.000E+00 0.000E+00 0.776E+00   0.531E-13 -.182E-14 -.135E-03
   0.594E-12 -.129E-11 -.642E+03   0.468E-13 0.104E-13 0.641E+03   0.000E+00 0.000E+00 0.510E+00   0.662E-13 0.769E-14 -.136E-02
   0.619E-12 0.336E-12 -.311E+04   0.116E-13 0.182E-13 0.310E+04   0.000E+00 0.000E+00 0.410E+01   0.706E-13 0.494E-13 0.118E-02
 -----------------------------------------------------------------------------------------------
   0.166E-11 -.786E-12 0.121E-02   -.251E-13 0.918E-13 0.455E-12   0.000E+00 0.000E+00 0.000E+00   0.123E-12 0.113E-12 -.944E-03
 
 
 POSITION                                       TOTAL-FORCE (eV/Angst)
 -----------------------------------------------------------------------------------
      0.00000      0.00000      0.04277         0.000000      0.000000      0.153065
      0.00000      0.00000      2.56144         0.000000      0.000000      0.072457
      0.00000      0.00000      5.17487         0.000000      0.000000      0.101703
      1.81568      1.28388      1.24452         0.000000      0.000000     -0.101703
      1.81568      1.28388      3.85794         0.000000      0.000000     -0.072457
      1.81568      1.28388      6.37661         0.000000      0.000000     -0.153065
 -----------------------------------------------------------------------------------
    total drift:                                0.000000      0.000000      0.000262


--------------------------------------------------------------------------------------------------------



  FREE ENERGIE OF THE ION-ELECTRON SYSTEM (eV)
  ---------------------------------------------------
  free  energy   TOTEN  =       -20.552989 eV

  energy  without entropy=      -20.552989  energy(sigma->0) =      -20.552989
 
 d Force = 0.1757667E-01[ 0.110E-01, 0.241E-01]  d Energy = 0.1519155E-01 0.239E-02
 d Force =-0.5318896E+02[-0.531E+02,-0.532E+02]  d Ewald  =-0.5319601E+02 0.706E-02


--------------------------------------------------------------------------------------------------------


    POTLOK:  cpu time    0.33: real time    0.33


--------------------------------------------------------------------------------------------------------




--------------------------------------------------------------------------------------------------------


    WAVPRE:  cpu time    0.06: real time    0.06
    FEWALD:  cpu time    0.00: real time    0.00
    ORTHCH:  cpu time    1.18: real time    1.18
     LOOP+:  cpu time  155.93: real time  155.96


----------------------------------------- Iteration    6(   1)  ---------------------------------------


    POTLOK:  cpu time    0.30: real time    0.29
    SETDIJ:  cpu time    0.03: real time    0.03
     EDDAV:  cpu time   13.16: real time   13.16
 BZINTS: Fermi energy: -0.834075; 66.000000 electrons
         Band energy:-237.641504;  BLOECHL correction: -0.186367
       DOS:  cpu time    0.04: real time    0.04
    CHARGE:  cpu time    0.65: real time    0.65
    MIXING:  cpu time    0.01: real time    0.01
    --------------------------------------------
      LOOP:  cpu time   14.18: real time   14.18

 eigenvalue-minimisations  :  1280
 total energy-change (2. order) : 0.1797558E-01  (-0.4325298E+01)
 number of electron      65.9999923 magnetization 
 augmentation part       43.2133762 magnetization 

 Broyden mixing:
  rms(total) = 0.51909E-01    rms(broyden)= 0.51867E-01
  rms(prec ) = 0.56240E-01
  weight for this iteration     100.00

 Free energy of the ion-electron system (eV)
  ---------------------------------------------------
  alpha Z        PSCENC =       278.63143507
  Ewald energy   TEWEN  =     14045.17107105
  -1/2 Hartree   DENC   =    -21840.83953572
  -exchange  EXHF       =         0.00000000
  -V(xc)+E(xc)   XCENC  =       255.85859795
  PAW double counting   =      6551.25730668    -7418.80088760
  entropy T*S    EENTRO =         0.00000000
  eigenvalues    EBANDS =      -237.64150446
  atomic energy  EATOM  =      8345.82850422
  ---------------------------------------------------
  free energy    TOTEN  =       -20.53501281 eV

  energy without entropy =      -20.53501281  energy(sigma->0) =      -20.53501281


--------------------------------------------------------------------------------------------------------




----------------------------------------- Iteration    6(   2)  ---------------------------------------


    POTLOK:  cpu time    0.30: real time    0.30
    SETDIJ:  cpu time    0.04: real time    0.03
     EDDAV:  cpu time   14.33: real time   14.33
 BZINTS: Fermi energy: -0.859094; 66.000000 electrons
         Band energy:-240.489237;  BLOECHL correction: -0.187391
       DOS:  cpu time    0.04: real time    0.04
    CHARGE:  cpu time    0.67: real time    0.67
    MIXING:  cpu time    0.01: real time    0.01
    --------------------------------------------
      LOOP:  cpu time   15.38: real time   15.38

 eigenvalue-minimisations  :  1448
 total energy-change (2. order) :-0.1151066E-01  (-0.1732344E-01)
 number of electron      65.9999923 magnetization 
 augmentation part       43.2633423 magnetization 

 Broyden mixing:
  rms(total) = 0.42148E-01    rms(broyden)= 0.42142E-01
  rms(prec ) = 0.47223E-01
  weight for this iteration     100.00

 eigenvalues of (default mixing * dielectric matrix)
  average eigenvalue GAMMA=   0.6084
  0.6084

 Free energy of the ion-electron system (eV)
  ---------------------------------------------------
  alpha Z        PSCENC =       278.63143507
  Ewald energy   TEWEN  =     14045.17107105
  -1/2 Hartree   DENC   =    -21838.27996519
  -exchange  EXHF       =         0.00000000
  -V(xc)+E(xc)   XCENC  =       255.76656415
  PAW double counting   =      6551.00990011    -7418.18479539
  entropy T*S    EENTRO =         0.00000000
  eigenvalues    EBANDS =      -240.48923749
  atomic energy  EATOM  =      8345.82850422
  ---------------------------------------------------
  free energy    TOTEN  =       -20.54652347 eV

  energy without entropy =      -20.54652347  energy(sigma->0) =      -20.54652347


--------------------------------------------------------------------------------------------------------




----------------------------------------- Iteration    6(   3)  ---------------------------------------


    POTLOK:  cpu time    0.30: real time    0.30
    SETDIJ:  cpu time    0.03: real time    0.03
     EDDAV:  cpu time   13.92: real time   13.92
 BZINTS: Fermi energy: -0.858153; 66.000000 electrons
         Band energy:-240.209879;  BLOECHL correction: -0.187139
       DOS:  cpu time    0.04: real time    0.04
    CHARGE:  cpu time    0.66: real time    0.66
    MIXING:  cpu time    0.01: real time    0.01
    --------------------------------------------
      LOOP:  cpu time   14.95: real time   14.96

 eigenvalue-minimisations  :  1392
 total energy-change (2. order) : 0.1095416E-02  (-0.3981967E-02)
 number of electron      65.9999923 magnetization 
 augmentation part       43.2567596 magnetization 

 Broyden mixing:
  rms(total) = 0.26632E-01    rms(broyden)= 0.26630E-01
  rms(prec ) = 0.29361E-01
  weight for this iteration     100.00

 eigenvalues of (default mixing * dielectric matrix)
  average eigenvalue GAMMA=   1.0158
  0.4254  1.6063

 Free energy of the ion-electron system (eV)
  ---------------------------------------------------
  alpha Z        PSCENC =       278.63143507
  Ewald energy   TEWEN  =     14045.17107105
  -1/2 Hartree   DENC   =    -21838.25137312
  -exchange  EXHF       =         0.00000000
  -V(xc)+E(xc)   XCENC  =       255.79208688
  PAW double counting   =      6553.60520151    -7421.11247425
  entropy T*S    EENTRO =         0.00000000
  eigenvalues    EBANDS =      -240.20987941
  atomic energy  EATOM  =      8345.82850422
  ---------------------------------------------------
  free energy    TOTEN  =       -20.54542805 eV

  energy without entropy =      -20.54542805  energy(sigma->0) =      -20.54542805


--------------------------------------------------------------------------------------------------------




----------------------------------------- Iteration    6(   4)  ---------------------------------------


    POTLOK:  cpu time    0.30: real time    0.30
    SETDIJ:  cpu time    0.03: real time    0.03
     EDDAV:  cpu time   13.44: real time   13.44
 BZINTS: Fermi energy: -0.842694; 66.000000 electrons
         Band energy:-238.703857;  BLOECHL correction: -0.186755
       DOS:  cpu time    0.04: real time    0.04
    CHARGE:  cpu time    0.61: real time    0.61
    MIXING:  cpu time    0.01: real time    0.01
    --------------------------------------------
      LOOP:  cpu time   14.43: real time   14.43

 eigenvalue-minimisations  :  1336
 total energy-change (2. order) : 0.8150133E-03  (-0.6381183E-03)
 number of electron      65.9999923 magnetization 
 augmentation part       43.2328686 magnetization 

 Broyden mixing:
  rms(total) = 0.12875E-01    rms(broyden)= 0.12875E-01
  rms(prec ) = 0.13799E-01
  weight for this iteration     100.00

 eigenvalues of (default mixing * dielectric matrix)
  average eigenvalue GAMMA=   1.2308
  2.6809  0.5996  0.4120

 Free energy of the ion-electron system (eV)
  ---------------------------------------------------
  alpha Z        PSCENC =       278.63143507
  Ewald energy   TEWEN  =     14045.17107105
  -1/2 Hartree   DENC   =    -21839.30985681
  -exchange  EXHF       =         0.00000000
  -V(xc)+E(xc)   XCENC  =       255.81941917
  PAW double counting   =      6557.79735781    -7425.77868695
  entropy T*S    EENTRO =         0.00000000
  eigenvalues    EBANDS =      -238.70385659
  atomic energy  EATOM  =      8345.82850422
  ---------------------------------------------------
  free energy    TOTEN  =       -20.54461304 eV

  energy without entropy =      -20.54461304  energy(sigma->0) =      -20.54461304


--------------------------------------------------------------------------------------------------------




----------------------------------------- Iteration    6(   5)  ---------------------------------------


    POTLOK:  cpu time    0.30: real time    0.30
    SETDIJ:  cpu time    0.03: real time    0.03
     EDDAV:  cpu time   13.40: real time   13.40
 BZINTS: Fermi energy: -0.846357; 66.000000 electrons
         Band energy:-239.187428;  BLOECHL correction: -0.187062
       DOS:  cpu time    0.04: real time    0.04
    CHARGE:  cpu time    0.62: real time    0.62
    MIXING:  cpu time    0.01: real time    0.01
    --------------------------------------------
      LOOP:  cpu time   14.40: real time   14.40

 eigenvalue-minimisations  :  1320
 total energy-change (2. order) : 0.1066306E-03  (-0.2534753E-03)
 number of electron      65.9999923 magnetization 
 augmentation part       43.2392897 magnetization 

 Broyden mixing:
  rms(total) = 0.48074E-02    rms(broyden)= 0.48071E-02
  rms(prec ) = 0.54086E-02
  weight for this iteration     100.00

 eigenvalues of (default mixing * dielectric matrix)
  average eigenvalue GAMMA=   1.1063
  2.5633  0.4084  0.7267  0.7267

 Free energy of the ion-electron system (eV)
  ---------------------------------------------------
  alpha Z        PSCENC =       278.63143507
  Ewald energy   TEWEN  =     14045.17107105
  -1/2 Hartree   DENC   =    -21838.86120547
  -exchange  EXHF       =         0.00000000
  -V(xc)+E(xc)   XCENC  =       255.79730627
  PAW double counting   =      6559.84756552    -7427.77175554
  entropy T*S    EENTRO =         0.00000000
  eigenvalues    EBANDS =      -239.18742752
  atomic energy  EATOM  =      8345.82850422
  ---------------------------------------------------
  free energy    TOTEN  =       -20.54450641 eV

  energy without entropy =      -20.54450641  energy(sigma->0) =      -20.54450641


--------------------------------------------------------------------------------------------------------




----------------------------------------- Iteration    6(   6)  ---------------------------------------


    POTLOK:  cpu time    0.30: real time    0.30
    SETDIJ:  cpu time    0.03: real time    0.03
     EDDAV:  cpu time   14.11: real time   14.11
 BZINTS: Fermi energy: -0.847871; 66.000000 electrons
         Band energy:-239.382511;  BLOECHL correction: -0.187145
       DOS:  cpu time    0.04: real time    0.04
    CHARGE:  cpu time    0.59: real time    0.59
    MIXING:  cpu time    0.01: real time    0.01
    --------------------------------------------
      LOOP:  cpu time   15.08: real time   15.09

 eigenvalue-minimisations  :  1416
 total energy-change (2. order) : 0.8682115E-04  (-0.5203753E-04)
 number of electron      65.9999923 magnetization 
 augmentation part       43.2446295 magnetization 

 Broyden mixing:
  rms(total) = 0.33811E-02    rms(broyden)= 0.33809E-02
  rms(prec ) = 0.37650E-02
  weight for this iteration     100.00

 eigenvalues of (default mixing * dielectric matrix)
  average eigenvalue GAMMA=   1.0086
  2.3648  1.1696  0.7270  0.4059  0.3759

 Free energy of the ion-electron system (eV)
  ---------------------------------------------------
  alpha Z        PSCENC =       278.63143507
  Ewald energy   TEWEN  =     14045.17107105
  -1/2 Hartree   DENC   =    -21838.76268934
  -exchange  EXHF       =         0.00000000
  -V(xc)+E(xc)   XCENC  =       255.78897679
  PAW double counting   =      6559.39215279    -7427.21135963
  entropy T*S    EENTRO =         0.00000000
  eigenvalues    EBANDS =      -239.38251053
  atomic energy  EATOM  =      8345.82850422
  ---------------------------------------------------
  free energy    TOTEN  =       -20.54441959 eV

  energy without entropy =      -20.54441959  energy(sigma->0) =      -20.54441959


--------------------------------------------------------------------------------------------------------




----------------------------------------- Iteration    6(   7)  ---------------------------------------


    POTLOK:  cpu time    0.30: real time    0.30
    SETDIJ:  cpu time    0.03: real time    0.03
     EDDAV:  cpu time   13.99: real time   13.99
 BZINTS: Fermi energy: -0.848242; 66.000000 electrons
         Band energy:-239.422377;  BLOECHL correction: -0.187213
       DOS:  cpu time    0.04: real time    0.04
    CHARGE:  cpu time    0.67: real time    0.67
    MIXING:  cpu time    0.01: real time    0.01
    --------------------------------------------
      LOOP:  cpu time   15.04: real time   15.04

 eigenvalue-minimisations  :  1400
 total energy-change (2. order) :-0.1613678E-04  (-0.1185895E-04)
 number of electron      65.9999923 magnetization 
 augmentation part       43.2467278 magnetization 

 Broyden mixing:
  rms(total) = 0.11114E-02    rms(broyden)= 0.11113E-02
  rms(prec ) = 0.12727E-02
  weight for this iteration     100.00

 eigenvalues of (default mixing * dielectric matrix)
  average eigenvalue GAMMA=   1.1573
  2.4881  1.7763  1.0826  0.7890  0.4127  0.3952

 Free energy of the ion-electron system (eV)
  ---------------------------------------------------
  alpha Z        PSCENC =       278.63143507
  Ewald energy   TEWEN  =     14045.17107105
  -1/2 Hartree   DENC   =    -21838.75464626
  -exchange  EXHF       =         0.00000000
  -V(xc)+E(xc)   XCENC  =       255.78677621
  PAW double counting   =      6559.21684799    -7427.00204687
  entropy T*S    EENTRO =         0.00000000
  eigenvalues    EBANDS =      -239.42237713
  atomic energy  EATOM  =      8345.82850422
  ---------------------------------------------------
  free energy    TOTEN  =       -20.54443572 eV

  energy without entropy =      -20.54443572  energy(sigma->0) =      -20.54443572


--------------------------------------------------------------------------------------------------------




----------------------------------------- Iteration    6(   8)  ---------------------------------------


    POTLOK:  cpu time    0.29: real time    0.30
    SETDIJ:  cpu time    0.04: real time    0.03
     EDDAV:  cpu time   14.08: real time   14.08
 BZINTS: Fermi energy: -0.846426; 66.000000 electrons
         Band energy:-239.243010;  BLOECHL correction: -0.187183
       DOS:  cpu time    0.04: real time    0.04
    CHARGE:  cpu time    0.64: real time    0.64
    MIXING:  cpu time    0.01: real time    0.01
    --------------------------------------------
      LOOP:  cpu time   15.11: real time   15.11

 eigenvalue-minimisations  :  1416
 total energy-change (2. order) :-0.3387359E-04  (-0.3984341E-05)
 number of electron      65.9999923 magnetization 
 augmentation part       43.2451210 magnetization 

 Broyden mixing:
  rms(total) = 0.52409E-03    rms(broyden)= 0.52405E-03
  rms(prec ) = 0.61019E-03
  weight for this iteration     100.00

 eigenvalues of (default mixing * dielectric matrix)
  average eigenvalue GAMMA=   1.1550
  2.3922  1.9385  1.0424  1.0424  0.8566  0.3972  0.4160

 Free energy of the ion-electron system (eV)
  ---------------------------------------------------
  alpha Z        PSCENC =       278.63143507
  Ewald energy   TEWEN  =     14045.17107105
  -1/2 Hartree   DENC   =    -21838.90254864
  -exchange  EXHF       =         0.00000000
  -V(xc)+E(xc)   XCENC  =       255.79010895
  PAW double counting   =      6559.46073617    -7427.28076599
  entropy T*S    EENTRO =         0.00000000
  eigenvalues    EBANDS =      -239.24301043
  atomic energy  EATOM  =      8345.82850422
  ---------------------------------------------------
  free energy    TOTEN  =       -20.54446960 eV

  energy without entropy =      -20.54446960  energy(sigma->0) =      -20.54446960


--------------------------------------------------------------------------------------------------------




----------------------------------------- Iteration    6(   9)  ---------------------------------------


    POTLOK:  cpu time    0.30: real time    0.30
    SETDIJ:  cpu time    0.03: real time    0.03
     EDDAV:  cpu time   13.42: real time   13.42
 BZINTS: Fermi energy: -0.846768; 66.000000 electrons
         Band energy:-239.285139;  BLOECHL correction: -0.187191
       DOS:  cpu time    0.04: real time    0.04
    CHARGE:  cpu time    0.59: real time    0.59
    MIXING:  cpu time    0.01: real time    0.01
    --------------------------------------------
      LOOP:  cpu time   14.39: real time   14.40

 eigenvalue-minimisations  :  1328
 total energy-change (2. order) : 0.1500201E-04  (-0.7090784E-06)
 number of electron      65.9999923 magnetization 
 augmentation part       43.2458308 magnetization 

 Broyden mixing:
  rms(total) = 0.27136E-03    rms(broyden)= 0.27132E-03
  rms(prec ) = 0.29445E-03
  weight for this iteration     100.00

 eigenvalues of (default mixing * dielectric matrix)
  average eigenvalue GAMMA=   1.2831
  2.6164  2.0488  2.0488  0.9169  0.9092  0.9092  0.3982  0.4175

 Free energy of the ion-electron system (eV)
  ---------------------------------------------------
  alpha Z        PSCENC =       278.63143507
  Ewald energy   TEWEN  =     14045.17107105
  -1/2 Hartree   DENC   =    -21838.87303063
  -exchange  EXHF       =         0.00000000
  -V(xc)+E(xc)   XCENC  =       255.78898404
  PAW double counting   =      6559.40381366    -7427.21009349
  entropy T*S    EENTRO =         0.00000000
  eigenvalues    EBANDS =      -239.28513851
  atomic energy  EATOM  =      8345.82850422
  ---------------------------------------------------
  free energy    TOTEN  =       -20.54445459 eV

  energy without entropy =      -20.54445459  energy(sigma->0) =      -20.54445459


--------------------------------------------------------------------------------------------------------




----------------------------------------- Iteration    6(  10)  ---------------------------------------


    POTLOK:  cpu time    0.30: real time    0.30
    SETDIJ:  cpu time    0.03: real time    0.03
     EDDAV:  cpu time    9.79: real time    9.79
 BZINTS: Fermi energy: -0.846509; 66.000000 electrons
         Band energy:-239.262666;  BLOECHL correction: -0.187187
       DOS:  cpu time    0.04: real time    0.04
    CHARGE:  cpu time    0.64: real time    0.64
    MIXING:  cpu time    0.02: real time    0.01
    --------------------------------------------
      LOOP:  cpu time   10.82: real time   10.82

 eigenvalue-minimisations  :   832
 total energy-change (2. order) :-0.3552888E-05  (-0.1401750E-06)
 number of electron      65.9999923 magnetization 
 augmentation part       43.2456664 magnetization 

 Broyden mixing:
  rms(total) = 0.81221E-04    rms(broyden)= 0.81207E-04
  rms(prec ) = 0.94155E-04
  weight for this iteration     100.00

 eigenvalues of (default mixing * dielectric matrix)
  average eigenvalue GAMMA=   1.3197
  2.6471  2.4079  1.6118  1.6118  0.3982  0.4177  0.8638  0.8638  1.0553

 Free energy of the ion-electron system (eV)
  ---------------------------------------------------
  alpha Z        PSCENC =       278.63143507
  Ewald energy   TEWEN  =     14045.17107105
  -1/2 Hartree   DENC   =    -21838.89135604
  -exchange  EXHF       =         0.00000000
  -V(xc)+E(xc)   XCENC  =       255.78945732
  PAW double counting   =      6559.42806017    -7427.23896351
  entropy T*S    EENTRO =         0.00000000
  eigenvalues    EBANDS =      -239.26266642
  atomic energy  EATOM  =      8345.82850422
  ---------------------------------------------------
  free energy    TOTEN  =       -20.54445815 eV

  energy without entropy =      -20.54445815  energy(sigma->0) =      -20.54445815


--------------------------------------------------------------------------------------------------------




----------------------------------------- Iteration    6(  11)  ---------------------------------------


    POTLOK:  cpu time    0.30: real time    0.30
    SETDIJ:  cpu time    0.03: real time    0.03
     EDDAV:  cpu time    9.47: real time    9.47
 BZINTS: Fermi energy: -0.846346; 66.000000 electrons
         Band energy:-239.248412;  BLOECHL correction: -0.187185
       DOS:  cpu time    0.04: real time    0.04
    CHARGE:  cpu time    0.58: real time    0.58
    MIXING:  cpu time    0.02: real time    0.02
    --------------------------------------------
      LOOP:  cpu time   10.44: real time   10.44

 eigenvalue-minimisations  :   784
 total energy-change (2. order) :-0.1007940E-05  (-0.2634427E-07)
 number of electron      65.9999923 magnetization 
 augmentation part       43.2455693 magnetization 

 Broyden mixing:
  rms(total) = 0.65612E-04    rms(broyden)= 0.65609E-04
  rms(prec ) = 0.73389E-04
  weight for this iteration     100.00

 eigenvalues of (default mixing * dielectric matrix)
  average eigenvalue GAMMA=   1.3341
  2.5591  2.5591  1.8237  1.8237  0.4177  0.3982  1.1004  0.9066  0.9066  0.8455

 Free energy of the ion-electron system (eV)
  ---------------------------------------------------
  alpha Z        PSCENC =       278.63143507
  Ewald energy   TEWEN  =     14045.17107105
  -1/2 Hartree   DENC   =    -21838.90367553
  -exchange  EXHF       =         0.00000000
  -V(xc)+E(xc)   XCENC  =       255.78964099
  PAW double counting   =      6559.42711423    -7427.24013672
  entropy T*S    EENTRO =         0.00000000
  eigenvalues    EBANDS =      -239.24841247
  atomic energy  EATOM  =      8345.82850422
  ---------------------------------------------------
  free energy    TOTEN  =       -20.54445916 eV

  energy without entropy =      -20.54445916  energy(sigma->0) =      -20.54445916


--------------------------------------------------------------------------------------------------------




----------------------------------------- Iteration    6(  12)  ---------------------------------------


    POTLOK:  cpu time    0.30: real time    0.30
    SETDIJ:  cpu time    0.03: real time    0.03
     EDDAV:  cpu time    8.66: real time    8.66
 BZINTS: Fermi energy: -0.846339; 66.000000 electrons
         Band energy:-239.249389;  BLOECHL correction: -0.187187
       DOS:  cpu time    0.04: real time    0.04
    --------------------------------------------
      LOOP:  cpu time    9.03: real time    9.03

 eigenvalue-minimisations  :   680
 total energy-change (2. order) :-0.2124725E-06  (-0.1090396E-07)
 number of electron      65.9999923 magnetization 
 augmentation part       43.2455693 magnetization 

 Free energy of the ion-electron system (eV)
  ---------------------------------------------------
  alpha Z        PSCENC =       278.63143507
  Ewald energy   TEWEN  =     14045.17107105
  -1/2 Hartree   DENC   =    -21838.90351868
  -exchange  EXHF       =         0.00000000
  -V(xc)+E(xc)   XCENC  =       255.78951630
  PAW double counting   =      6559.42092307    -7427.23300154
  entropy T*S    EENTRO =         0.00000000
  eigenvalues    EBANDS =      -239.24938885
  atomic energy  EATOM  =      8345.82850422
  ---------------------------------------------------
  free energy    TOTEN  =       -20.54445937 eV

  energy without entropy =      -20.54445937  energy(sigma->0) =      -20.54445937


--------------------------------------------------------------------------------------------------------




 average (electrostatic) potential at core
  the test charge radii are     1.0053
  (the norm of the test charge is              1.0000)
       1 -44.1275       2 -44.4903       3 -44.4479       4 -44.4478       5 -44.4904
       6 -44.1277
 
 
 
 E-fermi :  -0.8463     XC(G=0):  -6.6053     alpha+bet : -4.1343


 k-point   1 :       0.0000    0.0000    0.0000
  band No.  band energies     occupation 
      1      -9.4790      2.00000
      2      -8.1256      2.00000
      3      -6.1051      2.00000
      4      -5.3407      2.00000
      5      -4.9946      2.00000
      6      -4.9281      2.00000
      7      -4.5840      2.00000
      8      -4.3958      2.00000
      9      -4.1331      2.00000
     10      -4.1242      2.00000
     11      -4.1064      2.00000
     12      -3.8110      2.00000
     13      -3.7679      2.00000
     14      -3.6776      2.00000
     15      -3.6324      2.00000
     16      -3.5002      2.00000
     17      -3.4787      2.00000
     18      -3.4045      2.00000
     19      -3.2098      2.00000
     20      -3.1823      2.00000
     21      -3.1152      2.00000
     22      -3.1065      2.00000
     23      -2.9966      2.00000
     24      -2.9418      2.00000
     25      -2.8755      2.00000
     26      -2.8356      2.00000
     27      -2.6442      2.00000
     28      -2.5485      2.00000
     29      -2.5138      2.00000
     30      -2.4267      2.00000
     31      -2.3297      2.00000
     32      -2.2397      2.00000
     33      -2.2008      2.00000
     34      -1.3208      2.16120
     35       0.8414      0.00000
     36       1.6480      0.00000
     37       3.0607      0.00000
     38       3.3613      0.00000
     39       3.5996      0.00000
     40       5.6051      0.00000

 k-point   2 :       0.1429    0.0000    0.0000
  band No.  band energies     occupation 
      1      -9.2394      2.00000
      2      -7.9109      2.00000
      3      -6.0068      2.00000
      4      -5.3376      2.00000
      5      -4.9718      2.00000
      6      -4.9543      2.00000
      7      -4.7393      2.00000
      8      -4.3742      2.00000
      9      -4.0915      2.00000
     10      -4.0311      2.00000
     11      -4.0054      2.00000
     12      -3.8309      2.00000
     13      -3.6407      2.00000
     14      -3.6302      2.00000
     15      -3.5669      2.00000
     16      -3.5476      2.00000
     17      -3.4463      2.00000
     18      -3.4346      2.00000
     19      -3.3951      2.00000
     20      -3.1977      2.00000
     21      -3.1757      2.00000
     22      -3.0222      2.00000
     23      -2.9891      2.00000
     24      -2.9338      2.00000
     25      -2.8725      2.00000
     26      -2.8070      2.00000
     27      -2.6643      2.00000
     28      -2.5883      2.00000
     29      -2.4723      2.00000
     30      -2.4332      2.00000
     31      -2.3126      2.00000
     32      -2.2391      2.00000
     33      -2.2379      2.00000
     34      -1.2173      2.18822
     35       0.2995     -0.00458
     36       0.9566      0.00000
     37       2.0031      0.00000
     38       3.1326      0.00000
     39       3.5850      0.00000
     40       4.4335      0.00000

 k-point   3 :       0.2857    0.0000    0.0000
  band No.  band energies     occupation 
      1      -8.5396      2.00000
      2      -7.3041      2.00000
      3      -5.8044      2.00000
      4      -5.4846      2.00000
      5      -5.1151      2.00000
      6      -5.0898      2.00000
      7      -4.6989      2.00000
      8      -4.2502      2.00000
      9      -3.9958      2.00000
     10      -3.9902      2.00000
     11      -3.9234      2.00000
     12      -3.7994      2.00000
     13      -3.6323      2.00000
     14      -3.6044      2.00000
     15      -3.5833      2.00000
     16      -3.5300      2.00000
     17      -3.4982      2.00000
     18      -3.4040      2.00000
     19      -3.3001      2.00000
     20      -3.1933      2.00000
     21      -3.0883      2.00000
     22      -3.0593      2.00000
     23      -3.0419      2.00000
     24      -2.8689      2.00000
     25      -2.8131      2.00000
     26      -2.7563      2.00000
     27      -2.7353      2.00000
     28      -2.6476      2.00000
     29      -2.4279      2.00000
     30      -2.3751      2.00000
     31      -2.3020      2.00000
     32      -2.2937      2.00000
     33      -2.2632      2.00000
     34      -1.5486      2.15094
     35      -0.8686      0.66745
     36      -0.2777     -0.00221
     37       1.3505      0.00000
     38       1.6890      0.00000
     39       4.1589      0.00000
     40       4.1833      0.00000

 k-point   4 :       0.4286    0.0000    0.0000
  band No.  band energies     occupation 
      1      -7.4587      2.00000
      2      -6.4715      2.00000
      3      -6.2269      2.00000
      4      -5.7881      2.00000
      5      -5.3357      2.00000
      6      -5.2905      2.00000
      7      -4.4695      2.00000
      8      -4.2116      2.00000
      9      -4.0221      2.00000
     10      -3.9287      2.00000
     11      -3.8361      2.00000
     12      -3.8085      2.00000
     13      -3.6778      2.00000
     14      -3.6687      2.00000
     15      -3.6160      2.00000
     16      -3.5889      2.00000
     17      -3.4277      2.00000
     18      -3.4276      2.00000
     19      -3.3840      2.00000
     20      -3.3076      2.00000
     21      -3.0921      2.00000
     22      -2.9674      2.00000
     23      -2.8413      2.00000
     24      -2.8273      2.00000
     25      -2.6531      2.00000
     26      -2.6464      2.00000
     27      -2.5611      2.00000
     28      -2.4506      2.00000
     29      -2.3897      2.00000
     30      -2.3703      2.00000
     31      -2.3641      2.00000
     32      -2.3212      2.00000
     33      -2.3002      2.00000
     34      -2.1922      2.00000
     35      -1.8053      2.11914
     36      -0.8679      0.21270
     37       0.4743      0.00000
     38       1.1728      0.00000
     39       4.1939      0.00000
     40       5.1401      0.00000

 k-point   5 :       0.0000    0.1429    0.0000
  band No.  band energies     occupation 
      1      -8.9986      2.00000
      2      -7.6766      2.00000
      3      -5.7743      2.00000
      4      -5.1463      2.00000
      5      -4.8411      2.00000
      6      -4.7483      2.00000
      7      -4.3406      2.00000
      8      -4.3353      2.00000
      9      -4.3326      2.00000
     10      -4.2867      2.00000
     11      -4.2318      2.00000
     12      -3.9675      2.00000
     13      -3.9496      2.00000
     14      -3.7396      2.00000
     15      -3.6111      2.00000
     16      -3.4967      2.00000
     17      -3.4956      2.00000
     18      -3.3640      2.00000
     19      -3.2327      2.00000
     20      -3.2028      2.00000
     21      -3.1128      2.00000
     22      -2.9592      2.00000
     23      -2.9223      2.00000
     24      -2.9002      2.00000
     25      -2.8737      2.00000
     26      -2.8441      2.00000
     27      -2.5824      2.00000
     28      -2.5689      2.00000
     29      -2.5522      2.00000
     30      -2.4571      2.00000
     31      -2.4286      2.00000
     32      -2.2230      2.00000
     33      -2.1967      2.00000
     34      -0.9404      1.14925
     35       1.3019      0.00000
     36       2.5713      0.00000
     37       3.5004      0.00000
     38       3.8271      0.00000
     39       4.3044      0.00000
     40       6.0683      0.00000

 k-point   6 :       0.1429    0.1429    0.0000
  band No.  band energies     occupation 
      1      -8.7655      2.00000
      2      -7.4674      2.00000
      3      -5.6710      2.00000
      4      -5.1226      2.00000
      5      -4.8056      2.00000
      6      -4.7576      2.00000
      7      -4.5728      2.00000
      8      -4.3028      2.00000
      9      -4.2440      2.00000
     10      -4.2382      2.00000
     11      -4.1438      2.00000
     12      -3.9737      2.00000
     13      -3.7673      2.00000
     14      -3.7301      2.00000
     15      -3.5968      2.00000
     16      -3.5837      2.00000
     17      -3.4893      2.00000
     18      -3.3897      2.00000
     19      -3.3144      2.00000
     20      -3.2216      2.00000
     21      -3.0971      2.00000
     22      -3.0939      2.00000
     23      -2.9743      2.00000
     24      -2.9683      2.00000
     25      -2.8450      2.00000
     26      -2.6751      2.00000
     27      -2.6525      2.00000
     28      -2.5621      2.00000
     29      -2.5233      2.00000
     30      -2.4446      2.00000
     31      -2.4012      2.00000
     32      -2.3143      2.00000
     33      -2.1516      2.00000
     34      -0.7535      0.66238
     35       1.1049     -0.00327
     36       1.4739      0.00000
     37       2.5905      0.00000
     38       3.6236      0.00000
     39       4.0511      0.00000
     40       4.8793      0.00000

 k-point   7 :       0.2857    0.1429    0.0000
  band No.  band energies     occupation 
      1      -8.0873      2.00000
      2      -6.8802      2.00000
      3      -5.4689      2.00000
      4      -5.2113      2.00000
      5      -4.8793      2.00000
      6      -4.8392      2.00000
      7      -4.6044      2.00000
      8      -4.2539      2.00000
      9      -4.1455      2.00000
     10      -4.0903      2.00000
     11      -4.0354      2.00000
     12      -3.9622      2.00000
     13      -3.7321      2.00000
     14      -3.7244      2.00000
     15      -3.5877      2.00000
     16      -3.5218      2.00000
     17      -3.4479      2.00000
     18      -3.4028      2.00000
     19      -3.3777      2.00000
     20      -3.3290      2.00000
     21      -3.1881      2.00000
     22      -3.1493      2.00000
     23      -3.1238      2.00000
     24      -3.0433      2.00000
     25      -2.7979      2.00000
     26      -2.6924      2.00000
     27      -2.6801      2.00000
     28      -2.5632      2.00000
     29      -2.4720      2.00000
     30      -2.4470      2.00000
     31      -2.3823      2.00000
     32      -2.3688      2.00000
     33      -1.9192      2.00000
     34      -0.8541      1.07971
     35      -0.1757     -0.04864
     36       0.3582     -0.00350
     37       1.9055      0.00000
     38       2.2147      0.00000
     39       4.5818      0.00000
     40       4.6238      0.00000

 k-point   8 :       0.4286    0.1429    0.0000
  band No.  band energies     occupation 
      1      -7.0506      2.00000
      2      -6.1001      2.00000
      3      -5.8799      2.00000
      4      -5.4717      2.00000
      5      -5.0207      2.00000
      6      -5.0118      2.00000
      7      -4.4122      2.00000
      8      -4.2022      2.00000
      9      -4.0420      2.00000
     10      -4.0408      2.00000
     11      -3.9658      2.00000
     12      -3.9051      2.00000
     13      -3.7574      2.00000
     14      -3.7302      2.00000
     15      -3.7164      2.00000
     16      -3.6144      2.00000
     17      -3.4856      2.00000
     18      -3.4086      2.00000
     19      -3.2650      2.00000
     20      -3.2493      2.00000
     21      -3.1759      2.00000
     22      -3.1625      2.00000
     23      -3.0846      2.00000
     24      -3.0670      2.00000
     25      -2.8418      2.00000
     26      -2.8144      2.00000
     27      -2.6415      2.00000
     28      -2.6389      2.00000
     29      -2.4845      2.00000
     30      -2.4625      2.00000
     31      -2.3959      2.00000
     32      -2.1418      2.00000
     33      -1.9797      2.00000
     34      -1.4390      1.91010
     35      -0.9778      1.10157
     36       0.1104     -0.07878
     37       0.9108      0.00000
     38       1.8115      0.00000
     39       4.5359      0.00000
     40       5.5147      0.00000

 k-point   9 :       0.0000    0.2857    0.0000
  band No.  band energies     occupation 
      1      -7.6519      2.00000
      2      -6.5347      2.00000
      3      -5.3519      2.00000
      4      -4.8476      2.00000
      5      -4.7178      2.00000
      6      -4.6986      2.00000
      7      -4.5606      2.00000
      8      -4.5261      2.00000
      9      -4.4709      2.00000
     10      -4.3418      2.00000
     11      -4.3151      2.00000
     12      -3.9116      2.00000
     13      -3.8527      2.00000
     14      -3.7604      2.00000
     15      -3.5233      2.00000
     16      -3.4638      2.00000
     17      -3.3723      2.00000
     18      -3.1827      2.00000
     19      -3.1432      2.00000
     20      -3.0798      2.00000
     21      -2.9952      2.00000
     22      -2.9474      2.00000
     23      -2.8794      2.00000
     24      -2.7671      2.00000
     25      -2.6516      2.00000
     26      -2.6365      2.00000
     27      -2.5048      2.00000
     28      -2.4943      2.00000
     29      -2.4827      2.00000
     30      -2.4811      2.00000
     31      -2.3093      2.00000
     32      -2.2811      2.00000
     33      -1.9196      2.05952
     34       0.1454     -0.07522
     35       2.4831      0.00000
     36       4.1427      0.00000
     37       4.7299      0.00000
     38       4.8315      0.00000
     39       5.0376      0.00000
     40       5.8451      0.00000

 k-point  10 :       0.1429    0.2857    0.0000
  band No.  band energies     occupation 
      1      -7.4521      2.00000
      2      -6.3549      2.00000
      3      -5.2273      2.00000
      4      -4.8020      2.00000
      5      -4.7067      2.00000
      6      -4.6757      2.00000
      7      -4.5600      2.00000
      8      -4.4777      2.00000
      9      -4.4479      2.00000
     10      -4.2877      2.00000
     11      -4.2605      2.00000
     12      -3.9331      2.00000
     13      -3.8479      2.00000
     14      -3.7702      2.00000
     15      -3.6236      2.00000
     16      -3.4995      2.00000
     17      -3.4099      2.00000
     18      -3.3181      2.00000
     19      -3.1647      2.00000
     20      -3.0652      2.00000
     21      -2.9795      2.00000
     22      -2.9189      2.00000
     23      -2.9039      2.00000
     24      -2.8411      2.00000
     25      -2.7945      2.00000
     26      -2.6335      2.00000
     27      -2.5414      2.00000
     28      -2.5379      2.00000
     29      -2.4544      2.00000
     30      -2.3802      2.00000
     31      -2.3442      2.00000
     32      -2.3342      2.00000
     33      -1.6400      1.93214
     34       0.4437     -0.04624
     35       2.7210      0.00000
     36       2.7229      0.00000
     37       4.0992      0.00000
     38       4.5489      0.00000
     39       5.1040      0.00000
     40       5.3227      0.00000

 k-point  11 :       0.2857    0.2857    0.0000
  band No.  band energies     occupation 
      1      -6.8923      2.00000
      2      -5.8721      2.00000
      3      -4.9258      2.00000
      4      -4.8972      2.00000
      5      -4.6882      2.00000
      6      -4.6816      2.00000
      7      -4.4260      2.00000
      8      -4.4064      2.00000
      9      -4.2858      2.00000
     10      -4.1743      2.00000
     11      -4.1268      2.00000
     12      -3.9763      2.00000
     13      -3.8225      2.00000
     14      -3.7941      2.00000
     15      -3.7455      2.00000
     16      -3.6511      2.00000
     17      -3.5080      2.00000
     18      -3.4498      2.00000
     19      -3.1955      2.00000
     20      -3.1138      2.00000
     21      -3.0533      2.00000
     22      -3.0390      2.00000
     23      -2.9893      2.00000
     24      -2.9727      2.00000
     25      -2.7474      2.00000
     26      -2.7106      2.00000
     27      -2.6373      2.00000
     28      -2.5362      2.00000
     29      -2.4738      2.00000
     30      -2.4307      2.00000
     31      -2.3865      2.00000
     32      -2.1462      2.07065
     33      -0.9169      1.35597
     34       0.4258     -0.07742
     35       1.2579     -0.01646
     36       1.7157      0.00000
     37       3.3810      0.00000
     38       3.6817      0.00000
     39       5.4315      0.00000
     40       5.8270      0.00000

 k-point  12 :       0.4286    0.2857    0.0000
  band No.  band energies     occupation 
      1      -6.1184      2.00000
      2      -5.4391      2.00000
      3      -5.2036      2.00000
      4      -4.8555      2.00000
      5      -4.5907      2.00000
      6      -4.5822      2.00000
      7      -4.3334      2.00000
      8      -4.2614      2.00000
      9      -4.1576      2.00000
     10      -4.1294      2.00000
     11      -4.0978      2.00000
     12      -3.9288      2.00000
     13      -3.8162      2.00000
     14      -3.7840      2.00000
     15      -3.7625      2.00000
     16      -3.7455      2.00000
     17      -3.5918      2.00000
     18      -3.5292      2.00000
     19      -3.2805      2.00000
     20      -3.2128      2.00000
     21      -3.1160      2.00000
     22      -3.0901      2.00000
     23      -3.0634      2.00000
     24      -3.0410      2.00000
     25      -2.7894      2.00000
     26      -2.7756      2.00000
     27      -2.6966      2.00000
     28      -2.6060      2.00000
     29      -2.4829      2.00000
     30      -2.4730      2.00000
     31      -2.2177      2.00000
     32      -1.4913      2.04943
     33      -1.1941      1.60893
     34      -0.3316      0.05471
     35       0.3648     -0.08583
     36       1.6860      0.00000
     37       2.3923      0.00000
     38       3.4970      0.00000
     39       5.6201      0.00000
     40       6.5424      0.00000

 k-point  13 :       0.0000    0.4286    0.0000
  band No.  band energies     occupation 
      1      -5.9013      2.00000
      2      -5.6234      2.00000
      3      -5.3908      2.00000
      4      -4.9625      2.00000
      5      -4.9529      2.00000
      6      -4.9442      2.00000
      7      -4.5920      2.00000
      8      -4.5881      2.00000
      9      -4.5190      2.00000
     10      -4.4923      2.00000
     11      -4.1298      2.00000
     12      -4.0715      2.00000
     13      -4.0469      2.00000
     14      -3.7935      2.00000
     15      -3.4640      2.00000
     16      -3.3205      2.00000
     17      -3.1019      2.00000
     18      -3.0385      2.00000
     19      -2.9270      2.00000
     20      -2.7890      2.00000
     21      -2.6988      2.00000
     22      -2.6956      2.00000
     23      -2.5696      2.00000
     24      -2.4661      2.00000
     25      -2.4306      2.00000
     26      -2.4280      2.00000
     27      -2.4105      2.00000
     28      -2.3433      2.00000
     29      -2.3391      2.00000
     30      -2.2706      2.00000
     31      -1.8157      2.00000
     32      -1.5789      2.00000
     33      -0.4788      0.33469
     34       0.4288      0.00000
     35       1.1870      0.00000
     36       1.3856      0.00000
     37       4.0488      0.00000
     38       4.4814      0.00000
     39       6.9896      0.00000
     40       7.4587      0.00000

 k-point  14 :       0.1429    0.4286    0.0000
  band No.  band energies     occupation 
      1      -5.8320      2.00000
      2      -5.5066      2.00000
      3      -5.2804      2.00000
      4      -4.9526      2.00000
      5      -4.9383      2.00000
      6      -4.9250      2.00000
      7      -4.7024      2.00000
      8      -4.6298      2.00000
      9      -4.3270      2.00000
     10      -4.3208      2.00000
     11      -4.1027      2.00000
     12      -4.0413      2.00000
     13      -3.9035      2.00000
     14      -3.7611      2.00000
     15      -3.4832      2.00000
     16      -3.4642      2.00000
     17      -3.1747      2.00000
     18      -3.1210      2.00000
     19      -2.8951      2.00000
     20      -2.8745      2.00000
     21      -2.8068      2.00000
     22      -2.7495      2.00000
     23      -2.6422      2.00000
     24      -2.5459      2.00000
     25      -2.4957      2.00000
     26      -2.4366      2.00000
     27      -2.3871      2.00000
     28      -2.3831      2.00000
     29      -2.3375      2.00000
     30      -2.3158      2.00000
     31      -1.8266      2.00000
     32      -1.4282      2.00000
     33      -0.0376      0.03393
     34       0.5023      0.00000
     35       1.4087      0.00000
     36       1.8024      0.00000
     37       4.2377      0.00000
     38       4.7242      0.00000
     39       5.4826      0.00000
     40       6.5884      0.00000

 k-point  15 :       0.2857    0.4286    0.0000
  band No.  band energies     occupation 
      1      -5.6934      2.00000
      2      -5.2439      2.00000
      3      -5.1273      2.00000
      4      -5.0023      2.00000
      5      -4.8625      2.00000
      6      -4.8389      2.00000
      7      -4.4745      2.00000
      8      -4.4681      2.00000
      9      -4.2385      2.00000
     10      -4.1968      2.00000
     11      -3.8764      2.00000
     12      -3.8532      2.00000
     13      -3.8111      2.00000
     14      -3.7686      2.00000
     15      -3.6299      2.00000
     16      -3.5888      2.00000
     17      -3.3615      2.00000
     18      -3.3040      2.00000
     19      -3.1017      2.00000
     20      -3.0110      2.00000
     21      -2.9207      2.00000
     22      -2.8318      2.00000
     23      -2.7201      2.00000
     24      -2.6095      2.00000
     25      -2.5788      2.00000
     26      -2.5123      2.00000
     27      -2.3964      2.00000
     28      -2.3617      2.00000
     29      -2.3268      2.00000
     30      -2.2987      2.00000
     31      -1.8609      2.00000
     32      -0.8958      1.58648
     33       0.4614     -0.13064
     34       0.9223      0.00000
     35       1.8241      0.00000
     36       2.7980      0.00000
     37       3.6036      0.00000
     38       4.5181      0.00000
     39       4.7950      0.00000
     40       5.4040      0.00000

 k-point  16 :       0.4286    0.4286    0.0000
  band No.  band energies     occupation 
      1      -5.5575      2.00000
      2      -5.3948      2.00000
      3      -4.9093      2.00000
      4      -4.8195      2.00000
      5      -4.6774      2.00000
      6      -4.6406      2.00000
      7      -4.2856      2.00000
      8      -4.1921      2.00000
      9      -4.1534      2.00000
     10      -4.1448      2.00000
     11      -4.0120      2.00000
     12      -3.9428      2.00000
     13      -3.8042      2.00000
     14      -3.7757      2.00000
     15      -3.6127      2.00000
     16      -3.5912      2.00000
     17      -3.5348      2.00000
     18      -3.5061      2.00000
     19      -3.1745      2.00000
     20      -3.1421      2.00000
     21      -2.8849      2.00000
     22      -2.8290      2.00000
     23      -2.7496      2.00000
     24      -2.7173      2.00000
     25      -2.5518      2.00000
     26      -2.4601      2.00000
     27      -2.4187      2.00000
     28      -2.4061      2.00000
     29      -2.3083      2.00000
     30      -2.2869      2.00000
     31      -1.5145      2.00000
     32      -0.4521      0.20949
     33       0.0790     -0.10497
     34       1.2262      0.00000
     35       2.2305      0.00000
     36       3.2929      0.00000
     37       3.5569      0.00000
     38       4.1373      0.00000
     39       4.5601      0.00000
     40       4.7462      0.00000


--------------------------------------------------------------------------------------------------------


 soft charge-density along one line, spin component           1
         0         1         2         3         4         5         6         7         8         9
 total charge-density along one line
 
 pseudopotential strength for first ion, spin component:           1
 -9.546   0.000   0.000   0.000   0.000   1.146   0.000   0.000
  0.000  -9.515   0.000   0.000   0.000   0.000   1.131   0.000
  0.000   0.000  -9.512   0.000  -0.013   0.000   0.000   1.129
  0.000   0.000   0.000  -9.505   0.000   0.000   0.000   0.000
  0.000   0.000  -0.013   0.000  -9.538   0.000   0.000   0.006
  1.146   0.000   0.000   0.000   0.000   1.049   0.000   0.000
  0.000   1.131   0.000   0.000   0.000   0.000   1.056   0.000
  0.000   0.000   1.129   0.000   0.006   0.000   0.000   1.058
  0.000   0.000   0.000   1.126   0.000   0.000   0.000   0.000
  0.000   0.000   0.006   0.000   1.143   0.000   0.000  -0.003
  0.000   0.000  -0.006   0.000  -0.003   0.000   0.000   0.003
  0.000   0.000   0.000   0.000   0.000   0.000   0.000   0.000
  0.000  -0.017   0.000   0.000   0.000   0.000   0.009   0.000
  0.000   0.000  -0.018   0.000   0.001   0.000   0.000   0.010
  0.000   0.000   0.000  -0.015   0.000   0.000   0.000   0.000
  0.000   0.010   0.000   0.000   0.000   0.000  -0.005   0.000
  0.000   0.000   0.011   0.000  -0.001   0.000   0.000  -0.005
  0.000   0.000   0.000   0.009   0.000   0.000   0.000   0.000
 total augmentation occupancy for first ion, spin component:           1
  1.916   0.000   0.000   0.000   0.000  -0.011   0.000   0.000   0.000   0.000   0.000   0.000   0.000   0.000   0.000   0.000
  0.000   1.932   0.000   0.000   0.000   0.000  -0.050   0.000   0.000   0.000   0.000   0.000  -0.003   0.000   0.000  -0.009
  0.000   0.000   1.931   0.000  -0.003   0.000   0.000  -0.028   0.000   0.015   0.016   0.029   0.000   0.025   0.000   0.000
  0.000   0.000   0.000   1.931   0.000   0.000   0.000   0.000  -0.044   0.000   0.000   0.000   0.000   0.000   0.039   0.000
  0.000   0.000  -0.003   0.000   1.919   0.000   0.000   0.015   0.000  -0.026  -0.006   0.015   0.000   0.022   0.000   0.000
 -0.011   0.000   0.000   0.000   0.000   0.049   0.000   0.000   0.000   0.000   0.000   0.000   0.000   0.000   0.000   0.000
  0.000  -0.050   0.000   0.000   0.000   0.000   0.047   0.000   0.000   0.000   0.000   0.000   0.045   0.000   0.000  -0.003
  0.000   0.000  -0.028   0.000   0.015   0.000   0.000   0.054   0.000   0.008  -0.053   0.002   0.000   0.042   0.000   0.000
  0.000   0.000   0.000  -0.044   0.000   0.000   0.000   0.000   0.057   0.000   0.000   0.000   0.000   0.000   0.061   0.000
  0.000   0.000   0.015   0.000  -0.026   0.000   0.000   0.008   0.000   0.056  -0.025   0.007   0.000   0.008   0.000   0.000
  0.000   0.000   0.016   0.000  -0.006   0.000   0.000  -0.053   0.000  -0.025   1.254  -0.273   0.000   0.126   0.000   0.000
  0.000   0.000   0.029   0.000   0.015   0.000   0.000   0.002   0.000   0.007  -0.273   0.104   0.000  -0.060   0.000   0.000
  0.000  -0.003   0.000   0.000   0.000   0.000   0.045   0.000   0.000   0.000   0.000   0.000   0.161   0.000   0.000  -0.010
  0.000   0.000   0.025   0.000   0.022   0.000   0.000   0.042   0.000   0.008   0.126  -0.060   0.000   0.089   0.000   0.000
  0.000   0.000   0.000   0.039   0.000   0.000   0.000   0.000   0.061   0.000   0.000   0.000   0.000   0.000   0.129   0.000
  0.000  -0.009   0.000   0.000   0.000   0.000  -0.003   0.000   0.000   0.000   0.000   0.000  -0.010   0.000   0.000   0.001
  0.000   0.000  -0.011   0.000  -0.001   0.000   0.000  -0.002   0.000   0.000  -0.020   0.007   0.000  -0.007   0.000   0.000
  0.000   0.000   0.000  -0.012   0.000   0.000   0.000   0.000  -0.004   0.000   0.000   0.000   0.000   0.000  -0.008   0.000


------------------------ aborting loop because EDIFF is reached ----------------------------------------


    CHARGE:  cpu time    0.68: real time    0.69
    FORLOC:  cpu time    0.02: real time    0.02
    FORNL :  cpu time    5.54: real time    5.54
    STRESS:  cpu time    8.63: real time    8.63
    FORCOR:  cpu time    0.30: real time    0.30
    FORHAR:  cpu time    0.09: real time    0.09
    MIXING:  cpu time    0.02: real time    0.02

  FORCE on cell =-STRESS in cart. coord.  units (eV):
  Direction    XX          YY          ZZ          XY          YZ          ZX
  --------------------------------------------------------------------------------------
  Alpha Z   278.63144   278.63144   278.63144
  Ewald   18263.76255 18421.62609-22640.22086     0.00000     0.00000     0.00000
  Hartree 20486.19070 20593.14689-19240.42327     0.00000     0.00000     0.00000
  E(xc)    -375.26330  -375.09173  -375.86996     0.00000     0.00000     0.00000
  Local  -39237.88978-39502.69976 41390.43252     0.00000     0.00000     0.00000
  n-local  -223.34129  -222.52430  -223.96715     3.14061     0.00000     0.00000
  augment   336.61656   336.58955   338.12020    -0.00001    -0.00001    -0.00002
  Kinetic   470.00087   469.11412   472.94279     4.71320     0.00000     0.00000
  Fock        0.00000     0.00000     0.00000     0.00000     0.00000     0.00000
  -------------------------------------------------------------------------------------
  Total      -1.29225    -1.20770    -0.35430     0.00000     0.00000     0.00000
  in kB     -12.54244   -11.72179    -3.43877     0.00000     0.00000     0.00000
  external pressure =       -9.23 kB  Pullay stress =        0.00 kB


 VOLUME and BASIS-vectors are now :
 -----------------------------------------------------------------------------
  energy-cutoff  :      415.00
  volume of cell :      165.07
      direct lattice vectors                 reciprocal lattice vectors
     3.631354857  0.000000000  0.000000000     0.275379311  0.000000000  0.000000000
     0.000000000  2.567755644  0.000000000     0.000000000  0.389445157  0.000000000
     0.000000000  0.000000000 17.703266931     0.000000000  0.000000000  0.056486749

  length of vectors
     3.631354857  2.567755644 17.703266931     0.275379311  0.389445157  0.056486749


 FORCES acting on ions
    electron-ion (+dipol)            ewald-force                    non-local-force                 convergence-correction
 -----------------------------------------------------------------------------------------------
   -.194E-13 0.462E-13 0.311E+04   -.241E-13 0.178E-13 -.310E+04   0.000E+00 0.000E+00 -.384E+01   0.200E-13 0.169E-13 0.223E-03
   -.436E-13 -.145E-17 0.621E+03   0.356E-13 0.893E-14 -.621E+03   0.000E+00 0.000E+00 -.574E+00   0.937E-14 0.597E-14 0.204E-04
   -.413E-13 -.531E-13 -.205E+04   -.239E-13 0.254E-13 0.205E+04   0.000E+00 0.000E+00 -.103E+01   0.735E-13 -.267E-13 0.894E-03
   0.611E-12 -.102E-13 0.205E+04   -.153E-13 0.117E-13 -.205E+04   0.000E+00 0.000E+00 0.103E+01   -.851E-14 -.445E-13 -.673E-03
   0.638E-12 0.367E-12 -.621E+03   -.196E-13 0.128E-13 0.621E+03   0.000E+00 0.000E+00 0.574E+00   -.224E-13 -.110E-13 0.304E-03
   0.630E-12 0.133E-11 -.311E+04   0.222E-13 0.152E-13 0.310E+04   0.000E+00 0.000E+00 0.384E+01   -.584E-13 0.457E-13 -.130E-03
 -----------------------------------------------------------------------------------------------
   0.178E-11 0.168E-11 -.936E-05   -.251E-13 0.918E-13 0.455E-12   0.000E+00 0.000E+00 -.444E-15   0.136E-13 -.137E-13 0.639E-03
 
 
 POSITION                                       TOTAL-FORCE (eV/Angst)
 -----------------------------------------------------------------------------------
      0.00000      0.00000      0.08944         0.000000      0.000000     -0.145860
      0.00000      0.00000      2.55456         0.000000      0.000000      0.225316
      0.00000      0.00000      5.21781         0.000000      0.000000     -0.176636
      1.81568      1.28388      1.20158         0.000000      0.000000      0.176636
      1.81568      1.28388      3.86483         0.000000      0.000000     -0.225316
      1.81568      1.28388      6.32995         0.000000      0.000000      0.145860
 -----------------------------------------------------------------------------------
    total drift:                                0.000000      0.000000      0.000630


--------------------------------------------------------------------------------------------------------



  FREE ENERGIE OF THE ION-ELECTRON SYSTEM (eV)
  ---------------------------------------------------
  free  energy   TOTEN  =       -20.544459 eV

  energy  without entropy=      -20.544459  energy(sigma->0) =      -20.544459
 
 d Force =-0.4931522E-02[-0.319E-01, 0.220E-01]  d Energy =-0.8529175E-02 0.360E-02
 d Force =-0.1057883E+03[-0.105E+03,-0.106E+03]  d Ewald  =-0.1058473E+03 0.590E-01


--------------------------------------------------------------------------------------------------------


    POTLOK:  cpu time    0.33: real time    0.33


--------------------------------------------------------------------------------------------------------




--------------------------------------------------------------------------------------------------------


    WAVPRE:  cpu time    0.06: real time    0.06
    FEWALD:  cpu time    0.00: real time    0.00
    ORTHCH:  cpu time    1.18: real time    1.19
     LOOP+:  cpu time  180.17: real time  180.18


----------------------------------------- Iteration    7(   1)  ---------------------------------------


    POTLOK:  cpu time    0.30: real time    0.30
    SETDIJ:  cpu time    0.03: real time    0.03
     EDDAV:  cpu time   13.15: real time   13.15
 BZINTS: Fermi energy: -0.844523; 66.000000 electrons
         Band energy:-238.568976;  BLOECHL correction: -0.188692
       DOS:  cpu time    0.04: real time    0.04
    CHARGE:  cpu time    0.61: real time    0.61
    MIXING:  cpu time    0.01: real time    0.01
    --------------------------------------------
      LOOP:  cpu time   14.14: real time   14.14

 eigenvalue-minimisations  :  1280
 total energy-change (2. order) :-0.7728582E-02  (-0.1501332E+01)
 number of electron      65.9999693 magnetization 
 augmentation part       43.2632720 magnetization 

 Broyden mixing:
  rms(total) = 0.26330E-01    rms(broyden)= 0.26301E-01
  rms(prec ) = 0.28334E-01
  weight for this iteration     100.00

 Free energy of the ion-electron system (eV)
  ---------------------------------------------------
  alpha Z        PSCENC =       278.63143507
  Ewald energy   TEWEN  =     13982.67732613
  -1/2 Hartree   DENC   =    -21777.01075970
  -exchange  EXHF       =         0.00000000
  -V(xc)+E(xc)   XCENC  =       255.70192159
  PAW double counting   =      6559.41617891    -7427.22781786
  entropy T*S    EENTRO =         0.00000000
  eigenvalues    EBANDS =      -238.56897610
  atomic energy  EATOM  =      8345.82850422
  ---------------------------------------------------
  free energy    TOTEN  =       -20.55218774 eV

  energy without entropy =      -20.55218774  energy(sigma->0) =      -20.55218774


--------------------------------------------------------------------------------------------------------




----------------------------------------- Iteration    7(   2)  ---------------------------------------


    POTLOK:  cpu time    0.30: real time    0.29
    SETDIJ:  cpu time    0.03: real time    0.03
     EDDAV:  cpu time   14.03: real time   14.03
 BZINTS: Fermi energy: -0.836329; 66.000000 electrons
         Band energy:-237.704646;  BLOECHL correction: -0.188261
       DOS:  cpu time    0.04: real time    0.04
    CHARGE:  cpu time    0.62: real time    0.62
    MIXING:  cpu time    0.01: real time    0.01
    --------------------------------------------
      LOOP:  cpu time   15.03: real time   15.03

 eigenvalue-minimisations  :  1408
 total energy-change (2. order) :-0.3643638E-02  (-0.5237070E-02)
 number of electron      65.9999693 magnetization 
 augmentation part       43.2534687 magnetization 

 Broyden mixing:
  rms(total) = 0.23577E-01    rms(broyden)= 0.23574E-01
  rms(prec ) = 0.25508E-01
  weight for this iteration     100.00

 eigenvalues of (default mixing * dielectric matrix)
  average eigenvalue GAMMA=   0.5932
  0.5932

 Free energy of the ion-electron system (eV)
  ---------------------------------------------------
  alpha Z        PSCENC =       278.63143507
  Ewald energy   TEWEN  =     13982.67732613
  -1/2 Hartree   DENC   =    -21777.79567040
  -exchange  EXHF       =         0.00000000
  -V(xc)+E(xc)   XCENC  =       255.72425651
  PAW double counting   =      6557.68067335    -7425.59770999
  entropy T*S    EENTRO =         0.00000000
  eigenvalues    EBANDS =      -237.70464626
  atomic energy  EATOM  =      8345.82850422
  ---------------------------------------------------
  free energy    TOTEN  =       -20.55583138 eV

  energy without entropy =      -20.55583138  energy(sigma->0) =      -20.55583138


--------------------------------------------------------------------------------------------------------




----------------------------------------- Iteration    7(   3)  ---------------------------------------


    POTLOK:  cpu time    0.30: real time    0.30
    SETDIJ:  cpu time    0.03: real time    0.03
     EDDAV:  cpu time   14.13: real time   14.13
 BZINTS: Fermi energy: -0.836295; 66.000000 electrons
         Band energy:-237.676608;  BLOECHL correction: -0.188563
       DOS:  cpu time    0.04: real time    0.04
    CHARGE:  cpu time    0.66: real time    0.66
    MIXING:  cpu time    0.01: real time    0.01
    --------------------------------------------
      LOOP:  cpu time   15.16: real time   15.17

 eigenvalue-minimisations  :  1416
 total energy-change (2. order) :-0.1908270E-03  (-0.1080059E-02)
 number of electron      65.9999693 magnetization 
 augmentation part       43.2550181 magnetization 

 Broyden mixing:
  rms(total) = 0.14926E-01    rms(broyden)= 0.14925E-01
  rms(prec ) = 0.16128E-01
  weight for this iteration     100.00

 eigenvalues of (default mixing * dielectric matrix)
  average eigenvalue GAMMA=   1.4382
  0.3884  2.4880

 Free energy of the ion-electron system (eV)
  ---------------------------------------------------
  alpha Z        PSCENC =       278.63143507
  Ewald energy   TEWEN  =     13982.67732613
  -1/2 Hartree   DENC   =    -21777.91523668
  -exchange  EXHF       =         0.00000000
  -V(xc)+E(xc)   XCENC  =       255.72233480
  PAW double counting   =      6556.83782991    -7424.66160801
  entropy T*S    EENTRO =         0.00000000
  eigenvalues    EBANDS =      -237.67660765
  atomic energy  EATOM  =      8345.82850422
  ---------------------------------------------------
  free energy    TOTEN  =       -20.55602220 eV

  energy without entropy =      -20.55602220  energy(sigma->0) =      -20.55602220


--------------------------------------------------------------------------------------------------------




----------------------------------------- Iteration    7(   4)  ---------------------------------------


    POTLOK:  cpu time    0.30: real time    0.30
    SETDIJ:  cpu time    0.03: real time    0.03
     EDDAV:  cpu time   16.52: real time   16.52
 BZINTS: Fermi energy: -0.838494; 66.000000 electrons
         Band energy:-237.844981;  BLOECHL correction: -0.188582
       DOS:  cpu time    0.04: real time    0.04
    CHARGE:  cpu time    0.65: real time    0.65
    MIXING:  cpu time    0.01: real time    0.01
    --------------------------------------------
      LOOP:  cpu time   17.55: real time   17.55

 eigenvalue-minimisations  :  1744
 total energy-change (2. order) : 0.5998423E-03  (-0.1615911E-03)
 number of electron      65.9999693 magnetization 
 augmentation part       43.2608770 magnetization 

 Broyden mixing:
  rms(total) = 0.44939E-02    rms(broyden)= 0.44937E-02
  rms(prec ) = 0.50722E-02
  weight for this iteration     100.00

 eigenvalues of (default mixing * dielectric matrix)
  average eigenvalue GAMMA=   1.1993
  2.5188  0.4010  0.6781

 Free energy of the ion-electron system (eV)
  ---------------------------------------------------
  alpha Z        PSCENC =       278.63143507
  Ewald energy   TEWEN  =     13982.67732613
  -1/2 Hartree   DENC   =    -21777.99668165
  -exchange  EXHF       =         0.00000000
  -V(xc)+E(xc)   XCENC  =       255.72283803
  PAW double counting   =      6554.23608321    -7421.80994598
  entropy T*S    EENTRO =         0.00000000
  eigenvalues    EBANDS =      -237.84498140
  atomic energy  EATOM  =      8345.82850422
  ---------------------------------------------------
  free energy    TOTEN  =       -20.55542236 eV

  energy without entropy =      -20.55542236  energy(sigma->0) =      -20.55542236


--------------------------------------------------------------------------------------------------------




----------------------------------------- Iteration    7(   5)  ---------------------------------------


    POTLOK:  cpu time    0.29: real time    0.30
    SETDIJ:  cpu time    0.04: real time    0.03
     EDDAV:  cpu time   14.44: real time   14.44
 BZINTS: Fermi energy: -0.836254; 66.000000 electrons
         Band energy:-237.610912;  BLOECHL correction: -0.188415
       DOS:  cpu time    0.04: real time    0.04
    CHARGE:  cpu time    0.65: real time    0.65
    MIXING:  cpu time    0.01: real time    0.01
    --------------------------------------------
      LOOP:  cpu time   15.48: real time   15.48

 eigenvalue-minimisations  :  1464
 total energy-change (2. order) : 0.4680352E-04  (-0.4312761E-04)
 number of electron      65.9999693 magnetization 
 augmentation part       43.2569619 magnetization 

 Broyden mixing:
  rms(total) = 0.22516E-02    rms(broyden)= 0.22514E-02
  rms(prec ) = 0.28475E-02
  weight for this iteration     100.00

 eigenvalues of (default mixing * dielectric matrix)
  average eigenvalue GAMMA=   1.0722
  2.5509  0.3928  0.6726  0.6726

 Free energy of the ion-electron system (eV)
  ---------------------------------------------------
  alpha Z        PSCENC =       278.63143507
  Ewald energy   TEWEN  =     13982.67732613
  -1/2 Hartree   DENC   =    -21778.16804553
  -exchange  EXHF       =         0.00000000
  -V(xc)+E(xc)   XCENC  =       255.73083989
  PAW double counting   =      6554.40806539    -7422.05258897
  entropy T*S    EENTRO =         0.00000000
  eigenvalues    EBANDS =      -237.61091175
  atomic energy  EATOM  =      8345.82850422
  ---------------------------------------------------
  free energy    TOTEN  =       -20.55537556 eV

  energy without entropy =      -20.55537556  energy(sigma->0) =      -20.55537556


--------------------------------------------------------------------------------------------------------




----------------------------------------- Iteration    7(   6)  ---------------------------------------


    POTLOK:  cpu time    0.30: real time    0.30
    SETDIJ:  cpu time    0.04: real time    0.03
     EDDAV:  cpu time   13.65: real time   13.65
 BZINTS: Fermi energy: -0.837161; 66.000000 electrons
         Band energy:-237.681245;  BLOECHL correction: -0.188407
       DOS:  cpu time    0.04: real time    0.04
    CHARGE:  cpu time    0.62: real time    0.62
    MIXING:  cpu time    0.01: real time    0.01
    --------------------------------------------
      LOOP:  cpu time   14.66: real time   14.66

 eigenvalue-minimisations  :  1352
 total energy-change (2. order) : 0.4216323E-05  (-0.1328637E-04)
 number of electron      65.9999693 magnetization 
 augmentation part       43.2562734 magnetization 

 Broyden mixing:
  rms(total) = 0.12529E-02    rms(broyden)= 0.12528E-02
  rms(prec ) = 0.14546E-02
  weight for this iteration     100.00

 eigenvalues of (default mixing * dielectric matrix)
  average eigenvalue GAMMA=   1.0644
  2.3588  1.3631  0.7633  0.3966  0.4402

 Free energy of the ion-electron system (eV)
  ---------------------------------------------------
  alpha Z        PSCENC =       278.63143507
  Ewald energy   TEWEN  =     13982.67732613
  -1/2 Hartree   DENC   =    -21778.08870708
  -exchange  EXHF       =         0.00000000
  -V(xc)+E(xc)   XCENC  =       255.73212411
  PAW double counting   =      6554.38751442    -7422.04232363
  entropy T*S    EENTRO =         0.00000000
  eigenvalues    EBANDS =      -237.68124458
  atomic energy  EATOM  =      8345.82850422
  ---------------------------------------------------
  free energy    TOTEN  =       -20.55537134 eV

  energy without entropy =      -20.55537134  energy(sigma->0) =      -20.55537134


--------------------------------------------------------------------------------------------------------




----------------------------------------- Iteration    7(   7)  ---------------------------------------


    POTLOK:  cpu time    0.30: real time    0.30
    SETDIJ:  cpu time    0.04: real time    0.03
     EDDAV:  cpu time   14.00: real time   14.01
 BZINTS: Fermi energy: -0.837887; 66.000000 electrons
         Band energy:-237.752293;  BLOECHL correction: -0.188385
       DOS:  cpu time    0.04: real time    0.04
    CHARGE:  cpu time    0.63: real time    0.63
    MIXING:  cpu time    0.01: real time    0.01
    --------------------------------------------
      LOOP:  cpu time   15.02: real time   15.02

 eigenvalue-minimisations  :  1400
 total energy-change (2. order) : 0.3360094E-04  (-0.4381322E-05)
 number of electron      65.9999693 magnetization 
 augmentation part       43.2561455 magnetization 

 Broyden mixing:
  rms(total) = 0.60108E-03    rms(broyden)= 0.60103E-03
  rms(prec ) = 0.66177E-03
  weight for this iteration     100.00

 eigenvalues of (default mixing * dielectric matrix)
  average eigenvalue GAMMA=   1.1662
  2.4070  1.9454  0.9818  0.8481  0.3937  0.4213

 Free energy of the ion-electron system (eV)
  ---------------------------------------------------
  alpha Z        PSCENC =       278.63143507
  Ewald energy   TEWEN  =     13982.67732613
  -1/2 Hartree   DENC   =    -21778.01582259
  -exchange  EXHF       =         0.00000000
  -V(xc)+E(xc)   XCENC  =       255.73160680
  PAW double counting   =      6554.38648662    -7422.04258117
  entropy T*S    EENTRO =         0.00000000
  eigenvalues    EBANDS =      -237.75229283
  atomic energy  EATOM  =      8345.82850422
  ---------------------------------------------------
  free energy    TOTEN  =       -20.55533774 eV

  energy without entropy =      -20.55533774  energy(sigma->0) =      -20.55533774


--------------------------------------------------------------------------------------------------------




----------------------------------------- Iteration    7(   8)  ---------------------------------------


    POTLOK:  cpu time    0.30: real time    0.30
    SETDIJ:  cpu time    0.04: real time    0.03
     EDDAV:  cpu time   13.70: real time   13.71
 BZINTS: Fermi energy: -0.838228; 66.000000 electrons
         Band energy:-237.779448;  BLOECHL correction: -0.188394
       DOS:  cpu time    0.04: real time    0.04
    CHARGE:  cpu time    0.59: real time    0.59
    MIXING:  cpu time    0.01: real time    0.01
    --------------------------------------------
      LOOP:  cpu time   14.68: real time   14.68

 eigenvalue-minimisations  :  1360
 total energy-change (2. order) : 0.4565329E-05  (-0.1125119E-05)
 number of electron      65.9999693 magnetization 
 augmentation part       43.2563435 magnetization 

 Broyden mixing:
  rms(total) = 0.28716E-03    rms(broyden)= 0.28712E-03
  rms(prec ) = 0.30815E-03
  weight for this iteration     100.00

 eigenvalues of (default mixing * dielectric matrix)
  average eigenvalue GAMMA=   1.2412
  2.5574  1.7785  1.7785  0.4196  0.3960  0.8794  0.8794

 Free energy of the ion-electron system (eV)
  ---------------------------------------------------
  alpha Z        PSCENC =       278.63143507
  Ewald energy   TEWEN  =     13982.67732613
  -1/2 Hartree   DENC   =    -21777.99867587
  -exchange  EXHF       =         0.00000000
  -V(xc)+E(xc)   XCENC  =       255.73124797
  PAW double counting   =      6554.31090235    -7421.95662462
  entropy T*S    EENTRO =         0.00000000
  eigenvalues    EBANDS =      -237.77944843
  atomic energy  EATOM  =      8345.82850422
  ---------------------------------------------------
  free energy    TOTEN  =       -20.55533317 eV

  energy without entropy =      -20.55533317  energy(sigma->0) =      -20.55533317


--------------------------------------------------------------------------------------------------------




----------------------------------------- Iteration    7(   9)  ---------------------------------------


    POTLOK:  cpu time    0.30: real time    0.30
    SETDIJ:  cpu time    0.03: real time    0.03
     EDDAV:  cpu time   10.00: real time   10.01
 BZINTS: Fermi energy: -0.838398; 66.000000 electrons
         Band energy:-237.793009;  BLOECHL correction: -0.188392
       DOS:  cpu time    0.04: real time    0.04
    CHARGE:  cpu time    0.58: real time    0.58
    MIXING:  cpu time    0.01: real time    0.01
    --------------------------------------------
      LOOP:  cpu time   10.98: real time   10.98

 eigenvalue-minimisations  :   848
 total energy-change (2. order) : 0.2631921E-05  (-0.1589767E-06)
 number of electron      65.9999693 magnetization 
 augmentation part       43.2563606 magnetization 

 Broyden mixing:
  rms(total) = 0.75837E-04    rms(broyden)= 0.75829E-04
  rms(prec ) = 0.85522E-04
  weight for this iteration     100.00

 eigenvalues of (default mixing * dielectric matrix)
  average eigenvalue GAMMA=   1.2490
  2.4808  2.2373  1.6617  0.3962  0.4206  1.0987  0.9146  0.7817

 Free energy of the ion-electron system (eV)
  ---------------------------------------------------
  alpha Z        PSCENC =       278.63143507
  Ewald energy   TEWEN  =     13982.67732613
  -1/2 Hartree   DENC   =    -21777.98597305
  -exchange  EXHF       =         0.00000000
  -V(xc)+E(xc)   XCENC  =       255.73123689
  PAW double counting   =      6554.31884324    -7421.96369398
  entropy T*S    EENTRO =         0.00000000
  eigenvalues    EBANDS =      -237.79300906
  atomic energy  EATOM  =      8345.82850422
  ---------------------------------------------------
  free energy    TOTEN  =       -20.55533054 eV

  energy without entropy =      -20.55533054  energy(sigma->0) =      -20.55533054


--------------------------------------------------------------------------------------------------------




----------------------------------------- Iteration    7(  10)  ---------------------------------------


    POTLOK:  cpu time    0.30: real time    0.30
    SETDIJ:  cpu time    0.04: real time    0.03
     EDDAV:  cpu time    9.65: real time    9.65
 BZINTS: Fermi energy: -0.838466; 66.000000 electrons
         Band energy:-237.796588;  BLOECHL correction: -0.188391
       DOS:  cpu time    0.04: real time    0.04
    --------------------------------------------
      LOOP:  cpu time   10.02: real time   10.02

 eigenvalue-minimisations  :   808
 total energy-change (2. order) :-0.6833325E-06  (-0.2046313E-07)
 number of electron      65.9999693 magnetization 
 augmentation part       43.2563606 magnetization 

 Free energy of the ion-electron system (eV)
  ---------------------------------------------------
  alpha Z        PSCENC =       278.63143507
  Ewald energy   TEWEN  =     13982.67732613
  -1/2 Hartree   DENC   =    -21777.98265296
  -exchange  EXHF       =         0.00000000
  -V(xc)+E(xc)   XCENC  =       255.73134171
  PAW double counting   =      6554.32693524    -7421.97163271
  entropy T*S    EENTRO =         0.00000000
  eigenvalues    EBANDS =      -237.79658793
  atomic energy  EATOM  =      8345.82850422
  ---------------------------------------------------
  free energy    TOTEN  =       -20.55533123 eV

  energy without entropy =      -20.55533123  energy(sigma->0) =      -20.55533123


--------------------------------------------------------------------------------------------------------




 average (electrostatic) potential at core
  the test charge radii are     1.0053
  (the norm of the test charge is              1.0000)
       1 -44.0872       2 -44.4901       3 -44.4311       4 -44.4312       5 -44.4900
       6 -44.0872
 
 
 
 E-fermi :  -0.8385     XC(G=0):  -6.6209     alpha+bet : -4.1343


 k-point   1 :       0.0000    0.0000    0.0000
  band No.  band energies     occupation 
      1      -9.4755      2.00000
      2      -8.0638      2.00000
      3      -6.0713      2.00000
      4      -5.3336      2.00000
      5      -4.9975      2.00000
      6      -4.8699      2.00000
      7      -4.5675      2.00000
      8      -4.3808      2.00000
      9      -4.1191      2.00000
     10      -4.1141      2.00000
     11      -4.0738      2.00000
     12      -3.8087      2.00000
     13      -3.7500      2.00000
     14      -3.6646      2.00000
     15      -3.6085      2.00000
     16      -3.5023      2.00000
     17      -3.4171      2.00000
     18      -3.4000      2.00000
     19      -3.1989      2.00000
     20      -3.1783      2.00000
     21      -3.0598      2.00000
     22      -3.0573      2.00000
     23      -2.9829      2.00000
     24      -2.9238      2.00000
     25      -2.8457      2.00000
     26      -2.7855      2.00000
     27      -2.6278      2.00000
     28      -2.5148      2.00000
     29      -2.4792      2.00000
     30      -2.4023      2.00000
     31      -2.3309      2.00000
     32      -2.2450      2.00000
     33      -2.2027      2.00000
     34      -1.3194      2.13306
     35       0.7942      0.00000
     36       1.6594      0.00000
     37       2.9976      0.00000
     38       3.3593      0.00000
     39       3.6722      0.00000
     40       5.5277      0.00000

 k-point   2 :       0.1429    0.0000    0.0000
  band No.  band energies     occupation 
      1      -9.2359      2.00000
      2      -7.8502      2.00000
      3      -5.9757      2.00000
      4      -5.3297      2.00000
      5      -4.9802      2.00000
      6      -4.9010      2.00000
      7      -4.7178      2.00000
      8      -4.3470      2.00000
      9      -4.0536      2.00000
     10      -3.9947      2.00000
     11      -3.9870      2.00000
     12      -3.8088      2.00000
     13      -3.6325      2.00000
     14      -3.6143      2.00000
     15      -3.5849      2.00000
     16      -3.5061      2.00000
     17      -3.4547      2.00000
     18      -3.4226      2.00000
     19      -3.3638      2.00000
     20      -3.1586      2.00000
     21      -3.1460      2.00000
     22      -3.0056      2.00000
     23      -2.9709      2.00000
     24      -2.9089      2.00000
     25      -2.8373      2.00000
     26      -2.7645      2.00000
     27      -2.6412      2.00000
     28      -2.5581      2.00000
     29      -2.4485      2.00000
     30      -2.4084      2.00000
     31      -2.3133      2.00000
     32      -2.2398      2.00000
     33      -2.2396      2.00000
     34      -1.2191      2.17494
     35       0.3120     -0.00687
     36       0.9131      0.00000
     37       2.0556      0.00000
     38       3.0720      0.00000
     39       3.5810      0.00000
     40       4.4374      0.00000

 k-point   3 :       0.2857    0.0000    0.0000
  band No.  band energies     occupation 
      1      -8.5360      2.00000
      2      -7.2470      2.00000
      3      -5.7803      2.00000
      4      -5.4769      2.00000
      5      -5.1102      2.00000
      6      -5.0419      2.00000
      7      -4.6806      2.00000
      8      -4.2054      2.00000
      9      -3.9668      2.00000
     10      -3.9459      2.00000
     11      -3.8781      2.00000
     12      -3.7782      2.00000
     13      -3.6109      2.00000
     14      -3.5918      2.00000
     15      -3.5916      2.00000
     16      -3.4867      2.00000
     17      -3.4797      2.00000
     18      -3.3823      2.00000
     19      -3.2605      2.00000
     20      -3.1851      2.00000
     21      -3.0836      2.00000
     22      -3.0795      2.00000
     23      -3.0008      2.00000
     24      -2.8479      2.00000
     25      -2.7795      2.00000
     26      -2.7281      2.00000
     27      -2.7199      2.00000
     28      -2.6307      2.00000
     29      -2.4005      2.00000
     30      -2.3541      2.00000
     31      -2.3097      2.00000
     32      -2.2913      2.00000
     33      -2.2576      2.00000
     34      -1.5378      2.13962
     35      -0.8712      0.68899
     36      -0.2221     -0.00214
     37       1.2919      0.00000
     38       1.6719      0.00000
     39       4.1455      0.00000
     40       4.1497      0.00000

 k-point   4 :       0.4286    0.0000    0.0000
  band No.  band energies     occupation 
      1      -7.4544      2.00000
      2      -6.4241      2.00000
      3      -6.2188      2.00000
      4      -5.7585      2.00000
      5      -5.2990      2.00000
      6      -5.2731      2.00000
      7      -4.4503      2.00000
      8      -4.1887      2.00000
      9      -3.9662      2.00000
     10      -3.8806      2.00000
     11      -3.8046      2.00000
     12      -3.7904      2.00000
     13      -3.6677      2.00000
     14      -3.6598      2.00000
     15      -3.6092      2.00000
     16      -3.5861      2.00000
     17      -3.4050      2.00000
     18      -3.3857      2.00000
     19      -3.3462      2.00000
     20      -3.2622      2.00000
     21      -3.0430      2.00000
     22      -2.9313      2.00000
     23      -2.8147      2.00000
     24      -2.8010      2.00000
     25      -2.6629      2.00000
     26      -2.6361      2.00000
     27      -2.5505      2.00000
     28      -2.4455      2.00000
     29      -2.3825      2.00000
     30      -2.3463      2.00000
     31      -2.3450      2.00000
     32      -2.3072      2.00000
     33      -2.2884      2.00000
     34      -2.2195      2.00000
     35      -1.7551      2.11683
     36      -0.8575      0.20475
     37       0.4255      0.00000
     38       1.1098      0.00000
     39       4.1789      0.00000
     40       5.1221      0.00000

 k-point   5 :       0.0000    0.1429    0.0000
  band No.  band energies     occupation 
      1      -8.9952      2.00000
      2      -7.6157      2.00000
      3      -5.7432      2.00000
      4      -5.1452      2.00000
      5      -4.8389      2.00000
      6      -4.6904      2.00000
      7      -4.3258      2.00000
      8      -4.3221      2.00000
      9      -4.3166      2.00000
     10      -4.2628      2.00000
     11      -4.1933      2.00000
     12      -3.9469      2.00000
     13      -3.9186      2.00000
     14      -3.7241      2.00000
     15      -3.5789      2.00000
     16      -3.4856      2.00000
     17      -3.4558      2.00000
     18      -3.3498      2.00000
     19      -3.1905      2.00000
     20      -3.1651      2.00000
     21      -3.0820      2.00000
     22      -2.9233      2.00000
     23      -2.9186      2.00000
     24      -2.8797      2.00000
     25      -2.8603      2.00000
     26      -2.8332      2.00000
     27      -2.5541      2.00000
     28      -2.5508      2.00000
     29      -2.5314      2.00000
     30      -2.4391      2.00000
     31      -2.4260      2.00000
     32      -2.2218      2.00000
     33      -2.1997      2.00000
     34      -0.9473      1.21033
     35       1.2568      0.00000
     36       2.5787      0.00000
     37       3.4420      0.00000
     38       3.8238      0.00000
     39       4.3674      0.00000
     40       5.9984      0.00000

 k-point   6 :       0.1429    0.1429    0.0000
  band No.  band energies     occupation 
      1      -8.7620      2.00000
      2      -7.4074      2.00000
      3      -5.6429      2.00000
      4      -5.1198      2.00000
      5      -4.8085      2.00000
      6      -4.7072      2.00000
      7      -4.5585      2.00000
      8      -4.2745      2.00000
      9      -4.2107      2.00000
     10      -4.1992      2.00000
     11      -4.0956      2.00000
     12      -3.9552      2.00000
     13      -3.7620      2.00000
     14      -3.7243      2.00000
     15      -3.5733      2.00000
     16      -3.5550      2.00000
     17      -3.4698      2.00000
     18      -3.3590      2.00000
     19      -3.3037      2.00000
     20      -3.1972      2.00000
     21      -3.0654      2.00000
     22      -3.0374      2.00000
     23      -2.9601      2.00000
     24      -2.9510      2.00000
     25      -2.8196      2.00000
     26      -2.6751      2.00000
     27      -2.6206      2.00000
     28      -2.5320      2.00000
     29      -2.5009      2.00000
     30      -2.4378      2.00000
     31      -2.3967      2.00000
     32      -2.3111      2.00000
     33      -2.1568      2.00000
     34      -0.7665      0.75193
     35       1.1133     -0.00485
     36       1.4295      0.00000
     37       2.6375      0.00000
     38       3.5676      0.00000
     39       4.0464      0.00000
     40       4.8833      0.00000

 k-point   7 :       0.2857    0.1429    0.0000
  band No.  band energies     occupation 
      1      -8.0836      2.00000
      2      -6.8233      2.00000
      3      -5.4483      2.00000
      4      -5.2046      2.00000
      5      -4.8798      2.00000
      6      -4.7944      2.00000
      7      -4.5856      2.00000
      8      -4.2170      2.00000
      9      -4.1040      2.00000
     10      -4.0442      2.00000
     11      -3.9932      2.00000
     12      -3.9423      2.00000
     13      -3.7235      2.00000
     14      -3.7032      2.00000
     15      -3.5562      2.00000
     16      -3.4904      2.00000
     17      -3.4383      2.00000
     18      -3.3881      2.00000
     19      -3.3867      2.00000
     20      -3.3093      2.00000
     21      -3.1568      2.00000
     22      -3.1200      2.00000
     23      -3.0969      2.00000
     24      -2.9889      2.00000
     25      -2.7657      2.00000
     26      -2.6819      2.00000
     27      -2.6738      2.00000
     28      -2.5399      2.00000
     29      -2.4582      2.00000
     30      -2.4349      2.00000
     31      -2.3746      2.00000
     32      -2.3626      2.00000
     33      -1.9232      2.00000
     34      -0.8505      1.10584
     35      -0.1907     -0.04906
     36       0.4011     -0.00295
     37       1.8537      0.00000
     38       2.2063      0.00000
     39       4.5460      0.00000
     40       4.6097      0.00000

 k-point   8 :       0.4286    0.1429    0.0000
  band No.  band energies     occupation 
      1      -7.0460      2.00000
      2      -6.0546      2.00000
      3      -5.8699      2.00000
      4      -5.4431      2.00000
      5      -4.9996      2.00000
      6      -4.9889      2.00000
      7      -4.3948      2.00000
      8      -4.1836      2.00000
      9      -4.0018      2.00000
     10      -3.9884      2.00000
     11      -3.9458      2.00000
     12      -3.8911      2.00000
     13      -3.7311      2.00000
     14      -3.7007      2.00000
     15      -3.6890      2.00000
     16      -3.5826      2.00000
     17      -3.4620      2.00000
     18      -3.3864      2.00000
     19      -3.2266      2.00000
     20      -3.2014      2.00000
     21      -3.1488      2.00000
     22      -3.1174      2.00000
     23      -3.0922      2.00000
     24      -3.0616      2.00000
     25      -2.8157      2.00000
     26      -2.7797      2.00000
     27      -2.6440      2.00000
     28      -2.6241      2.00000
     29      -2.4742      2.00000
     30      -2.4537      2.00000
     31      -2.3964      2.00000
     32      -2.1220      2.00000
     33      -1.9653      2.00000
     34      -1.4269      1.90765
     35      -0.9575      1.08519
     36       0.1190     -0.07816
     37       0.8644      0.00000
     38       1.7562      0.00000
     39       4.5187      0.00000
     40       5.4935      0.00000

 k-point   9 :       0.0000    0.2857    0.0000
  band No.  band energies     occupation 
      1      -7.6483      2.00000
      2      -6.4785      2.00000
      3      -5.3347      2.00000
      4      -4.8653      2.00000
      5      -4.7001      2.00000
      6      -4.6903      2.00000
      7      -4.5222      2.00000
      8      -4.4622      2.00000
      9      -4.4432      2.00000
     10      -4.3229      2.00000
     11      -4.2689      2.00000
     12      -3.8718      2.00000
     13      -3.7902      2.00000
     14      -3.7187      2.00000
     15      -3.4886      2.00000
     16      -3.4230      2.00000
     17      -3.3230      2.00000
     18      -3.1519      2.00000
     19      -3.1063      2.00000
     20      -3.0584      2.00000
     21      -2.9854      2.00000
     22      -2.9412      2.00000
     23      -2.8611      2.00000
     24      -2.7672      2.00000
     25      -2.6506      2.00000
     26      -2.6367      2.00000
     27      -2.4966      2.00000
     28      -2.4863      2.00000
     29      -2.4837      2.00000
     30      -2.4423      2.00000
     31      -2.3055      2.00000
     32      -2.2716      2.00000
     33      -1.9397      2.06679
     34       0.1172     -0.08920
     35       2.4442      0.00000
     36       4.1246      0.00000
     37       4.7335      0.00000
     38       4.8035      0.00000
     39       5.0395      0.00000
     40       5.8638      0.00000

 k-point  10 :       0.1429    0.2857    0.0000
  band No.  band energies     occupation 
      1      -7.4483      2.00000
      2      -6.2987      2.00000
      3      -5.2126      2.00000
      4      -4.8084      2.00000
      5      -4.6866      2.00000
      6      -4.6758      2.00000
      7      -4.5506      2.00000
      8      -4.4198      2.00000
      9      -4.3914      2.00000
     10      -4.2649      2.00000
     11      -4.2248      2.00000
     12      -3.8989      2.00000
     13      -3.7852      2.00000
     14      -3.7295      2.00000
     15      -3.5825      2.00000
     16      -3.4679      2.00000
     17      -3.3760      2.00000
     18      -3.2873      2.00000
     19      -3.1147      2.00000
     20      -3.0446      2.00000
     21      -2.9705      2.00000
     22      -2.8987      2.00000
     23      -2.8897      2.00000
     24      -2.8378      2.00000
     25      -2.7964      2.00000
     26      -2.6314      2.00000
     27      -2.5273      2.00000
     28      -2.5141      2.00000
     29      -2.4410      2.00000
     30      -2.3715      2.00000
     31      -2.3384      2.00000
     32      -2.3278      2.00000
     33      -1.6499      1.94078
     34       0.4116     -0.05889
     35       2.6825      0.00000
     36       2.7288      0.00000
     37       4.1363      0.00000
     38       4.5237      0.00000
     39       5.0850      0.00000
     40       5.3228      0.00000

 k-point  11 :       0.2857    0.2857    0.0000
  band No.  band energies     occupation 
      1      -6.8879      2.00000
      2      -5.8159      2.00000
      3      -4.9197      2.00000
      4      -4.8917      2.00000
      5      -4.6768      2.00000
      6      -4.6585      2.00000
      7      -4.4342      2.00000
      8      -4.3633      2.00000
      9      -4.2398      2.00000
     10      -4.1461      2.00000
     11      -4.0967      2.00000
     12      -3.9560      2.00000
     13      -3.7714      2.00000
     14      -3.7632      2.00000
     15      -3.6866      2.00000
     16      -3.6017      2.00000
     17      -3.4769      2.00000
     18      -3.4480      2.00000
     19      -3.1624      2.00000
     20      -3.0684      2.00000
     21      -3.0315      2.00000
     22      -3.0274      2.00000
     23      -2.9809      2.00000
     24      -2.9394      2.00000
     25      -2.7467      2.00000
     26      -2.6942      2.00000
     27      -2.6204      2.00000
     28      -2.5218      2.00000
     29      -2.4537      2.00000
     30      -2.4240      2.00000
     31      -2.3899      2.00000
     32      -2.1219      2.07502
     33      -0.9220      1.36971
     34       0.4252     -0.08262
     35       1.2286     -0.01537
     36       1.7498      0.00000
     37       3.3438      0.00000
     38       3.6860      0.00000
     39       5.4172      0.00000
     40       5.8061      0.00000

 k-point  12 :       0.4286    0.2857    0.0000
  band No.  band energies     occupation 
      1      -6.1127      2.00000
      2      -5.4178      2.00000
      3      -5.1694      2.00000
      4      -4.8222      2.00000
      5      -4.5830      2.00000
      6      -4.5775      2.00000
      7      -4.2970      2.00000
      8      -4.2521      2.00000
      9      -4.1365      2.00000
     10      -4.1090      2.00000
     11      -4.0756      2.00000
     12      -3.9154      2.00000
     13      -3.7583      2.00000
     14      -3.7573      2.00000
     15      -3.7136      2.00000
     16      -3.6851      2.00000
     17      -3.5693      2.00000
     18      -3.5315      2.00000
     19      -3.2440      2.00000
     20      -3.1958      2.00000
     21      -3.0962      2.00000
     22      -3.0601      2.00000
     23      -3.0165      2.00000
     24      -3.0115      2.00000
     25      -2.7667      2.00000
     26      -2.7582      2.00000
     27      -2.6919      2.00000
     28      -2.5834      2.00000
     29      -2.4743      2.00000
     30      -2.4665      2.00000
     31      -2.2073      2.00000
     32      -1.4697      2.04704
     33      -1.1817      1.59767
     34      -0.3218      0.05290
     35       0.3844     -0.08593
     36       1.6817      0.00000
     37       2.3649      0.00000
     38       3.4571      0.00000
     39       5.5961      0.00000
     40       6.5258      0.00000

 k-point  13 :       0.0000    0.4286    0.0000
  band No.  band energies     occupation 
      1      -5.8967      2.00000
      2      -5.5873      2.00000
      3      -5.3703      2.00000
      4      -4.9471      2.00000
      5      -4.9416      2.00000
      6      -4.9384      2.00000
      7      -4.5669      2.00000
      8      -4.5529      2.00000
      9      -4.4669      2.00000
     10      -4.4606      2.00000
     11      -4.0874      2.00000
     12      -4.0022      2.00000
     13      -3.9837      2.00000
     14      -3.7466      2.00000
     15      -3.4274      2.00000
     16      -3.2678      2.00000
     17      -3.0984      2.00000
     18      -3.0366      2.00000
     19      -2.9117      2.00000
     20      -2.7638      2.00000
     21      -2.6902      2.00000
     22      -2.6620      2.00000
     23      -2.5582      2.00000
     24      -2.4638      2.00000
     25      -2.4301      2.00000
     26      -2.4106      2.00000
     27      -2.4022      2.00000
     28      -2.3353      2.00000
     29      -2.3146      2.00000
     30      -2.2689      2.00000
     31      -1.8064      2.00000
     32      -1.5613      2.00000
     33      -0.4864      0.35203
     34       0.4325      0.00000
     35       1.2125      0.00000
     36       1.3563      0.00000
     37       4.0285      0.00000
     38       4.4379      0.00000
     39       6.9680      0.00000
     40       7.4336      0.00000

 k-point  14 :       0.1429    0.4286    0.0000
  band No.  band energies     occupation 
      1      -5.8272      2.00000
      2      -5.4693      2.00000
      3      -5.2605      2.00000
      4      -4.9597      2.00000
      5      -4.9156      2.00000
      6      -4.8868      2.00000
      7      -4.6943      2.00000
      8      -4.5989      2.00000
      9      -4.2854      2.00000
     10      -4.2744      2.00000
     11      -4.0547      2.00000
     12      -3.9846      2.00000
     13      -3.8521      2.00000
     14      -3.7104      2.00000
     15      -3.4591      2.00000
     16      -3.4396      2.00000
     17      -3.1397      2.00000
     18      -3.0998      2.00000
     19      -2.8763      2.00000
     20      -2.8755      2.00000
     21      -2.7732      2.00000
     22      -2.7425      2.00000
     23      -2.6307      2.00000
     24      -2.5310      2.00000
     25      -2.4807      2.00000
     26      -2.4274      2.00000
     27      -2.3821      2.00000
     28      -2.3719      2.00000
     29      -2.3275      2.00000
     30      -2.3067      2.00000
     31      -1.8167      2.00000
     32      -1.4003      2.00000
     33      -0.0404      0.04280
     34       0.5076      0.00000
     35       1.4387      0.00000
     36       1.7735      0.00000
     37       4.2205      0.00000
     38       4.6829      0.00000
     39       5.4855      0.00000
     40       6.6119      0.00000

 k-point  15 :       0.2857    0.4286    0.0000
  band No.  band energies     occupation 
      1      -5.6879      2.00000
      2      -5.2106      2.00000
      3      -5.1116      2.00000
      4      -4.9814      2.00000
      5      -4.8331      2.00000
      6      -4.8184      2.00000
      7      -4.4646      2.00000
      8      -4.4375      2.00000
      9      -4.2009      2.00000
     10      -4.1600      2.00000
     11      -3.8343      2.00000
     12      -3.8083      2.00000
     13      -3.7686      2.00000
     14      -3.7320      2.00000
     15      -3.6097      2.00000
     16      -3.5596      2.00000
     17      -3.3578      2.00000
     18      -3.2864      2.00000
     19      -3.0796      2.00000
     20      -2.9900      2.00000
     21      -2.8936      2.00000
     22      -2.7920      2.00000
     23      -2.7111      2.00000
     24      -2.6075      2.00000
     25      -2.5521      2.00000
     26      -2.4954      2.00000
     27      -2.3868      2.00000
     28      -2.3566      2.00000
     29      -2.3135      2.00000
     30      -2.2824      2.00000
     31      -1.8450      2.00000
     32      -0.8549      1.49455
     33       0.4693     -0.12943
     34       0.9207      0.00000
     35       1.8721      0.00000
     36       2.7694      0.00000
     37       3.6112      0.00000
     38       4.5341      0.00000
     39       4.7836      0.00000
     40       5.3701      0.00000

 k-point  16 :       0.4286    0.4286    0.0000
  band No.  band energies     occupation 
      1      -5.5503      2.00000
      2      -5.3850      2.00000
      3      -4.8721      2.00000
      4      -4.7813      2.00000
      5      -4.6618      2.00000
      6      -4.6195      2.00000
      7      -4.2603      2.00000
      8      -4.1686      2.00000
      9      -4.1298      2.00000
     10      -4.1173      2.00000
     11      -3.9651      2.00000
     12      -3.9108      2.00000
     13      -3.7845      2.00000
     14      -3.7582      2.00000
     15      -3.5956      2.00000
     16      -3.5826      2.00000
     17      -3.5029      2.00000
     18      -3.4753      2.00000
     19      -3.1482      2.00000
     20      -3.1190      2.00000
     21      -2.8578      2.00000
     22      -2.8064      2.00000
     23      -2.7158      2.00000
     24      -2.6813      2.00000
     25      -2.5395      2.00000
     26      -2.4547      2.00000
     27      -2.4092      2.00000
     28      -2.3934      2.00000
     29      -2.2895      2.00000
     30      -2.2654      2.00000
     31      -1.4948      2.00000
     32      -0.4346      0.18331
     33       0.1192     -0.10842
     34       1.2680      0.00000
     35       2.2465      0.00000
     36       3.3068      0.00000
     37       3.5412      0.00000
     38       4.1552      0.00000
     39       4.5519      0.00000
     40       4.7463      0.00000


--------------------------------------------------------------------------------------------------------


 soft charge-density along one line, spin component           1
         0         1         2         3         4         5         6         7         8         9
 total charge-density along one line
 
 pseudopotential strength for first ion, spin component:           1
 -9.512   0.000   0.000   0.000   0.000   1.131   0.000   0.000
  0.000  -9.485   0.000   0.000   0.000   0.000   1.118   0.000
  0.000   0.000  -9.480   0.000  -0.016   0.000   0.000   1.114
  0.000   0.000   0.000  -9.473   0.000   0.000   0.000   0.000
  0.000   0.000  -0.016   0.000  -9.506   0.000   0.000   0.007
  1.131   0.000   0.000   0.000   0.000   1.057   0.000   0.000
  0.000   1.118   0.000   0.000   0.000   0.000   1.063   0.000
  0.000   0.000   1.114   0.000   0.007   0.000   0.000   1.065
  0.000   0.000   0.000   1.111   0.000   0.000   0.000   0.000
  0.000   0.000   0.007   0.000   1.128   0.000   0.000  -0.003
  0.000   0.000  -0.006   0.000  -0.003   0.000   0.000   0.002
  0.000   0.000   0.000   0.000   0.000   0.000   0.000   0.000
  0.000  -0.017   0.000   0.000   0.000   0.000   0.009   0.000
  0.000   0.000  -0.019   0.000   0.001   0.000   0.000   0.010
  0.000   0.000   0.000  -0.016   0.000   0.000   0.000   0.000
  0.000   0.010   0.000   0.000   0.000   0.000  -0.005   0.000
  0.000   0.000   0.011   0.000  -0.001   0.000   0.000  -0.005
  0.000   0.000   0.000   0.009   0.000   0.000   0.000   0.000
 total augmentation occupancy for first ion, spin component:           1
  1.915   0.000   0.000   0.000   0.000  -0.016   0.000   0.000   0.000   0.000   0.000   0.000   0.000   0.000   0.000   0.000
  0.000   1.931   0.000   0.000   0.000   0.000  -0.051   0.000   0.000   0.000   0.000   0.000  -0.004   0.000   0.000  -0.009
  0.000   0.000   1.930   0.000  -0.003   0.000   0.000  -0.032   0.000   0.017   0.014   0.028   0.000   0.022   0.000   0.000
  0.000   0.000   0.000   1.930   0.000   0.000   0.000   0.000  -0.045   0.000   0.000   0.000   0.000   0.000   0.038   0.000
  0.000   0.000  -0.003   0.000   1.918   0.000   0.000   0.016   0.000  -0.027  -0.007   0.016   0.000   0.022   0.000   0.000
 -0.016   0.000   0.000   0.000   0.000   0.046   0.000   0.000   0.000   0.000   0.000   0.000   0.000   0.000   0.000   0.000
  0.000  -0.051   0.000   0.000   0.000   0.000   0.044   0.000   0.000   0.000   0.000   0.000   0.043   0.000   0.000  -0.003
  0.000   0.000  -0.032   0.000   0.016   0.000   0.000   0.051   0.000   0.009  -0.050   0.001   0.000   0.040   0.000   0.000
  0.000   0.000   0.000  -0.045   0.000   0.000   0.000   0.000   0.053   0.000   0.000   0.000   0.000   0.000   0.058   0.000
  0.000   0.000   0.017   0.000  -0.027   0.000   0.000   0.009   0.000   0.053  -0.030   0.007   0.000   0.007   0.000   0.000
  0.000   0.000   0.014   0.000  -0.007   0.000   0.000  -0.050   0.000  -0.030   1.238  -0.265   0.000   0.121   0.000   0.000
  0.000   0.000   0.028   0.000   0.016   0.000   0.000   0.001   0.000   0.007  -0.265   0.100   0.000  -0.058   0.000   0.000
  0.000  -0.004   0.000   0.000   0.000   0.000   0.043   0.000   0.000   0.000   0.000   0.000   0.156   0.000   0.000  -0.009
  0.000   0.000   0.022   0.000   0.022   0.000   0.000   0.040   0.000   0.007   0.121  -0.058   0.000   0.085   0.000   0.000
  0.000   0.000   0.000   0.038   0.000   0.000   0.000   0.000   0.058   0.000   0.000   0.000   0.000   0.000   0.121   0.000
  0.000  -0.009   0.000   0.000   0.000   0.000  -0.003   0.000   0.000   0.000   0.000   0.000  -0.009   0.000   0.000   0.001
  0.000   0.000  -0.011   0.000  -0.001   0.000   0.000  -0.002   0.000   0.000  -0.020   0.007   0.000  -0.007   0.000   0.000
  0.000   0.000   0.000  -0.012   0.000   0.000   0.000   0.000  -0.004   0.000   0.000   0.000   0.000   0.000  -0.008   0.000


------------------------ aborting loop because EDIFF is reached ----------------------------------------


    CHARGE:  cpu time    0.61: real time    0.61
    FORLOC:  cpu time    0.02: real time    0.02
    FORNL :  cpu time    5.53: real time    5.53
    STRESS:  cpu time    8.63: real time    8.63
    FORCOR:  cpu time    0.30: real time    0.30
    FORHAR:  cpu time    0.09: real time    0.09
    MIXING:  cpu time    0.02: real time    0.01

  FORCE on cell =-STRESS in cart. coord.  units (eV):
  Direction    XX          YY          ZZ          XY          YZ          ZX
  --------------------------------------------------------------------------------------
  Alpha Z   278.63144   278.63144   278.63144
  Ewald   18179.15366 18353.85598-22550.33558     0.00000     0.00000     0.00000
  Hartree 20412.08665 20529.08897-19163.21501     0.00000     0.00000     0.00000
  E(xc)    -375.22560  -375.03687  -375.79162     0.00000     0.00000     0.00000
  Local  -39079.23149-39370.50459 41223.77062     0.00000     0.00000     0.00000
  n-local  -223.81592  -222.92560  -224.37840     3.06541     0.00000     0.00000
  augment   336.68690   336.50785   337.99398     0.00001     0.00000     0.00001
  Kinetic   469.95603   468.92660   472.60798     4.70652     0.00000     0.00000
  Fock        0.00000     0.00000     0.00000     0.00000     0.00000     0.00000
  -------------------------------------------------------------------------------------
  Total      -1.75834    -1.45623    -0.71661     0.00000     0.00000     0.00000
  in kB     -17.06625   -14.13400    -6.95536     0.00000     0.00000     0.00000
  external pressure =      -12.72 kB  Pullay stress =        0.00 kB


 VOLUME and BASIS-vectors are now :
 -----------------------------------------------------------------------------
  energy-cutoff  :      415.00
  volume of cell :      165.07
      direct lattice vectors                 reciprocal lattice vectors
     3.631354857  0.000000000  0.000000000     0.275379311  0.000000000  0.000000000
     0.000000000  2.567755644  0.000000000     0.000000000  0.389445157  0.000000000
     0.000000000  0.000000000 17.703266931     0.000000000  0.000000000  0.056486749

  length of vectors
     3.631354857  2.567755644 17.703266931     0.275379311  0.389445157  0.056486749


 FORCES acting on ions
    electron-ion (+dipol)            ewald-force                    non-local-force                 convergence-correction
 -----------------------------------------------------------------------------------------------
   -.882E-14 0.487E-14 0.311E+04   -.277E-13 0.237E-13 -.310E+04   0.000E+00 0.000E+00 -.400E+01   -.383E-13 0.795E-14 -.651E-03
   -.526E-13 0.195E-14 0.633E+03   0.524E-14 0.223E-13 -.633E+03   0.000E+00 0.000E+00 -.533E+00   -.567E-13 0.552E-15 -.156E-02
   -.650E-13 0.431E-13 -.204E+04   -.189E-13 0.379E-13 0.204E+04   0.000E+00 0.000E+00 -.874E+00   -.681E-13 0.187E-13 -.198E-02
   0.604E-12 0.139E-13 0.204E+04   0.106E-13 -.726E-14 -.204E+04   0.000E+00 0.000E+00 0.874E+00   0.921E-13 0.116E-13 0.171E-02
   0.610E-12 0.983E-12 -.633E+03   -.136E-13 0.834E-14 0.633E+03   0.000E+00 0.000E+00 0.533E+00   0.111E-12 0.259E-13 0.109E-02
   0.637E-12 -.509E-12 -.311E+04   0.193E-13 0.692E-14 0.310E+04   0.000E+00 0.000E+00 0.400E+01   0.106E-12 -.203E-13 0.600E-03
 -----------------------------------------------------------------------------------------------
   0.173E-11 0.538E-12 0.316E-03   -.251E-13 0.918E-13 0.909E-12   0.000E+00 0.000E+00 0.444E-15   0.146E-12 0.444E-13 -.803E-03
 
 
 POSITION                                       TOTAL-FORCE (eV/Angst)
 -----------------------------------------------------------------------------------
      0.00000      0.00000      0.06184         0.000000      0.000000      0.037369
      0.00000      0.00000      2.55863         0.000000      0.000000      0.130246
      0.00000      0.00000      5.19241         0.000000      0.000000     -0.007404
      1.81568      1.28388      1.22698         0.000000      0.000000      0.007404
      1.81568      1.28388      3.86076         0.000000      0.000000     -0.130246
      1.81568      1.28388      6.35755         0.000000      0.000000     -0.037369
 -----------------------------------------------------------------------------------
    total drift:                                0.000000      0.000000     -0.000488


--------------------------------------------------------------------------------------------------------



  FREE ENERGIE OF THE ION-ELECTRON SYSTEM (eV)
  ---------------------------------------------------
  free  energy   TOTEN  =       -20.555331 eV

  energy  without entropy=      -20.555331  energy(sigma->0) =      -20.555331
 
 d Force = 0.9116589E-02[-0.626E-03, 0.189E-01]  d Energy = 0.1087186E-01-0.176E-02
 d Force = 0.6248140E+02[ 0.627E+02, 0.623E+02]  d Ewald  = 0.6249374E+02-0.123E-01


--------------------------------------------------------------------------------------------------------


    POTLOK:  cpu time    0.33: real time    0.33


--------------------------------------------------------------------------------------------------------




--------------------------------------------------------------------------------------------------------


    WAVPRE:  cpu time    0.06: real time    0.06
    FEWALD:  cpu time    0.00: real time    0.00
    ORTHCH:  cpu time    1.19: real time    1.19
     LOOP+:  cpu time  159.54: real time  159.54


----------------------------------------- Iteration    8(   1)  ---------------------------------------


    POTLOK:  cpu time    0.30: real time    0.30
    SETDIJ:  cpu time    0.03: real time    0.03
     EDDAV:  cpu time   13.04: real time   13.04
 BZINTS: Fermi energy: -0.839342; 66.000000 electrons
         Band energy:-237.838124;  BLOECHL correction: -0.188701
       DOS:  cpu time    0.04: real time    0.04
    CHARGE:  cpu time    0.59: real time    0.59
    MIXING:  cpu time    0.01: real time    0.01
    --------------------------------------------
      LOOP:  cpu time   14.01: real time   14.01

 eigenvalue-minimisations  :  1280
 total energy-change (2. order) :-0.1423695E-02  (-0.2414145E-01)
 number of electron      65.9999709 magnetization 
 augmentation part       43.2544143 magnetization 

 Broyden mixing:
  rms(total) = 0.31592E-02    rms(broyden)= 0.31562E-02
  rms(prec ) = 0.34061E-02
  weight for this iteration     100.00

 Free energy of the ion-electron system (eV)
  ---------------------------------------------------
  alpha Z        PSCENC =       278.63143507
  Ewald energy   TEWEN  =     13998.86621579
  -1/2 Hartree   DENC   =    -21794.13922203
  -exchange  EXHF       =         0.00000000
  -V(xc)+E(xc)   XCENC  =       255.73790819
  PAW double counting   =      6554.33130521    -7421.97477677
  entropy T*S    EENTRO =         0.00000000
  eigenvalues    EBANDS =      -237.83812391
  atomic energy  EATOM  =      8345.82850422
  ---------------------------------------------------
  free energy    TOTEN  =       -20.55675424 eV

  energy without entropy =      -20.55675424  energy(sigma->0) =      -20.55675424


--------------------------------------------------------------------------------------------------------




----------------------------------------- Iteration    8(   2)  ---------------------------------------


    POTLOK:  cpu time    0.30: real time    0.30
    SETDIJ:  cpu time    0.03: real time    0.03
     EDDAV:  cpu time   13.96: real time   13.96
 BZINTS: Fermi energy: -0.840460; 66.000000 electrons
         Band energy:-237.963037;  BLOECHL correction: -0.188719
       DOS:  cpu time    0.04: real time    0.04
    CHARGE:  cpu time    0.62: real time    0.63
    MIXING:  cpu time    0.01: real time    0.01
    --------------------------------------------
      LOOP:  cpu time   14.96: real time   14.96

 eigenvalue-minimisations  :  1392
 total energy-change (2. order) :-0.2665504E-04  (-0.7934141E-04)
 number of electron      65.9999709 magnetization 
 augmentation part       43.2561622 magnetization 

 Broyden mixing:
  rms(total) = 0.27105E-02    rms(broyden)= 0.27101E-02
  rms(prec ) = 0.29319E-02
  weight for this iteration     100.00

 eigenvalues of (default mixing * dielectric matrix)
  average eigenvalue GAMMA=   0.6773
  0.6773

 Free energy of the ion-electron system (eV)
  ---------------------------------------------------
  alpha Z        PSCENC =       278.63143507
  Ewald energy   TEWEN  =     13998.86621579
  -1/2 Hartree   DENC   =    -21794.02906833
  -exchange  EXHF       =         0.00000000
  -V(xc)+E(xc)   XCENC  =       255.73464227
  PAW double counting   =      6554.33694268    -7421.96241587
  entropy T*S    EENTRO =         0.00000000
  eigenvalues    EBANDS =      -237.96303673
  atomic energy  EATOM  =      8345.82850422
  ---------------------------------------------------
  free energy    TOTEN  =       -20.55678089 eV

  energy without entropy =      -20.55678089  energy(sigma->0) =      -20.55678089


--------------------------------------------------------------------------------------------------------




----------------------------------------- Iteration    8(   3)  ---------------------------------------


    POTLOK:  cpu time    0.30: real time    0.30
    SETDIJ:  cpu time    0.03: real time    0.03
     EDDAV:  cpu time   13.81: real time   13.81
 BZINTS: Fermi energy: -0.840554; 66.000000 electrons
         Band energy:-237.962376;  BLOECHL correction: -0.188710
       DOS:  cpu time    0.04: real time    0.04
    CHARGE:  cpu time    0.60: real time    0.60
    MIXING:  cpu time    0.01: real time    0.01
    --------------------------------------------
      LOOP:  cpu time   14.79: real time   14.80

 eigenvalue-minimisations  :  1376
 total energy-change (2. order) : 0.7271612E-05  (-0.1107623E-04)
 number of electron      65.9999709 magnetization 
 augmentation part       43.2559829 magnetization 

 Broyden mixing:
  rms(total) = 0.17634E-02    rms(broyden)= 0.17633E-02
  rms(prec ) = 0.19781E-02
  weight for this iteration     100.00

 eigenvalues of (default mixing * dielectric matrix)
  average eigenvalue GAMMA=   1.3754
  0.4154  2.3353

 Free energy of the ion-electron system (eV)
  ---------------------------------------------------
  alpha Z        PSCENC =       278.63143507
  Ewald energy   TEWEN  =     13998.86621579
  -1/2 Hartree   DENC   =    -21794.01779086
  -exchange  EXHF       =         0.00000000
  -V(xc)+E(xc)   XCENC  =       255.73550542
  PAW double counting   =      6554.42824967    -7422.06651660
  entropy T*S    EENTRO =         0.00000000
  eigenvalues    EBANDS =      -237.96237632
  atomic energy  EATOM  =      8345.82850422
  ---------------------------------------------------
  free energy    TOTEN  =       -20.55677362 eV

  energy without entropy =      -20.55677362  energy(sigma->0) =      -20.55677362


--------------------------------------------------------------------------------------------------------




----------------------------------------- Iteration    8(   4)  ---------------------------------------


    POTLOK:  cpu time    0.30: real time    0.30
    SETDIJ:  cpu time    0.04: real time    0.03
     EDDAV:  cpu time   17.52: real time   17.52
 BZINTS: Fermi energy: -0.839769; 66.000000 electrons
         Band energy:-237.885760;  BLOECHL correction: -0.188673
       DOS:  cpu time    0.04: real time    0.04
    CHARGE:  cpu time    0.60: real time    0.60
    MIXING:  cpu time    0.01: real time    0.01
    --------------------------------------------
      LOOP:  cpu time   18.51: real time   18.50

 eigenvalue-minimisations  :  1880
 total energy-change (2. order) : 0.1874119E-04  (-0.2207060E-05)
 number of electron      65.9999709 magnetization 
 augmentation part       43.2548308 magnetization 

 Broyden mixing:
  rms(total) = 0.54676E-03    rms(broyden)= 0.54673E-03
  rms(prec ) = 0.62587E-03
  weight for this iteration     100.00

 eigenvalues of (default mixing * dielectric matrix)
  average eigenvalue GAMMA=   1.2366
  2.6629  0.6326  0.4142

 Free energy of the ion-electron system (eV)
  ---------------------------------------------------
  alpha Z        PSCENC =       278.63143507
  Ewald energy   TEWEN  =     13998.86621579
  -1/2 Hartree   DENC   =    -21794.06845013
  -exchange  EXHF       =         0.00000000
  -V(xc)+E(xc)   XCENC  =       255.73670472
  PAW double counting   =      6554.62867454    -7422.29407916
  entropy T*S    EENTRO =         0.00000000
  eigenvalues    EBANDS =      -237.88575992
  atomic energy  EATOM  =      8345.82850422
  ---------------------------------------------------
  free energy    TOTEN  =       -20.55675488 eV

  energy without entropy =      -20.55675488  energy(sigma->0) =      -20.55675488


--------------------------------------------------------------------------------------------------------




----------------------------------------- Iteration    8(   5)  ---------------------------------------


    POTLOK:  cpu time    0.30: real time    0.30
    SETDIJ:  cpu time    0.03: real time    0.03
     EDDAV:  cpu time   13.94: real time   13.95
 BZINTS: Fermi energy: -0.840315; 66.000000 electrons
         Band energy:-237.942097;  BLOECHL correction: -0.188689
       DOS:  cpu time    0.04: real time    0.04
    CHARGE:  cpu time    0.62: real time    0.61
    MIXING:  cpu time    0.01: real time    0.01
    --------------------------------------------
      LOOP:  cpu time   14.94: real time   14.94

 eigenvalue-minimisations  :  1392
 total energy-change (2. order) : 0.4865773E-05  (-0.7949712E-06)
 number of electron      65.9999709 magnetization 
 augmentation part       43.2554021 magnetization 

 Broyden mixing:
  rms(total) = 0.35979E-03    rms(broyden)= 0.35977E-03
  rms(prec ) = 0.39475E-03
  weight for this iteration     100.00

 eigenvalues of (default mixing * dielectric matrix)
  average eigenvalue GAMMA=   1.0702
  2.5560  0.6670  0.6670  0.3906

 Free energy of the ion-electron system (eV)
  ---------------------------------------------------
  alpha Z        PSCENC =       278.63143507
  Ewald energy   TEWEN  =     13998.86621579
  -1/2 Hartree   DENC   =    -21794.02046767
  -exchange  EXHF       =         0.00000000
  -V(xc)+E(xc)   XCENC  =       255.73534182
  PAW double counting   =      6554.61189248    -7422.26757515
  entropy T*S    EENTRO =         0.00000000
  eigenvalues    EBANDS =      -237.94209656
  atomic energy  EATOM  =      8345.82850422
  ---------------------------------------------------
  free energy    TOTEN  =       -20.55675001 eV

  energy without entropy =      -20.55675001  energy(sigma->0) =      -20.55675001


--------------------------------------------------------------------------------------------------------




----------------------------------------- Iteration    8(   6)  ---------------------------------------


    POTLOK:  cpu time    0.30: real time    0.30
    SETDIJ:  cpu time    0.03: real time    0.03
     EDDAV:  cpu time    9.70: real time    9.70
 BZINTS: Fermi energy: -0.840374; 66.000000 electrons
         Band energy:-237.948813;  BLOECHL correction: -0.188692
       DOS:  cpu time    0.04: real time    0.04
    --------------------------------------------
      LOOP:  cpu time   10.07: real time   10.07

 eigenvalue-minimisations  :   816
 total energy-change (2. order) : 0.3190380E-06  (-0.1046493E-06)
 number of electron      65.9999709 magnetization 
 augmentation part       43.2554021 magnetization 

 Free energy of the ion-electron system (eV)
  ---------------------------------------------------
  alpha Z        PSCENC =       278.63143507
  Ewald energy   TEWEN  =     13998.86621579
  -1/2 Hartree   DENC   =    -21794.01653272
  -exchange  EXHF       =         0.00000000
  -V(xc)+E(xc)   XCENC  =       255.73513488
  PAW double counting   =      6554.60023189    -7422.25292595
  entropy T*S    EENTRO =         0.00000000
  eigenvalues    EBANDS =      -237.94881287
  atomic energy  EATOM  =      8345.82850422
  ---------------------------------------------------
  free energy    TOTEN  =       -20.55674970 eV

  energy without entropy =      -20.55674970  energy(sigma->0) =      -20.55674970


--------------------------------------------------------------------------------------------------------




 average (electrostatic) potential at core
  the test charge radii are     1.0053
  (the norm of the test charge is              1.0000)
       1 -44.0884       2 -44.4935       3 -44.4328       4 -44.4329       5 -44.4934
       6 -44.0883
 
 
 
 E-fermi :  -0.8404     XC(G=0):  -6.6173     alpha+bet : -4.1343


 k-point   1 :       0.0000    0.0000    0.0000
  band No.  band energies     occupation 
      1      -9.4808      2.00000
      2      -8.0626      2.00000
      3      -6.0781      2.00000
      4      -5.3382      2.00000
      5      -5.0010      2.00000
      6      -4.8702      2.00000
      7      -4.5694      2.00000
      8      -4.3802      2.00000
      9      -4.1208      2.00000
     10      -4.1191      2.00000
     11      -4.0791      2.00000
     12      -3.8096      2.00000
     13      -3.7509      2.00000
     14      -3.6693      2.00000
     15      -3.6077      2.00000
     16      -3.5032      2.00000
     17      -3.4176      2.00000
     18      -3.4003      2.00000
     19      -3.2012      2.00000
     20      -3.1826      2.00000
     21      -3.0686      2.00000
     22      -3.0607      2.00000
     23      -2.9843      2.00000
     24      -2.9264      2.00000
     25      -2.8458      2.00000
     26      -2.7866      2.00000
     27      -2.6272      2.00000
     28      -2.5167      2.00000
     29      -2.4826      2.00000
     30      -2.4046      2.00000
     31      -2.3327      2.00000
     32      -2.2456      2.00000
     33      -2.2036      2.00000
     34      -1.3217      2.13459
     35       0.8030      0.00000
     36       1.6548      0.00000
     37       2.9982      0.00000
     38       3.3684      0.00000
     39       3.6737      0.00000
     40       5.5298      0.00000

 k-point   2 :       0.1429    0.0000    0.0000
  band No.  band energies     occupation 
      1      -9.2412      2.00000
      2      -7.8491      2.00000
      3      -5.9820      2.00000
      4      -5.3343      2.00000
      5      -4.9842      2.00000
      6      -4.9014      2.00000
      7      -4.7196      2.00000
      8      -4.3473      2.00000
      9      -4.0601      2.00000
     10      -3.9939      2.00000
     11      -3.9938      2.00000
     12      -3.8094      2.00000
     13      -3.6374      2.00000
     14      -3.6137      2.00000
     15      -3.5851      2.00000
     16      -3.5065      2.00000
     17      -3.4556      2.00000
     18      -3.4233      2.00000
     19      -3.3689      2.00000
     20      -3.1617      2.00000
     21      -3.1498      2.00000
     22      -3.0057      2.00000
     23      -2.9744      2.00000
     24      -2.9115      2.00000
     25      -2.8424      2.00000
     26      -2.7652      2.00000
     27      -2.6418      2.00000
     28      -2.5598      2.00000
     29      -2.4499      2.00000
     30      -2.4104      2.00000
     31      -2.3152      2.00000
     32      -2.2404      2.00000
     33      -2.2403      2.00000
     34      -1.2214      2.17382
     35       0.3080     -0.00676
     36       0.9215      0.00000
     37       2.0561      0.00000
     38       3.0717      0.00000
     39       3.5899      0.00000
     40       4.4339      0.00000

 k-point   3 :       0.2857    0.0000    0.0000
  band No.  band energies     occupation 
      1      -8.5412      2.00000
      2      -7.2460      2.00000
      3      -5.7853      2.00000
      4      -5.4818      2.00000
      5      -5.1138      2.00000
      6      -5.0424      2.00000
      7      -4.6838      2.00000
      8      -4.2064      2.00000
      9      -3.9681      2.00000
     10      -3.9517      2.00000
     11      -3.8777      2.00000
     12      -3.7847      2.00000
     13      -3.6119      2.00000
     14      -3.5991      2.00000
     15      -3.5921      2.00000
     16      -3.4876      2.00000
     17      -3.4804      2.00000
     18      -3.3857      2.00000
     19      -3.2634      2.00000
     20      -3.1872      2.00000
     21      -3.0846      2.00000
     22      -3.0834      2.00000
     23      -3.0035      2.00000
     24      -2.8511      2.00000
     25      -2.7794      2.00000
     26      -2.7281      2.00000
     27      -2.7190      2.00000
     28      -2.6360      2.00000
     29      -2.4022      2.00000
     30      -2.3561      2.00000
     31      -2.3106      2.00000
     32      -2.2914      2.00000
     33      -2.2579      2.00000
     34      -1.5411      2.13820
     35      -0.8727      0.68799
     36      -0.2213     -0.00265
     37       1.2974      0.00000
     38       1.6682      0.00000
     39       4.1511      0.00000
     40       4.1527      0.00000

 k-point   4 :       0.4286    0.0000    0.0000
  band No.  band energies     occupation 
      1      -7.4596      2.00000
      2      -6.4239      2.00000
      3      -6.2238      2.00000
      4      -5.7611      2.00000
      5      -5.3002      2.00000
      6      -5.2760      2.00000
      7      -4.4546      2.00000
      8      -4.1925      2.00000
      9      -3.9674      2.00000
     10      -3.8849      2.00000
     11      -3.8057      2.00000
     12      -3.7947      2.00000
     13      -3.6703      2.00000
     14      -3.6647      2.00000
     15      -3.6105      2.00000
     16      -3.5874      2.00000
     17      -3.4056      2.00000
     18      -3.3889      2.00000
     19      -3.3479      2.00000
     20      -3.2671      2.00000
     21      -3.0476      2.00000
     22      -2.9362      2.00000
     23      -2.8123      2.00000
     24      -2.7994      2.00000
     25      -2.6639      2.00000
     26      -2.6366      2.00000
     27      -2.5534      2.00000
     28      -2.4482      2.00000
     29      -2.3833      2.00000
     30      -2.3478      2.00000
     31      -2.3458      2.00000
     32      -2.3081      2.00000
     33      -2.2900      2.00000
     34      -2.2193      2.00000
     35      -1.7583      2.11639
     36      -0.8639      0.21760
     37       0.4280      0.00000
     38       1.1138      0.00000
     39       4.1838      0.00000
     40       5.1271      0.00000

 k-point   5 :       0.0000    0.1429    0.0000
  band No.  band energies     occupation 
      1      -9.0005      2.00000
      2      -7.6146      2.00000
      3      -5.7493      2.00000
      4      -5.1502      2.00000
      5      -4.8425      2.00000
      6      -4.6906      2.00000
      7      -4.3329      2.00000
      8      -4.3225      2.00000
      9      -4.3179      2.00000
     10      -4.2629      2.00000
     11      -4.1998      2.00000
     12      -3.9471      2.00000
     13      -3.9198      2.00000
     14      -3.7253      2.00000
     15      -3.5832      2.00000
     16      -3.4887      2.00000
     17      -3.4610      2.00000
     18      -3.3503      2.00000
     19      -3.1890      2.00000
     20      -3.1659      2.00000
     21      -3.0814      2.00000
     22      -2.9304      2.00000
     23      -2.9225      2.00000
     24      -2.8809      2.00000
     25      -2.8636      2.00000
     26      -2.8369      2.00000
     27      -2.5543      2.00000
     28      -2.5533      2.00000
     29      -2.5319      2.00000
     30      -2.4384      2.00000
     31      -2.4279      2.00000
     32      -2.2229      2.00000
     33      -2.2009      2.00000
     34      -0.9486      1.20732
     35       1.2645      0.00000
     36       2.5744      0.00000
     37       3.4430      0.00000
     38       3.8328      0.00000
     39       4.3688      0.00000
     40       6.0005      0.00000

 k-point   6 :       0.1429    0.1429    0.0000
  band No.  band energies     occupation 
      1      -8.7673      2.00000
      2      -7.4063      2.00000
      3      -5.6485      2.00000
      4      -5.1246      2.00000
      5      -4.8127      2.00000
      6      -4.7079      2.00000
      7      -4.5600      2.00000
      8      -4.2772      2.00000
      9      -4.2152      2.00000
     10      -4.2040      2.00000
     11      -4.0968      2.00000
     12      -3.9552      2.00000
     13      -3.7636      2.00000
     14      -3.7274      2.00000
     15      -3.5766      2.00000
     16      -3.5578      2.00000
     17      -3.4729      2.00000
     18      -3.3611      2.00000
     19      -3.3035      2.00000
     20      -3.2012      2.00000
     21      -3.0651      2.00000
     22      -3.0384      2.00000
     23      -2.9615      2.00000
     24      -2.9552      2.00000
     25      -2.8216      2.00000
     26      -2.6773      2.00000
     27      -2.6218      2.00000
     28      -2.5359      2.00000
     29      -2.5028      2.00000
     30      -2.4382      2.00000
     31      -2.3978      2.00000
     32      -2.3133      2.00000
     33      -2.1565      2.00000
     34      -0.7673      0.74945
     35       1.1098     -0.00478
     36       1.4366      0.00000
     37       2.6379      0.00000
     38       3.5678      0.00000
     39       4.0552      0.00000
     40       4.8800      0.00000

 k-point   7 :       0.2857    0.1429    0.0000
  band No.  band energies     occupation 
      1      -8.0888      2.00000
      2      -6.8224      2.00000
      3      -5.4528      2.00000
      4      -5.2094      2.00000
      5      -4.8839      2.00000
      6      -4.7951      2.00000
      7      -4.5883      2.00000
      8      -4.2182      2.00000
      9      -4.1067      2.00000
     10      -4.0454      2.00000
     11      -3.9961      2.00000
     12      -3.9493      2.00000
     13      -3.7279      2.00000
     14      -3.7067      2.00000
     15      -3.5574      2.00000
     16      -3.4916      2.00000
     17      -3.4415      2.00000
     18      -3.3918      2.00000
     19      -3.3877      2.00000
     20      -3.3102      2.00000
     21      -3.1592      2.00000
     22      -3.1200      2.00000
     23      -3.1008      2.00000
     24      -2.9907      2.00000
     25      -2.7681      2.00000
     26      -2.6816      2.00000
     27      -2.6732      2.00000
     28      -2.5424      2.00000
     29      -2.4608      2.00000
     30      -2.4350      2.00000
     31      -2.3771      2.00000
     32      -2.3639      2.00000
     33      -1.9252      2.00000
     34      -0.8537      1.10959
     35      -0.1899     -0.04932
     36       0.4012     -0.00361
     37       1.8590      0.00000
     38       2.2024      0.00000
     39       4.5477      0.00000
     40       4.6168      0.00000

 k-point   8 :       0.4286    0.1429    0.0000
  band No.  band energies     occupation 
      1      -7.0512      2.00000
      2      -6.0548      2.00000
      3      -5.8748      2.00000
      4      -5.4457      2.00000
      5      -5.0025      2.00000
      6      -4.9898      2.00000
      7      -4.3984      2.00000
      8      -4.1867      2.00000
      9      -4.0041      2.00000
     10      -3.9910      2.00000
     11      -3.9483      2.00000
     12      -3.8946      2.00000
     13      -3.7348      2.00000
     14      -3.7068      2.00000
     15      -3.6903      2.00000
     16      -3.5850      2.00000
     17      -3.4637      2.00000
     18      -3.3880      2.00000
     19      -3.2293      2.00000
     20      -3.2027      2.00000
     21      -3.1512      2.00000
     22      -3.1197      2.00000
     23      -3.0960      2.00000
     24      -3.0629      2.00000
     25      -2.8163      2.00000
     26      -2.7798      2.00000
     27      -2.6447      2.00000
     28      -2.6260      2.00000
     29      -2.4765      2.00000
     30      -2.4562      2.00000
     31      -2.3963      2.00000
     32      -2.1227      2.00000
     33      -1.9670      2.00000
     34      -1.4277      1.90679
     35      -0.9608      1.08704
     36       0.1142     -0.07880
     37       0.8674      0.00000
     38       1.7598      0.00000
     39       4.5235      0.00000
     40       5.4985      0.00000

 k-point   9 :       0.0000    0.2857    0.0000
  band No.  band energies     occupation 
      1      -7.6536      2.00000
      2      -6.4777      2.00000
      3      -5.3379      2.00000
      4      -4.8719      2.00000
      5      -4.7062      2.00000
      6      -4.6918      2.00000
      7      -4.5250      2.00000
      8      -4.4640      2.00000
      9      -4.4470      2.00000
     10      -4.3235      2.00000
     11      -4.2707      2.00000
     12      -3.8722      2.00000
     13      -3.7956      2.00000
     14      -3.7247      2.00000
     15      -3.4928      2.00000
     16      -3.4256      2.00000
     17      -3.3252      2.00000
     18      -3.1507      2.00000
     19      -3.1094      2.00000
     20      -3.0608      2.00000
     21      -2.9852      2.00000
     22      -2.9429      2.00000
     23      -2.8619      2.00000
     24      -2.7708      2.00000
     25      -2.6525      2.00000
     26      -2.6394      2.00000
     27      -2.4964      2.00000
     28      -2.4881      2.00000
     29      -2.4837      2.00000
     30      -2.4456      2.00000
     31      -2.3063      2.00000
     32      -2.2730      2.00000
     33      -1.9403      2.06690
     34       0.1183     -0.08847
     35       2.4498      0.00000
     36       4.1217      0.00000
     37       4.7298      0.00000
     38       4.8040      0.00000
     39       5.0458      0.00000
     40       5.8668      0.00000

 k-point  10 :       0.1429    0.2857    0.0000
  band No.  band energies     occupation 
      1      -7.4536      2.00000
      2      -6.2981      2.00000
      3      -5.2156      2.00000
      4      -4.8144      2.00000
      5      -4.6922      2.00000
      6      -4.6784      2.00000
      7      -4.5545      2.00000
      8      -4.4208      2.00000
      9      -4.3927      2.00000
     10      -4.2664      2.00000
     11      -4.2272      2.00000
     12      -3.9002      2.00000
     13      -3.7902      2.00000
     14      -3.7355      2.00000
     15      -3.5829      2.00000
     16      -3.4719      2.00000
     17      -3.3798      2.00000
     18      -3.2923      2.00000
     19      -3.1168      2.00000
     20      -3.0452      2.00000
     21      -2.9717      2.00000
     22      -2.9007      2.00000
     23      -2.8902      2.00000
     24      -2.8374      2.00000
     25      -2.7977      2.00000
     26      -2.6324      2.00000
     27      -2.5282      2.00000
     28      -2.5155      2.00000
     29      -2.4411      2.00000
     30      -2.3732      2.00000
     31      -2.3400      2.00000
     32      -2.3302      2.00000
     33      -1.6528      1.94165
     34       0.4133     -0.05929
     35       2.6875      0.00000
     36       2.7256      0.00000
     37       4.1368      0.00000
     38       4.5213      0.00000
     39       5.0852      0.00000
     40       5.3294      0.00000

 k-point  11 :       0.2857    0.2857    0.0000
  band No.  band energies     occupation 
      1      -6.8932      2.00000
      2      -5.8156      2.00000
      3      -4.9218      2.00000
      4      -4.8959      2.00000
      5      -4.6808      2.00000
      6      -4.6627      2.00000
      7      -4.4389      2.00000
      8      -4.3645      2.00000
      9      -4.2399      2.00000
     10      -4.1479      2.00000
     11      -4.0990      2.00000
     12      -3.9582      2.00000
     13      -3.7744      2.00000
     14      -3.7683      2.00000
     15      -3.6910      2.00000
     16      -3.6066      2.00000
     17      -3.4801      2.00000
     18      -3.4521      2.00000
     19      -3.1623      2.00000
     20      -3.0701      2.00000
     21      -3.0331      2.00000
     22      -3.0284      2.00000
     23      -2.9822      2.00000
     24      -2.9415      2.00000
     25      -2.7469      2.00000
     26      -2.6950      2.00000
     27      -2.6214      2.00000
     28      -2.5235      2.00000
     29      -2.4562      2.00000
     30      -2.4267      2.00000
     31      -2.3904      2.00000
     32      -2.1223      2.07542
     33      -0.9260      1.37209
     34       0.4223     -0.08351
     35       1.2312     -0.01550
     36       1.7500      0.00000
     37       3.3478      0.00000
     38       3.6822      0.00000
     39       5.4142      0.00000
     40       5.8070      0.00000

 k-point  12 :       0.4286    0.2857    0.0000
  band No.  band energies     occupation 
      1      -6.1177      2.00000
      2      -5.4210      2.00000
      3      -5.1715      2.00000
      4      -4.8242      2.00000
      5      -4.5861      2.00000
      6      -4.5795      2.00000
      7      -4.2992      2.00000
      8      -4.2555      2.00000
      9      -4.1381      2.00000
     10      -4.1115      2.00000
     11      -4.0760      2.00000
     12      -3.9173      2.00000
     13      -3.7623      2.00000
     14      -3.7609      2.00000
     15      -3.7185      2.00000
     16      -3.6891      2.00000
     17      -3.5736      2.00000
     18      -3.5352      2.00000
     19      -3.2436      2.00000
     20      -3.1962      2.00000
     21      -3.0986      2.00000
     22      -3.0623      2.00000
     23      -3.0189      2.00000
     24      -3.0130      2.00000
     25      -2.7679      2.00000
     26      -2.7594      2.00000
     27      -2.6927      2.00000
     28      -2.5852      2.00000
     29      -2.4770      2.00000
     30      -2.4688      2.00000
     31      -2.2086      2.00000
     32      -1.4700      2.04725
     33      -1.1840      1.59775
     34      -0.3230      0.05234
     35       0.3817     -0.08593
     36       1.6791      0.00000
     37       2.3664      0.00000
     38       3.4596      0.00000
     39       5.6007      0.00000
     40       6.5250      0.00000

 k-point  13 :       0.0000    0.4286    0.0000
  band No.  band energies     occupation 
      1      -5.9022      2.00000
      2      -5.5889      2.00000
      3      -5.3725      2.00000
      4      -4.9516      2.00000
      5      -4.9446      2.00000
      6      -4.9428      2.00000
      7      -4.5682      2.00000
      8      -4.5547      2.00000
      9      -4.4678      2.00000
     10      -4.4622      2.00000
     11      -4.0943      2.00000
     12      -4.0078      2.00000
     13      -3.9894      2.00000
     14      -3.7536      2.00000
     15      -3.4285      2.00000
     16      -3.2694      2.00000
     17      -3.0968      2.00000
     18      -3.0344      2.00000
     19      -2.9117      2.00000
     20      -2.7649      2.00000
     21      -2.6912      2.00000
     22      -2.6629      2.00000
     23      -2.5614      2.00000
     24      -2.4668      2.00000
     25      -2.4317      2.00000
     26      -2.4110      2.00000
     27      -2.4052      2.00000
     28      -2.3375      2.00000
     29      -2.3168      2.00000
     30      -2.2710      2.00000
     31      -1.8084      2.00000
     32      -1.5615      2.00000
     33      -0.4896      0.35293
     34       0.4293      0.00000
     35       1.2131      0.00000
     36       1.3564      0.00000
     37       4.0283      0.00000
     38       4.4403      0.00000
     39       6.9723      0.00000
     40       7.4354      0.00000

 k-point  14 :       0.1429    0.4286    0.0000
  band No.  band energies     occupation 
      1      -5.8326      2.00000
      2      -5.4709      2.00000
      3      -5.2626      2.00000
      4      -4.9656      2.00000
      5      -4.9194      2.00000
      6      -4.8873      2.00000
      7      -4.6978      2.00000
      8      -4.6013      2.00000
      9      -4.2862      2.00000
     10      -4.2764      2.00000
     11      -4.0592      2.00000
     12      -3.9892      2.00000
     13      -3.8572      2.00000
     14      -3.7161      2.00000
     15      -3.4594      2.00000
     16      -3.4417      2.00000
     17      -3.1414      2.00000
     18      -3.0985      2.00000
     19      -2.8777      2.00000
     20      -2.8758      2.00000
     21      -2.7781      2.00000
     22      -2.7451      2.00000
     23      -2.6313      2.00000
     24      -2.5317      2.00000
     25      -2.4835      2.00000
     26      -2.4289      2.00000
     27      -2.3828      2.00000
     28      -2.3728      2.00000
     29      -2.3296      2.00000
     30      -2.3086      2.00000
     31      -1.8187      2.00000
     32      -1.4003      2.00000
     33      -0.0443      0.04358
     34       0.5043      0.00000
     35       1.4394      0.00000
     36       1.7736      0.00000
     37       4.2202      0.00000
     38       4.6852      0.00000
     39       5.4823      0.00000
     40       6.6105      0.00000

 k-point  15 :       0.2857    0.4286    0.0000
  band No.  band energies     occupation 
      1      -5.6928      2.00000
      2      -5.2130      2.00000
      3      -5.1144      2.00000
      4      -4.9827      2.00000
      5      -4.8369      2.00000
      6      -4.8229      2.00000
      7      -4.4675      2.00000
      8      -4.4409      2.00000
      9      -4.2021      2.00000
     10      -4.1610      2.00000
     11      -3.8349      2.00000
     12      -3.8106      2.00000
     13      -3.7688      2.00000
     14      -3.7369      2.00000
     15      -3.6143      2.00000
     16      -3.5635      2.00000
     17      -3.3623      2.00000
     18      -3.2916      2.00000
     19      -3.0794      2.00000
     20      -2.9892      2.00000
     21      -2.8955      2.00000
     22      -2.7947      2.00000
     23      -2.7137      2.00000
     24      -2.6083      2.00000
     25      -2.5541      2.00000
     26      -2.4971      2.00000
     27      -2.3881      2.00000
     28      -2.3589      2.00000
     29      -2.3157      2.00000
     30      -2.2835      2.00000
     31      -1.8471      2.00000
     32      -0.8545      1.48749
     33       0.4658     -0.12926
     34       0.9161      0.00000
     35       1.8733      0.00000
     36       2.7689      0.00000
     37       3.6087      0.00000
     38       4.5326      0.00000
     39       4.7818      0.00000
     40       5.3719      0.00000

 k-point  16 :       0.4286    0.4286    0.0000
  band No.  band energies     occupation 
      1      -5.5546      2.00000
      2      -5.3890      2.00000
      3      -4.8728      2.00000
      4      -4.7825      2.00000
      5      -4.6649      2.00000
      6      -4.6247      2.00000
      7      -4.2627      2.00000
      8      -4.1726      2.00000
      9      -4.1300      2.00000
     10      -4.1178      2.00000
     11      -3.9691      2.00000
     12      -3.9118      2.00000
     13      -3.7878      2.00000
     14      -3.7600      2.00000
     15      -3.6004      2.00000
     16      -3.5866      2.00000
     17      -3.5058      2.00000
     18      -3.4785      2.00000
     19      -3.1477      2.00000
     20      -3.1185      2.00000
     21      -2.8607      2.00000
     22      -2.8086      2.00000
     23      -2.7191      2.00000
     24      -2.6844      2.00000
     25      -2.5418      2.00000
     26      -2.4576      2.00000
     27      -2.4104      2.00000
     28      -2.3947      2.00000
     29      -2.2913      2.00000
     30      -2.2669      2.00000
     31      -1.4978      2.00000
     32      -0.4375      0.18270
     33       0.1190     -0.10843
     34       1.2681      0.00000
     35       2.2429      0.00000
     36       3.3042      0.00000
     37       3.5372      0.00000
     38       4.1538      0.00000
     39       4.5476      0.00000
     40       4.7444      0.00000


--------------------------------------------------------------------------------------------------------


 soft charge-density along one line, spin component           1
         0         1         2         3         4         5         6         7         8         9
 total charge-density along one line
 
 pseudopotential strength for first ion, spin component:           1
 -9.513   0.000   0.000   0.000   0.000   1.131   0.000   0.000
  0.000  -9.486   0.000   0.000   0.000   0.000   1.118   0.000
  0.000   0.000  -9.481   0.000  -0.015   0.000   0.000   1.115
  0.000   0.000   0.000  -9.474   0.000   0.000   0.000   0.000
  0.000   0.000  -0.015   0.000  -9.508   0.000   0.000   0.007
  1.131   0.000   0.000   0.000   0.000   1.057   0.000   0.000
  0.000   1.118   0.000   0.000   0.000   0.000   1.063   0.000
  0.000   0.000   1.115   0.000   0.007   0.000   0.000   1.065
  0.000   0.000   0.000   1.112   0.000   0.000   0.000   0.000
  0.000   0.000   0.007   0.000   1.129   0.000   0.000  -0.003
  0.000   0.000  -0.006   0.000  -0.003   0.000   0.000   0.002
  0.000   0.000   0.000   0.000   0.000   0.000   0.000   0.000
  0.000  -0.017   0.000   0.000   0.000   0.000   0.009   0.000
  0.000   0.000  -0.019   0.000   0.001   0.000   0.000   0.010
  0.000   0.000   0.000  -0.016   0.000   0.000   0.000   0.000
  0.000   0.010   0.000   0.000   0.000   0.000  -0.005   0.000
  0.000   0.000   0.011   0.000  -0.001   0.000   0.000  -0.005
  0.000   0.000   0.000   0.009   0.000   0.000   0.000   0.000
 total augmentation occupancy for first ion, spin component:           1
  1.915   0.000   0.000   0.000   0.000  -0.016   0.000   0.000   0.000   0.000   0.000   0.000   0.000   0.000   0.000   0.000
  0.000   1.931   0.000   0.000   0.000   0.000  -0.051   0.000   0.000   0.000   0.000   0.000  -0.004   0.000   0.000  -0.009
  0.000   0.000   1.930   0.000  -0.003   0.000   0.000  -0.032   0.000   0.017   0.014   0.028   0.000   0.022   0.000   0.000
  0.000   0.000   0.000   1.930   0.000   0.000   0.000   0.000  -0.045   0.000   0.000   0.000   0.000   0.000   0.038   0.000
  0.000   0.000  -0.003   0.000   1.918   0.000   0.000   0.016   0.000  -0.027  -0.007   0.016   0.000   0.022   0.000   0.000
 -0.016   0.000   0.000   0.000   0.000   0.046   0.000   0.000   0.000   0.000   0.000   0.000   0.000   0.000   0.000   0.000
  0.000  -0.051   0.000   0.000   0.000   0.000   0.044   0.000   0.000   0.000   0.000   0.000   0.043   0.000   0.000  -0.003
  0.000   0.000  -0.032   0.000   0.016   0.000   0.000   0.051   0.000   0.009  -0.051   0.002   0.000   0.040   0.000   0.000
  0.000   0.000   0.000  -0.045   0.000   0.000   0.000   0.000   0.053   0.000   0.000   0.000   0.000   0.000   0.058   0.000
  0.000   0.000   0.017   0.000  -0.027   0.000   0.000   0.009   0.000   0.053  -0.030   0.007   0.000   0.007   0.000   0.000
  0.000   0.000   0.014   0.000  -0.007   0.000   0.000  -0.051   0.000  -0.030   1.238  -0.265   0.000   0.121   0.000   0.000
  0.000   0.000   0.028   0.000   0.016   0.000   0.000   0.002   0.000   0.007  -0.265   0.100   0.000  -0.058   0.000   0.000
  0.000  -0.004   0.000   0.000   0.000   0.000   0.043   0.000   0.000   0.000   0.000   0.000   0.156   0.000   0.000  -0.009
  0.000   0.000   0.022   0.000   0.022   0.000   0.000   0.040   0.000   0.007   0.121  -0.058   0.000   0.085   0.000   0.000
  0.000   0.000   0.000   0.038   0.000   0.000   0.000   0.000   0.058   0.000   0.000   0.000   0.000   0.000   0.122   0.000
  0.000  -0.009   0.000   0.000   0.000   0.000  -0.003   0.000   0.000   0.000   0.000   0.000  -0.009   0.000   0.000   0.001
  0.000   0.000  -0.011   0.000  -0.001   0.000   0.000  -0.002   0.000   0.000  -0.020   0.007   0.000  -0.007   0.000   0.000
  0.000   0.000   0.000  -0.012   0.000   0.000   0.000   0.000  -0.004   0.000   0.000   0.000   0.000   0.000  -0.008   0.000


------------------------ aborting loop because EDIFF is reached ----------------------------------------


    CHARGE:  cpu time    0.64: real time    0.64
    FORLOC:  cpu time    0.02: real time    0.02
    FORNL :  cpu time    5.54: real time    5.54
    STRESS:  cpu time    8.61: real time    8.61
    FORCOR:  cpu time    0.30: real time    0.30
    FORHAR:  cpu time    0.09: real time    0.09
    MIXING:  cpu time    0.01: real time    0.01

  FORCE on cell =-STRESS in cart. coord.  units (eV):
  Direction    XX          YY          ZZ          XY          YZ          ZX
  --------------------------------------------------------------------------------------
  Alpha Z   278.63144   278.63144   278.63144
  Ewald   18197.00053 18370.43663-22568.57422     0.00000     0.00000     0.00000
  Hartree 20429.18107 20545.38323-19180.52822     0.00000     0.00000     0.00000
  E(xc)    -375.22803  -375.04035  -375.79604     0.00000     0.00000     0.00000
  Local  -39114.16903-39403.39246 41259.26910     0.00000     0.00000     0.00000
  n-local  -223.78791  -222.90692  -224.35066     3.06931     0.00000     0.00000
  augment   336.68040   336.50748   338.01283    -0.00003    -0.00003    -0.00001
  Kinetic   469.95576   468.93065   472.63962     4.70622     0.00000     0.00000
  Fock        0.00000     0.00000     0.00000     0.00000     0.00000     0.00000
  -------------------------------------------------------------------------------------
  Total      -1.73576    -1.45031    -0.69615     0.00000     0.00000     0.00000
  in kB     -16.84711   -14.07656    -6.75674     0.00000     0.00000     0.00000
  external pressure =      -12.56 kB  Pullay stress =        0.00 kB


 VOLUME and BASIS-vectors are now :
 -----------------------------------------------------------------------------
  energy-cutoff  :      415.00
  volume of cell :      165.07
      direct lattice vectors                 reciprocal lattice vectors
     3.631354857  0.000000000  0.000000000     0.275379311  0.000000000  0.000000000
     0.000000000  2.567755644  0.000000000     0.000000000  0.389445157  0.000000000
     0.000000000  0.000000000 17.703266931     0.000000000  0.000000000  0.056486749

  length of vectors
     3.631354857  2.567755644 17.703266931     0.275379311  0.389445157  0.056486749


 FORCES acting on ions
    electron-ion (+dipol)            ewald-force                    non-local-force                 convergence-correction
 -----------------------------------------------------------------------------------------------
   -.320E-13 0.554E-14 0.311E+04   0.377E-14 0.108E-13 -.310E+04   0.000E+00 0.000E+00 -.399E+01   -.571E-13 0.146E-13 -.122E-01
   -.790E-14 -.598E-14 0.632E+03   0.102E-13 0.513E-14 -.632E+03   0.000E+00 0.000E+00 -.543E+00   -.719E-13 0.333E-13 -.131E-01
   -.805E-13 0.866E-14 -.204E+04   0.501E-14 0.783E-14 0.204E+04   0.000E+00 0.000E+00 -.886E+00   0.115E-13 -.600E-14 -.253E-02
   0.605E-12 -.130E-11 0.204E+04   -.133E-13 0.228E-13 -.204E+04   0.000E+00 0.000E+00 0.886E+00   0.239E-13 0.887E-13 0.244E-02
   0.602E-12 0.381E-12 -.632E+03   -.186E-13 0.255E-13 0.632E+03   0.000E+00 0.000E+00 0.543E+00   0.136E-12 0.319E-13 0.130E-01
   0.649E-12 -.561E-12 -.311E+04   -.122E-13 0.198E-13 0.310E+04   0.000E+00 0.000E+00 0.399E+01   0.106E-12 -.206E-13 0.122E-01
 -----------------------------------------------------------------------------------------------
   0.174E-11 -.148E-11 0.460E-03   -.251E-13 0.918E-13 0.455E-12   0.000E+00 0.000E+00 -.444E-15   0.149E-12 0.142E-12 -.275E-03
 
 
 POSITION                                       TOTAL-FORCE (eV/Angst)
 -----------------------------------------------------------------------------------
      0.00000      0.00000      0.06376         0.000000      0.000000      0.037893
      0.00000      0.00000      2.56304         0.000000      0.000000      0.096771
      0.00000      0.00000      5.19274         0.000000      0.000000     -0.012325
      1.81568      1.28388      1.22665         0.000000      0.000000      0.012325
      1.81568      1.28388      3.85635         0.000000      0.000000     -0.096771
      1.81568      1.28388      6.35563         0.000000      0.000000     -0.037893
 -----------------------------------------------------------------------------------
    total drift:                                0.000000      0.000000      0.000184


--------------------------------------------------------------------------------------------------------



  FREE ENERGIE OF THE ION-ELECTRON SYSTEM (eV)
  ---------------------------------------------------
  free  energy   TOTEN  =       -20.556750 eV

  energy  without entropy=      -20.556750  energy(sigma->0) =      -20.556750
 
 d Force = 0.1138662E-02[ 0.991E-03, 0.129E-02]  d Energy = 0.1418469E-02-0.280E-03
 d Force =-0.1618887E+02[-0.162E+02,-0.162E+02]  d Ewald  =-0.1618889E+02 0.199E-04


--------------------------------------------------------------------------------------------------------


    POTLOK:  cpu time    0.33: real time    0.33


--------------------------------------------------------------------------------------------------------


 Conjugate gradient step on ions:
 trial-energy change:   -0.001418  1 .order   -0.001139   -0.001287   -0.000991
  (g-gl).g = 0.134E-03      g.g   = 0.178E-03  gl.gl    = 0.293E-02
 g(Force)  = 0.178E-03   g(Stress)= 0.000E+00 ortho     = 0.441E-04
 gamma     =   0.04562
 trial     =   7.16087
 opt step  =  28.64350  (harmonic =  31.10984) maximal distance =0.01762306
 next E    =   -20.558126   (d E  =  -0.00280)


--------------------------------------------------------------------------------------------------------


    WAVPRE:  cpu time    0.06: real time    0.06
    FEWALD:  cpu time    0.00: real time    0.00
    ORTHCH:  cpu time    1.19: real time    1.19
     LOOP+:  cpu time  104.12: real time  104.13


----------------------------------------- Iteration    9(   1)  ---------------------------------------


    POTLOK:  cpu time    0.30: real time    0.30
    SETDIJ:  cpu time    0.04: real time    0.03
     EDDAV:  cpu time   13.14: real time   13.15
 BZINTS: Fermi energy: -0.842654; 66.000000 electrons
         Band energy:-238.052788;  BLOECHL correction: -0.189579
       DOS:  cpu time    0.04: real time    0.04
    CHARGE:  cpu time    0.64: real time    0.64
    MIXING:  cpu time    0.01: real time    0.01
    --------------------------------------------
      LOOP:  cpu time   14.16: real time   14.17

 eigenvalue-minimisations  :  1280
 total energy-change (2. order) :-0.2210541E-02  (-0.2174093E+00)
 number of electron      65.9999728 magnetization 
 augmentation part       43.2492965 magnetization 

 Broyden mixing:
  rms(total) = 0.95475E-02    rms(broyden)= 0.95386E-02
  rms(prec ) = 0.10288E-01
  weight for this iteration     100.00

 Free energy of the ion-electron system (eV)
  ---------------------------------------------------
  alpha Z        PSCENC =       278.63143507
  Ewald energy   TEWEN  =     14047.37239425
  -1/2 Hartree   DENC   =    -21842.44299981
  -exchange  EXHF       =         0.00000000
  -V(xc)+E(xc)   XCENC  =       255.75615148
  PAW double counting   =      6554.59717260    -7422.24883064
  entropy T*S    EENTRO =         0.00000000
  eigenvalues    EBANDS =      -238.05278773
  atomic energy  EATOM  =      8345.82850422
  ---------------------------------------------------
  free energy    TOTEN  =       -20.55896056 eV

  energy without entropy =      -20.55896056  energy(sigma->0) =      -20.55896056


--------------------------------------------------------------------------------------------------------




----------------------------------------- Iteration    9(   2)  ---------------------------------------


    POTLOK:  cpu time    0.30: real time    0.29
    SETDIJ:  cpu time    0.04: real time    0.03
     EDDAV:  cpu time   14.33: real time   14.33
 BZINTS: Fermi energy: -0.846312; 66.000000 electrons
         Band energy:-238.457437;  BLOECHL correction: -0.189652
       DOS:  cpu time    0.04: real time    0.04
    CHARGE:  cpu time    0.58: real time    0.58
    MIXING:  cpu time    0.01: real time    0.01
    --------------------------------------------
      LOOP:  cpu time   15.29: real time   15.29

 eigenvalue-minimisations  :  1440
 total energy-change (2. order) :-0.4081292E-03  (-0.7209119E-03)
 number of electron      65.9999728 magnetization 
 augmentation part       43.2554781 magnetization 

 Broyden mixing:
  rms(total) = 0.79249E-02    rms(broyden)= 0.79238E-02
  rms(prec ) = 0.85550E-02
  weight for this iteration     100.00

 eigenvalues of (default mixing * dielectric matrix)
  average eigenvalue GAMMA=   0.7234
  0.7234

 Free energy of the ion-electron system (eV)
  ---------------------------------------------------
  alpha Z        PSCENC =       278.63143507
  Ewald energy   TEWEN  =     14047.37239425
  -1/2 Hartree   DENC   =    -21842.08604045
  -exchange  EXHF       =         0.00000000
  -V(xc)+E(xc)   XCENC  =       255.74510503
  PAW double counting   =      6554.58465086    -7422.17798042
  entropy T*S    EENTRO =         0.00000000
  eigenvalues    EBANDS =      -238.45743725
  atomic energy  EATOM  =      8345.82850422
  ---------------------------------------------------
  free energy    TOTEN  =       -20.55936868 eV

  energy without entropy =      -20.55936868  energy(sigma->0) =      -20.55936868


--------------------------------------------------------------------------------------------------------




----------------------------------------- Iteration    9(   3)  ---------------------------------------


    POTLOK:  cpu time    0.30: real time    0.30
    SETDIJ:  cpu time    0.04: real time    0.03
     EDDAV:  cpu time   13.69: real time   13.69
 BZINTS: Fermi energy: -0.846237; 66.000000 electrons
         Band energy:-238.422568;  BLOECHL correction: -0.189583
       DOS:  cpu time    0.04: real time    0.04
    CHARGE:  cpu time    0.62: real time    0.63
    MIXING:  cpu time    0.01: real time    0.01
    --------------------------------------------
      LOOP:  cpu time   14.70: real time   14.70

 eigenvalue-minimisations  :  1360
 total energy-change (2. order) : 0.7513557E-04  (-0.9326979E-04)
 number of electron      65.9999728 magnetization 
 augmentation part       43.2544367 magnetization 

 Broyden mixing:
  rms(total) = 0.53528E-02    rms(broyden)= 0.53525E-02
  rms(prec ) = 0.59970E-02
  weight for this iteration     100.00

 eigenvalues of (default mixing * dielectric matrix)
  average eigenvalue GAMMA=   1.3509
  0.4256  2.2762

 Free energy of the ion-electron system (eV)
  ---------------------------------------------------
  alpha Z        PSCENC =       278.63143507
  Ewald energy   TEWEN  =     14047.37239425
  -1/2 Hartree   DENC   =    -21842.07527604
  -exchange  EXHF       =         0.00000000
  -V(xc)+E(xc)   XCENC  =       255.74858445
  PAW double counting   =      6554.92901449    -7422.57138168
  entropy T*S    EENTRO =         0.00000000
  eigenvalues    EBANDS =      -238.42256830
  atomic energy  EATOM  =      8345.82850422
  ---------------------------------------------------
  free energy    TOTEN  =       -20.55929355 eV

  energy without entropy =      -20.55929355  energy(sigma->0) =      -20.55929355


--------------------------------------------------------------------------------------------------------




----------------------------------------- Iteration    9(   4)  ---------------------------------------


    POTLOK:  cpu time    0.30: real time    0.30
    SETDIJ:  cpu time    0.03: real time    0.03
     EDDAV:  cpu time   16.61: real time   16.61
 BZINTS: Fermi energy: -0.843782; 66.000000 electrons
         Band energy:-238.182578;  BLOECHL correction: -0.189490
       DOS:  cpu time    0.04: real time    0.04
    CHARGE:  cpu time    0.63: real time    0.64
    MIXING:  cpu time    0.01: real time    0.01
    --------------------------------------------
      LOOP:  cpu time   17.62: real time   17.62

 eigenvalue-minimisations  :  1752
 total energy-change (2. order) : 0.7907311E-04  (-0.2054700E-04)
 number of electron      65.9999728 magnetization 
 augmentation part       43.2507897 magnetization 

 Broyden mixing:
  rms(total) = 0.18073E-02    rms(broyden)= 0.18072E-02
  rms(prec ) = 0.20833E-02
  weight for this iteration     100.00

 eigenvalues of (default mixing * dielectric matrix)
  average eigenvalue GAMMA=   1.2422
  2.6858  0.6192  0.4216

 Free energy of the ion-electron system (eV)
  ---------------------------------------------------
  alpha Z        PSCENC =       278.63143507
  Ewald energy   TEWEN  =     14047.37239425
  -1/2 Hartree   DENC   =    -21842.23640960
  -exchange  EXHF       =         0.00000000
  -V(xc)+E(xc)   XCENC  =       255.75242927
  PAW double counting   =      6555.56521533    -7423.29020472
  entropy T*S    EENTRO =         0.00000000
  eigenvalues    EBANDS =      -238.18257830
  atomic energy  EATOM  =      8345.82850422
  ---------------------------------------------------
  free energy    TOTEN  =       -20.55921448 eV

  energy without entropy =      -20.55921448  energy(sigma->0) =      -20.55921448


--------------------------------------------------------------------------------------------------------




----------------------------------------- Iteration    9(   5)  ---------------------------------------


    POTLOK:  cpu time    0.30: real time    0.30
    SETDIJ:  cpu time    0.03: real time    0.03
     EDDAV:  cpu time   15.04: real time   15.04
 BZINTS: Fermi energy: -0.845494; 66.000000 electrons
         Band energy:-238.359264;  BLOECHL correction: -0.189536
       DOS:  cpu time    0.04: real time    0.04
    CHARGE:  cpu time    0.63: real time    0.63
    MIXING:  cpu time    0.01: real time    0.01
    --------------------------------------------
      LOOP:  cpu time   16.06: real time   16.06

 eigenvalue-minimisations  :  1528
 total energy-change (2. order) : 0.2105834E-04  (-0.8690326E-05)
 number of electron      65.9999728 magnetization 
 augmentation part       43.2525027 magnetization 

 Broyden mixing:
  rms(total) = 0.11137E-02    rms(broyden)= 0.11137E-02
  rms(prec ) = 0.12232E-02
  weight for this iteration     100.00

 eigenvalues of (default mixing * dielectric matrix)
  average eigenvalue GAMMA=   1.0396
  2.5975  0.5867  0.5867  0.3876

 Free energy of the ion-electron system (eV)
  ---------------------------------------------------
  alpha Z        PSCENC =       278.63143507
  Ewald energy   TEWEN  =     14047.37239425
  -1/2 Hartree   DENC   =    -21842.08531849
  -exchange  EXHF       =         0.00000000
  -V(xc)+E(xc)   XCENC  =       255.74817222
  PAW double counting   =      6555.53875700    -7423.23387348
  entropy T*S    EENTRO =         0.00000000
  eigenvalues    EBANDS =      -238.35926420
  atomic energy  EATOM  =      8345.82850422
  ---------------------------------------------------
  free energy    TOTEN  =       -20.55919342 eV

  energy without entropy =      -20.55919342  energy(sigma->0) =      -20.55919342


--------------------------------------------------------------------------------------------------------




----------------------------------------- Iteration    9(   6)  ---------------------------------------


    POTLOK:  cpu time    0.30: real time    0.30
    SETDIJ:  cpu time    0.03: real time    0.03
     EDDAV:  cpu time   14.02: real time   14.02
 BZINTS: Fermi energy: -0.845662; 66.000000 electrons
         Band energy:-238.378886;  BLOECHL correction: -0.189544
       DOS:  cpu time    0.04: real time    0.04
    CHARGE:  cpu time    0.60: real time    0.60
    MIXING:  cpu time    0.01: real time    0.01
    --------------------------------------------
      LOOP:  cpu time   15.01: real time   15.01

 eigenvalue-minimisations  :  1400
 total energy-change (2. order) : 0.4729483E-05  (-0.9778446E-06)
 number of electron      65.9999728 magnetization 
 augmentation part       43.2530336 magnetization 

 Broyden mixing:
  rms(total) = 0.64828E-03    rms(broyden)= 0.64826E-03
  rms(prec ) = 0.72817E-03
  weight for this iteration     100.00

 eigenvalues of (default mixing * dielectric matrix)
  average eigenvalue GAMMA=   1.0132
  2.4206  0.8685  0.8685  0.4105  0.4978

 Free energy of the ion-electron system (eV)
  ---------------------------------------------------
  alpha Z        PSCENC =       278.63143507
  Ewald energy   TEWEN  =     14047.37239425
  -1/2 Hartree   DENC   =    -21842.07453259
  -exchange  EXHF       =         0.00000000
  -V(xc)+E(xc)   XCENC  =       255.74748950
  PAW double counting   =      6555.50053410    -7423.18612675
  entropy T*S    EENTRO =         0.00000000
  eigenvalues    EBANDS =      -238.37888649
  atomic energy  EATOM  =      8345.82850422
  ---------------------------------------------------
  free energy    TOTEN  =       -20.55918869 eV

  energy without entropy =      -20.55918869  energy(sigma->0) =      -20.55918869


--------------------------------------------------------------------------------------------------------




----------------------------------------- Iteration    9(   7)  ---------------------------------------


    POTLOK:  cpu time    0.29: real time    0.30
    SETDIJ:  cpu time    0.03: real time    0.03
     EDDAV:  cpu time   13.39: real time   13.39
 BZINTS: Fermi energy: -0.845809; 66.000000 electrons
         Band energy:-238.393882;  BLOECHL correction: -0.189561
       DOS:  cpu time    0.04: real time    0.04
    CHARGE:  cpu time    0.60: real time    0.59
    MIXING:  cpu time    0.01: real time    0.01
    --------------------------------------------
      LOOP:  cpu time   14.36: real time   14.37

 eigenvalue-minimisations  :  1320
 total energy-change (2. order) :-0.9138637E-05  (-0.4125369E-06)
 number of electron      65.9999728 magnetization 
 augmentation part       43.2534756 magnetization 

 Broyden mixing:
  rms(total) = 0.29859E-03    rms(broyden)= 0.29857E-03
  rms(prec ) = 0.33031E-03
  weight for this iteration     100.00

 eigenvalues of (default mixing * dielectric matrix)
  average eigenvalue GAMMA=   1.1776
  2.5604  1.6908  1.1962  0.8140  0.4174  0.3868

 Free energy of the ion-electron system (eV)
  ---------------------------------------------------
  alpha Z        PSCENC =       278.63143507
  Ewald energy   TEWEN  =     14047.37239425
  -1/2 Hartree   DENC   =    -21842.06799048
  -exchange  EXHF       =         0.00000000
  -V(xc)+E(xc)   XCENC  =       255.74689776
  PAW double counting   =      6555.46892000    -7423.14547665
  entropy T*S    EENTRO =         0.00000000
  eigenvalues    EBANDS =      -238.39388200
  atomic energy  EATOM  =      8345.82850422
  ---------------------------------------------------
  free energy    TOTEN  =       -20.55919783 eV

  energy without entropy =      -20.55919783  energy(sigma->0) =      -20.55919783


--------------------------------------------------------------------------------------------------------




----------------------------------------- Iteration    9(   8)  ---------------------------------------


    POTLOK:  cpu time    0.30: real time    0.30
    SETDIJ:  cpu time    0.03: real time    0.03
     EDDAV:  cpu time    9.63: real time    9.63
 BZINTS: Fermi energy: -0.845680; 66.000000 electrons
         Band energy:-238.377446;  BLOECHL correction: -0.189554
       DOS:  cpu time    0.04: real time    0.04
    CHARGE:  cpu time    0.64: real time    0.64
    MIXING:  cpu time    0.01: real time    0.01
    --------------------------------------------
      LOOP:  cpu time   10.65: real time   10.65

 eigenvalue-minimisations  :   808
 total energy-change (2. order) :-0.4089052E-05  (-0.1376879E-06)
 number of electron      65.9999728 magnetization 
 augmentation part       43.2532175 magnetization 

 Broyden mixing:
  rms(total) = 0.11872E-03    rms(broyden)= 0.11871E-03
  rms(prec ) = 0.13294E-03
  weight for this iteration     100.00

 eigenvalues of (default mixing * dielectric matrix)
  average eigenvalue GAMMA=   1.1395
  2.5808  1.6109  1.4565  0.7641  0.7641  0.3855  0.4144

 Free energy of the ion-electron system (eV)
  ---------------------------------------------------
  alpha Z        PSCENC =       278.63143507
  Ewald energy   TEWEN  =     14047.37239425
  -1/2 Hartree   DENC   =    -21842.07871545
  -exchange  EXHF       =         0.00000000
  -V(xc)+E(xc)   XCENC  =       255.74739997
  PAW double counting   =      6555.51321245    -7423.19598599
  entropy T*S    EENTRO =         0.00000000
  eigenvalues    EBANDS =      -238.37744643
  atomic energy  EATOM  =      8345.82850422
  ---------------------------------------------------
  free energy    TOTEN  =       -20.55920192 eV

  energy without entropy =      -20.55920192  energy(sigma->0) =      -20.55920192


--------------------------------------------------------------------------------------------------------




----------------------------------------- Iteration    9(   9)  ---------------------------------------


    POTLOK:  cpu time    0.30: real time    0.30
    SETDIJ:  cpu time    0.04: real time    0.03
     EDDAV:  cpu time    9.65: real time    9.65
 BZINTS: Fermi energy: -0.845775; 66.000000 electrons
         Band energy:-238.386277;  BLOECHL correction: -0.189557
       DOS:  cpu time    0.04: real time    0.04
    --------------------------------------------
      LOOP:  cpu time   10.03: real time   10.03

 eigenvalue-minimisations  :   808
 total energy-change (2. order) : 0.1963126E-06  (-0.4261840E-07)
 number of electron      65.9999728 magnetization 
 augmentation part       43.2532175 magnetization 

 Free energy of the ion-electron system (eV)
  ---------------------------------------------------
  alpha Z        PSCENC =       278.63143507
  Ewald energy   TEWEN  =     14047.37239425
  -1/2 Hartree   DENC   =    -21842.07214730
  -exchange  EXHF       =         0.00000000
  -V(xc)+E(xc)   XCENC  =       255.74718278
  PAW double counting   =      6555.50557822    -7423.18587159
  entropy T*S    EENTRO =         0.00000000
  eigenvalues    EBANDS =      -238.38627737
  atomic energy  EATOM  =      8345.82850422
  ---------------------------------------------------
  free energy    TOTEN  =       -20.55920172 eV

  energy without entropy =      -20.55920172  energy(sigma->0) =      -20.55920172


--------------------------------------------------------------------------------------------------------




 average (electrostatic) potential at core
  the test charge radii are     1.0053
  (the norm of the test charge is              1.0000)
       1 -44.0919       2 -44.5035       3 -44.4372       4 -44.4373       5 -44.5034
       6 -44.0918
 
 
 
 E-fermi :  -0.8458     XC(G=0):  -6.6092     alpha+bet : -4.1343


 k-point   1 :       0.0000    0.0000    0.0000
  band No.  band energies     occupation 
      1      -9.4964      2.00000
      2      -8.0586      2.00000
      3      -6.0980      2.00000
      4      -5.3521      2.00000
      5      -5.0107      2.00000
      6      -4.8707      2.00000
      7      -4.5754      2.00000
      8      -4.3782      2.00000
      9      -4.1407      2.00000
     10      -4.1182      2.00000
     11      -4.0940      2.00000
     12      -3.8116      2.00000
     13      -3.7534      2.00000
     14      -3.6840      2.00000
     15      -3.6053      2.00000
     16      -3.5056      2.00000
     17      -3.4189      2.00000
     18      -3.4008      2.00000
     19      -3.2075      2.00000
     20      -3.1954      2.00000
     21      -3.0947      2.00000
     22      -3.0710      2.00000
     23      -2.9877      2.00000
     24      -2.9341      2.00000
     25      -2.8461      2.00000
     26      -2.7897      2.00000
     27      -2.6244      2.00000
     28      -2.5225      2.00000
     29      -2.4930      2.00000
     30      -2.4114      2.00000
     31      -2.3385      2.00000
     32      -2.2471      2.00000
     33      -2.2058      2.00000
     34      -1.3287      2.13843
     35       0.8299      0.00000
     36       1.6411      0.00000
     37       2.9993      0.00000
     38       3.3876      0.00000
     39       3.6784      0.00000
     40       5.5336      0.00000

 k-point   2 :       0.1429    0.0000    0.0000
  band No.  band energies     occupation 
      1      -9.2567      2.00000
      2      -7.8452      2.00000
      3      -6.0003      2.00000
      4      -5.3482      2.00000
      5      -4.9957      2.00000
      6      -4.9023      2.00000
      7      -4.7247      2.00000
      8      -4.3480      2.00000
      9      -4.0797      2.00000
     10      -4.0145      2.00000
     11      -3.9897      2.00000
     12      -3.8113      2.00000
     13      -3.6530      2.00000
     14      -3.6117      2.00000
     15      -3.5850      2.00000
     16      -3.5076      2.00000
     17      -3.4581      2.00000
     18      -3.4250      2.00000
     19      -3.3836      2.00000
     20      -3.1707      2.00000
     21      -3.1612      2.00000
     22      -3.0051      2.00000
     23      -2.9850      2.00000
     24      -2.9204      2.00000
     25      -2.8559      2.00000
     26      -2.7673      2.00000
     27      -2.6428      2.00000
     28      -2.5650      2.00000
     29      -2.4539      2.00000
     30      -2.4163      2.00000
     31      -2.3209      2.00000
     32      -2.2419      2.00000
     33      -2.2416      2.00000
     34      -1.2281      2.17075
     35       0.2964     -0.00651
     36       0.9469      0.00000
     37       2.0576      0.00000
     38       3.0702      0.00000
     39       3.6084      0.00000
     40       4.4232      0.00000

 k-point   3 :       0.2857    0.0000    0.0000
  band No.  band energies     occupation 
      1      -8.5566      2.00000
      2      -7.2428      2.00000
      3      -5.7997      2.00000
      4      -5.4963      2.00000
      5      -5.1241      2.00000
      6      -5.0435      2.00000
      7      -4.6930      2.00000
      8      -4.2094      2.00000
      9      -3.9729      2.00000
     10      -3.9700      2.00000
     11      -3.8749      2.00000
     12      -3.8036      2.00000
     13      -3.6215      2.00000
     14      -3.6145      2.00000
     15      -3.5934      2.00000
     16      -3.4902      2.00000
     17      -3.4820      2.00000
     18      -3.3953      2.00000
     19      -3.2721      2.00000
     20      -3.1928      2.00000
     21      -3.0993      2.00000
     22      -3.0821      2.00000
     23      -3.0111      2.00000
     24      -2.8606      2.00000
     25      -2.7787      2.00000
     26      -2.7270      2.00000
     27      -2.7160      2.00000
     28      -2.6516      2.00000
     29      -2.4070      2.00000
     30      -2.3615      2.00000
     31      -2.3131      2.00000
     32      -2.2914      2.00000
     33      -2.2586      2.00000
     34      -1.5508      2.13434
     35      -0.8773      0.68576
     36      -0.2185     -0.00413
     37       1.3143      0.00000
     38       1.6573      0.00000
     39       4.1542      0.00000
     40       4.1674      0.00000

 k-point   4 :       0.4286    0.0000    0.0000
  band No.  band energies     occupation 
      1      -7.4748      2.00000
      2      -6.4231      2.00000
      3      -6.2388      2.00000
      4      -5.7685      2.00000
      5      -5.3033      2.00000
      6      -5.2843      2.00000
      7      -4.4676      2.00000
      8      -4.2044      2.00000
      9      -3.9709      2.00000
     10      -3.8990      2.00000
     11      -3.8075      2.00000
     12      -3.8072      2.00000
     13      -3.6795      2.00000
     14      -3.6780      2.00000
     15      -3.6140      2.00000
     16      -3.5911      2.00000
     17      -3.4071      2.00000
     18      -3.3975      2.00000
     19      -3.3525      2.00000
     20      -3.2811      2.00000
     21      -3.0609      2.00000
     22      -2.9505      2.00000
     23      -2.8051      2.00000
     24      -2.7943      2.00000
     25      -2.6664      2.00000
     26      -2.6377      2.00000
     27      -2.5618      2.00000
     28      -2.4568      2.00000
     29      -2.3855      2.00000
     30      -2.3524      2.00000
     31      -2.3483      2.00000
     32      -2.3101      2.00000
     33      -2.2943      2.00000
     34      -2.2176      2.00000
     35      -1.7672      2.11502
     36      -0.8823      0.25503
     37       0.4355      0.00000
     38       1.1259      0.00000
     39       4.1975      0.00000
     40       5.1412      0.00000

 k-point   5 :       0.0000    0.1429    0.0000
  band No.  band energies     occupation 
      1      -9.0161      2.00000
      2      -7.6107      2.00000
      3      -5.7672      2.00000
      4      -5.1650      2.00000
      5      -4.8529      2.00000
      6      -4.6910      2.00000
      7      -4.3543      2.00000
      8      -4.3228      2.00000
      9      -4.3219      2.00000
     10      -4.2627      2.00000
     11      -4.2182      2.00000
     12      -3.9477      2.00000
     13      -3.9228      2.00000
     14      -3.7282      2.00000
     15      -3.5960      2.00000
     16      -3.4986      2.00000
     17      -3.4759      2.00000
     18      -3.3512      2.00000
     19      -3.1843      2.00000
     20      -3.1679      2.00000
     21      -3.0798      2.00000
     22      -2.9520      2.00000
     23      -2.9339      2.00000
     24      -2.8844      2.00000
     25      -2.8726      2.00000
     26      -2.8471      2.00000
     27      -2.5607      2.00000
     28      -2.5549      2.00000
     29      -2.5332      2.00000
     30      -2.4366      2.00000
     31      -2.4326      2.00000
     32      -2.2259      2.00000
     33      -2.2045      2.00000
     34      -0.9527      1.19964
     35       1.2878      0.00000
     36       2.5622      0.00000
     37       3.4449      0.00000
     38       3.8517      0.00000
     39       4.3732      0.00000
     40       6.0045      0.00000

 k-point   6 :       0.1429    0.1429    0.0000
  band No.  band energies     occupation 
      1      -8.7828      2.00000
      2      -7.4026      2.00000
      3      -5.6649      2.00000
      4      -5.1391      2.00000
      5      -4.8249      2.00000
      6      -4.7095      2.00000
      7      -4.5643      2.00000
      8      -4.2871      2.00000
      9      -4.2267      2.00000
     10      -4.2190      2.00000
     11      -4.0986      2.00000
     12      -3.9552      2.00000
     13      -3.7683      2.00000
     14      -3.7368      2.00000
     15      -3.5857      2.00000
     16      -3.5655      2.00000
     17      -3.4825      2.00000
     18      -3.3670      2.00000
     19      -3.3028      2.00000
     20      -3.2132      2.00000
     21      -3.0641      2.00000
     22      -3.0413      2.00000
     23      -2.9669      2.00000
     24      -2.9652      2.00000
     25      -2.8271      2.00000
     26      -2.6846      2.00000
     27      -2.6251      2.00000
     28      -2.5468      2.00000
     29      -2.5084      2.00000
     30      -2.4390      2.00000
     31      -2.4003      2.00000
     32      -2.3198      2.00000
     33      -2.1553      2.00000
     34      -0.7695      0.74349
     35       1.0996     -0.00463
     36       1.4582      0.00000
     37       2.6394      0.00000
     38       3.5677      0.00000
     39       4.0736      0.00000
     40       4.8697      0.00000

 k-point   7 :       0.2857    0.1429    0.0000
  band No.  band energies     occupation 
      1      -8.1043      2.00000
      2      -6.8195      2.00000
      3      -5.4657      2.00000
      4      -5.2237      2.00000
      5      -4.8960      2.00000
      6      -4.7968      2.00000
      7      -4.5960      2.00000
      8      -4.2222      2.00000
      9      -4.1157      2.00000
     10      -4.0491      2.00000
     11      -4.0029      2.00000
     12      -3.9694      2.00000
     13      -3.7411      2.00000
     14      -3.7168      2.00000
     15      -3.5607      2.00000
     16      -3.4947      2.00000
     17      -3.4521      2.00000
     18      -3.4019      2.00000
     19      -3.3902      2.00000
     20      -3.3125      2.00000
     21      -3.1656      2.00000
     22      -3.1202      2.00000
     23      -3.1116      2.00000
     24      -2.9957      2.00000
     25      -2.7752      2.00000
     26      -2.6806      2.00000
     27      -2.6710      2.00000
     28      -2.5497      2.00000
     29      -2.4683      2.00000
     30      -2.4349      2.00000
     31      -2.3842      2.00000
     32      -2.3678      2.00000
     33      -1.9305      2.00000
     34      -0.8627      1.12002
     35      -0.1875     -0.05008
     36       0.4018     -0.00546
     37       1.8748      0.00000
     38       2.1913      0.00000
     39       4.5514      0.00000
     40       4.6313      0.00000

 k-point   8 :       0.4286    0.1429    0.0000
  band No.  band energies     occupation 
      1      -7.0665      2.00000
      2      -6.0552      2.00000
      3      -5.8890      2.00000
      4      -5.4534      2.00000
      5      -5.0107      2.00000
      6      -4.9920      2.00000
      7      -4.4093      2.00000
      8      -4.1965      2.00000
      9      -4.0117      2.00000
     10      -3.9984      2.00000
     11      -3.9549      2.00000
     12      -3.9044      2.00000
     13      -3.7455      2.00000
     14      -3.7252      2.00000
     15      -3.6935      2.00000
     16      -3.5923      2.00000
     17      -3.4688      2.00000
     18      -3.3926      2.00000
     19      -3.2371      2.00000
     20      -3.2064      2.00000
     21      -3.1575      2.00000
     22      -3.1264      2.00000
     23      -3.1071      2.00000
     24      -3.0660      2.00000
     25      -2.8176      2.00000
     26      -2.7795      2.00000
     27      -2.6468      2.00000
     28      -2.6315      2.00000
     29      -2.4833      2.00000
     30      -2.4635      2.00000
     31      -2.3958      2.00000
     32      -2.1244      2.00000
     33      -1.9717      2.00000
     34      -1.4293      1.90412
     35      -0.9703      1.09242
     36       0.1003     -0.08045
     37       0.8762      0.00000
     38       1.7707      0.00000
     39       4.5371      0.00000
     40       5.5125      0.00000

 k-point   9 :       0.0000    0.2857    0.0000
  band No.  band energies     occupation 
      1      -7.6694      2.00000
      2      -6.4753      2.00000
      3      -5.3472      2.00000
      4      -4.8914      2.00000
      5      -4.7246      2.00000
      6      -4.6960      2.00000
      7      -4.5334      2.00000
      8      -4.4690      2.00000
      9      -4.4573      2.00000
     10      -4.3248      2.00000
     11      -4.2759      2.00000
     12      -3.8729      2.00000
     13      -3.8115      2.00000
     14      -3.7422      2.00000
     15      -3.5063      2.00000
     16      -3.4333      2.00000
     17      -3.3312      2.00000
     18      -3.1461      2.00000
     19      -3.1197      2.00000
     20      -3.0676      2.00000
     21      -2.9836      2.00000
     22      -2.9471      2.00000
     23      -2.8642      2.00000
     24      -2.7818      2.00000
     25      -2.6573      2.00000
     26      -2.6474      2.00000
     27      -2.4959      2.00000
     28      -2.4927      2.00000
     29      -2.4834      2.00000
     30      -2.4550      2.00000
     31      -2.3084      2.00000
     32      -2.2770      2.00000
     33      -1.9415      2.06706
     34       0.1217     -0.08662
     35       2.4668      0.00000
     36       4.1133      0.00000
     37       4.7191      0.00000
     38       4.8052      0.00000
     39       5.0587      0.00000
     40       5.8732      0.00000

 k-point  10 :       0.1429    0.2857    0.0000
  band No.  band energies     occupation 
      1      -7.4693      2.00000
      2      -6.2959      2.00000
      3      -5.2239      2.00000
      4      -4.8321      2.00000
      5      -4.7093      2.00000
      6      -4.6860      2.00000
      7      -4.5659      2.00000
      8      -4.4237      2.00000
      9      -4.3961      2.00000
     10      -4.2705      2.00000
     11      -4.2338      2.00000
     12      -3.9039      2.00000
     13      -3.8045      2.00000
     14      -3.7528      2.00000
     15      -3.5834      2.00000
     16      -3.4849      2.00000
     17      -3.3910      2.00000
     18      -3.3074      2.00000
     19      -3.1227      2.00000
     20      -3.0463      2.00000
     21      -2.9750      2.00000
     22      -2.9059      2.00000
     23      -2.8917      2.00000
     24      -2.8359      2.00000
     25      -2.8006      2.00000
     26      -2.6351      2.00000
     27      -2.5307      2.00000
     28      -2.5197      2.00000
     29      -2.4410      2.00000
     30      -2.3781      2.00000
     31      -2.3444      2.00000
     32      -2.3371      2.00000
     33      -1.6610      1.94405
     34       0.4181     -0.06044
     35       2.7030      0.00000
     36       2.7163      0.00000
     37       4.1386      0.00000
     38       4.5141      0.00000
     39       5.0853      0.00000
     40       5.3429      0.00000

 k-point  11 :       0.2857    0.2857    0.0000
  band No.  band energies     occupation 
      1      -6.9088      2.00000
      2      -5.8145      2.00000
      3      -4.9274      2.00000
      4      -4.9082      2.00000
      5      -4.6927      2.00000
      6      -4.6755      2.00000
      7      -4.4529      2.00000
      8      -4.3674      2.00000
      9      -4.2396      2.00000
     10      -4.1528      2.00000
     11      -4.1058      2.00000
     12      -3.9645      2.00000
     13      -3.7833      2.00000
     14      -3.7833      2.00000
     15      -3.7029      2.00000
     16      -3.6209      2.00000
     17      -3.4898      2.00000
     18      -3.4651      2.00000
     19      -3.1616      2.00000
     20      -3.0749      2.00000
     21      -3.0380      2.00000
     22      -3.0310      2.00000
     23      -2.9852      2.00000
     24      -2.9469      2.00000
     25      -2.7471      2.00000
     26      -2.6966      2.00000
     27      -2.6242      2.00000
     28      -2.5289      2.00000
     29      -2.4635      2.00000
     30      -2.4346      2.00000
     31      -2.3913      2.00000
     32      -2.1231      2.07663
     33      -0.9375      1.37905
     34       0.4140     -0.08594
     35       1.2388     -0.01585
     36       1.7508      0.00000
     37       3.3596      0.00000
     38       3.6715      0.00000
     39       5.4053      0.00000
     40       5.8091      0.00000

 k-point  12 :       0.4286    0.2857    0.0000
  band No.  band energies     occupation 
      1      -6.1325      2.00000
      2      -5.4305      2.00000
      3      -5.1779      2.00000
      4      -4.8304      2.00000
      5      -4.5953      2.00000
      6      -4.5850      2.00000
      7      -4.3057      2.00000
      8      -4.2664      2.00000
      9      -4.1418      2.00000
     10      -4.1194      2.00000
     11      -4.0766      2.00000
     12      -3.9225      2.00000
     13      -3.7741      2.00000
     14      -3.7712      2.00000
     15      -3.7324      2.00000
     16      -3.7004      2.00000
     17      -3.5866      2.00000
     18      -3.5464      2.00000
     19      -3.2421      2.00000
     20      -3.1967      2.00000
     21      -3.1056      2.00000
     22      -3.0689      2.00000
     23      -3.0258      2.00000
     24      -3.0176      2.00000
     25      -2.7711      2.00000
     26      -2.7626      2.00000
     27      -2.6951      2.00000
     28      -2.5907      2.00000
     29      -2.4847      2.00000
     30      -2.4752      2.00000
     31      -2.2124      2.00000
     32      -1.4704      2.04795
     33      -1.1905      1.59796
     34      -0.3263      0.05062
     35       0.3738     -0.08592
     36       1.6713      0.00000
     37       2.3714      0.00000
     38       3.4671      0.00000
     39       5.6136      0.00000
     40       6.5216      0.00000

 k-point  13 :       0.0000    0.4286    0.0000
  band No.  band energies     occupation 
      1      -5.9187      2.00000
      2      -5.5939      2.00000
      3      -5.3785      2.00000
      4      -4.9652      2.00000
      5      -4.9553      2.00000
      6      -4.9535      2.00000
      7      -4.5717      2.00000
      8      -4.5595      2.00000
      9      -4.4702      2.00000
     10      -4.4668      2.00000
     11      -4.1145      2.00000
     12      -4.0243      2.00000
     13      -4.0061      2.00000
     14      -3.7749      2.00000
     15      -3.4315      2.00000
     16      -3.2741      2.00000
     17      -3.0917      2.00000
     18      -3.0275      2.00000
     19      -2.9106      2.00000
     20      -2.7680      2.00000
     21      -2.6941      2.00000
     22      -2.6660      2.00000
     23      -2.5700      2.00000
     24      -2.4749      2.00000
     25      -2.4366      2.00000
     26      -2.4142      2.00000
     27      -2.4122      2.00000
     28      -2.3440      2.00000
     29      -2.3230      2.00000
     30      -2.2768      2.00000
     31      -1.8140      2.00000
     32      -1.5615      2.00000
     33      -0.4980      0.35507
     34       0.4199      0.00000
     35       1.2155      0.00000
     36       1.3575      0.00000
     37       4.0279      0.00000
     38       4.4475      0.00000
     39       6.9826      0.00000
     40       7.4396      0.00000

 k-point  14 :       0.1429    0.4286    0.0000
  band No.  band energies     occupation 
      1      -5.8487      2.00000
      2      -5.4759      2.00000
      3      -5.2687      2.00000
      4      -4.9832      2.00000
      5      -4.9306      2.00000
      6      -4.8886      2.00000
      7      -4.7080      2.00000
      8      -4.6080      2.00000
      9      -4.2885      2.00000
     10      -4.2823      2.00000
     11      -4.0727      2.00000
     12      -4.0029      2.00000
     13      -3.8724      2.00000
     14      -3.7335      2.00000
     15      -3.4595      2.00000
     16      -3.4472      2.00000
     17      -3.1464      2.00000
     18      -3.0943      2.00000
     19      -2.8820      2.00000
     20      -2.8767      2.00000
     21      -2.7922      2.00000
     22      -2.7533      2.00000
     23      -2.6321      2.00000
     24      -2.5338      2.00000
     25      -2.4915      2.00000
     26      -2.4327      2.00000
     27      -2.3843      2.00000
     28      -2.3757      2.00000
     29      -2.3357      2.00000
     30      -2.3139      2.00000
     31      -1.8240      2.00000
     32      -1.3995      2.00000
     33      -0.0552      0.04575
     34       0.4949      0.00000
     35       1.4420      0.00000
     36       1.7743      0.00000
     37       4.2191      0.00000
     38       4.6920      0.00000
     39       5.4731      0.00000
     40       6.6068      0.00000

 k-point  15 :       0.2857    0.4286    0.0000
  band No.  band energies     occupation 
      1      -5.7075      2.00000
      2      -5.2206      2.00000
      3      -5.1222      2.00000
      4      -4.9869      2.00000
      5      -4.8475      2.00000
      6      -4.8357      2.00000
      7      -4.4759      2.00000
      8      -4.4511      2.00000
      9      -4.2054      2.00000
     10      -4.1634      2.00000
     11      -3.8438      2.00000
     12      -3.8092      2.00000
     13      -3.7730      2.00000
     14      -3.7482      2.00000
     15      -3.6280      2.00000
     16      -3.5755      2.00000
     17      -3.3753      2.00000
     18      -3.3070      2.00000
     19      -3.0780      2.00000
     20      -2.9862      2.00000
     21      -2.9012      2.00000
     22      -2.8027      2.00000
     23      -2.7211      2.00000
     24      -2.6104      2.00000
     25      -2.5598      2.00000
     26      -2.5020      2.00000
     27      -2.3916      2.00000
     28      -2.3652      2.00000
     29      -2.3219      2.00000
     30      -2.2866      2.00000
     31      -1.8530      2.00000
     32      -0.8527      1.46545
     33       0.4555     -0.12871
     34       0.9029      0.00000
     35       1.8771      0.00000
     36       2.7677      0.00000
     37       3.6018      0.00000
     38       4.5285      0.00000
     39       4.7765      0.00000
     40       5.3770      0.00000

 k-point  16 :       0.4286    0.4286    0.0000
  band No.  band energies     occupation 
      1      -5.5676      2.00000
      2      -5.4008      2.00000
      3      -4.8746      2.00000
      4      -4.7858      2.00000
      5      -4.6737      2.00000
      6      -4.6402      2.00000
      7      -4.2696      2.00000
      8      -4.1843      2.00000
      9      -4.1299      2.00000
     10      -4.1187      2.00000
     11      -3.9816      2.00000
     12      -3.9149      2.00000
     13      -3.7971      2.00000
     14      -3.7643      2.00000
     15      -3.6149      2.00000
     16      -3.5987      2.00000
     17      -3.5140      2.00000
     18      -3.4876      2.00000
     19      -3.1455      2.00000
     20      -3.1163      2.00000
     21      -2.8694      2.00000
     22      -2.8149      2.00000
     23      -2.7288      2.00000
     24      -2.6939      2.00000
     25      -2.5485      2.00000
     26      -2.4660      2.00000
     27      -2.4137      2.00000
     28      -2.3980      2.00000
     29      -2.2965      2.00000
     30      -2.2711      2.00000
     31      -1.5064      2.00000
     32      -0.4458      0.18114
     33       0.1189     -0.10847
     34       1.2685      0.00000
     35       2.2325      0.00000
     36       3.2970      0.00000
     37       3.5251      0.00000
     38       4.1498      0.00000
     39       4.5352      0.00000
     40       4.7390      0.00000


--------------------------------------------------------------------------------------------------------


 soft charge-density along one line, spin component           1
         0         1         2         3         4         5         6         7         8         9
 total charge-density along one line
 
 pseudopotential strength for first ion, spin component:           1
 -9.517   0.000   0.000   0.000   0.000   1.133   0.000   0.000
  0.000  -9.488   0.000   0.000   0.000   0.000   1.119   0.000
  0.000   0.000  -9.483   0.000  -0.015   0.000   0.000   1.116
  0.000   0.000   0.000  -9.476   0.000   0.000   0.000   0.000
  0.000   0.000  -0.015   0.000  -9.511   0.000   0.000   0.007
  1.133   0.000   0.000   0.000   0.000   1.056   0.000   0.000
  0.000   1.119   0.000   0.000   0.000   0.000   1.062   0.000
  0.000   0.000   1.116   0.000   0.007   0.000   0.000   1.064
  0.000   0.000   0.000   1.113   0.000   0.000   0.000   0.000
  0.000   0.000   0.007   0.000   1.130   0.000   0.000  -0.003
  0.000   0.000  -0.006   0.000  -0.003   0.000   0.000   0.002
  0.000   0.000   0.000   0.000   0.000   0.000   0.000   0.000
  0.000  -0.017   0.000   0.000   0.000   0.000   0.009   0.000
  0.000   0.000  -0.019   0.000   0.001   0.000   0.000   0.009
  0.000   0.000   0.000  -0.016   0.000   0.000   0.000   0.000
  0.000   0.010   0.000   0.000   0.000   0.000  -0.005   0.000
  0.000   0.000   0.011   0.000  -0.001   0.000   0.000  -0.005
  0.000   0.000   0.000   0.009   0.000   0.000   0.000   0.000
 total augmentation occupancy for first ion, spin component:           1
  1.915   0.000   0.000   0.000   0.000  -0.015   0.000   0.000   0.000   0.000   0.000   0.000   0.000   0.000   0.000   0.000
  0.000   1.931   0.000   0.000   0.000   0.000  -0.051   0.000   0.000   0.000   0.000   0.000  -0.004   0.000   0.000  -0.009
  0.000   0.000   1.930   0.000  -0.003   0.000   0.000  -0.032   0.000   0.016   0.015   0.028   0.000   0.021   0.000   0.000
  0.000   0.000   0.000   1.930   0.000   0.000   0.000   0.000  -0.045   0.000   0.000   0.000   0.000   0.000   0.038   0.000
  0.000   0.000  -0.003   0.000   1.918   0.000   0.000   0.016   0.000  -0.027  -0.007   0.016   0.000   0.022   0.000   0.000
 -0.015   0.000   0.000   0.000   0.000   0.047   0.000   0.000   0.000   0.000   0.000   0.000   0.000   0.000   0.000   0.000
  0.000  -0.051   0.000   0.000   0.000   0.000   0.044   0.000   0.000   0.000   0.000   0.000   0.043   0.000   0.000  -0.003
  0.000   0.000  -0.032   0.000   0.016   0.000   0.000   0.050   0.000   0.009  -0.053   0.002   0.000   0.040   0.000   0.000
  0.000   0.000   0.000  -0.045   0.000   0.000   0.000   0.000   0.053   0.000   0.000   0.000   0.000   0.000   0.058   0.000
  0.000   0.000   0.016   0.000  -0.027   0.000   0.000   0.009   0.000   0.053  -0.029   0.007   0.000   0.007   0.000   0.000
  0.000   0.000   0.015   0.000  -0.007   0.000   0.000  -0.053   0.000  -0.029   1.240  -0.265   0.000   0.120   0.000   0.000
  0.000   0.000   0.028   0.000   0.016   0.000   0.000   0.002   0.000   0.007  -0.265   0.100   0.000  -0.058   0.000   0.000
  0.000  -0.004   0.000   0.000   0.000   0.000   0.043   0.000   0.000   0.000   0.000   0.000   0.157   0.000   0.000  -0.009
  0.000   0.000   0.021   0.000   0.022   0.000   0.000   0.040   0.000   0.007   0.120  -0.058   0.000   0.085   0.000   0.000
  0.000   0.000   0.000   0.038   0.000   0.000   0.000   0.000   0.058   0.000   0.000   0.000   0.000   0.000   0.122   0.000
  0.000  -0.009   0.000   0.000   0.000   0.000  -0.003   0.000   0.000   0.000   0.000   0.000  -0.009   0.000   0.000   0.001
  0.000   0.000  -0.011   0.000  -0.001   0.000   0.000  -0.002   0.000   0.000  -0.019   0.007   0.000  -0.007   0.000   0.000
  0.000   0.000   0.000  -0.012   0.000   0.000   0.000   0.000  -0.004   0.000   0.000   0.000   0.000   0.000  -0.008   0.000


------------------------ aborting loop because EDIFF is reached ----------------------------------------


    CHARGE:  cpu time    0.62: real time    0.62
    FORLOC:  cpu time    0.02: real time    0.02
    FORNL :  cpu time    5.54: real time    5.54
    STRESS:  cpu time    8.62: real time    8.62
    FORCOR:  cpu time    0.30: real time    0.30
    FORHAR:  cpu time    0.09: real time    0.09
    MIXING:  cpu time    0.01: real time    0.01

  FORCE on cell =-STRESS in cart. coord.  units (eV):
  Direction    XX          YY          ZZ          XY          YZ          ZX
  --------------------------------------------------------------------------------------
  Alpha Z   278.63144   278.63144   278.63144
  Ewald   18250.59389 18420.15269-22623.37747     0.00000     0.00000     0.00000
  Hartree 20480.25738 20594.04216-19232.26649     0.00000     0.00000     0.00000
  E(xc)    -375.23586  -375.05144  -375.81016     0.00000     0.00000     0.00000
  Local  -39218.81205-39501.80020 41365.64398     0.00000     0.00000     0.00000
  n-local  -223.69272  -222.84182  -224.25744     3.08228     0.00000     0.00000
  augment   336.66086   336.50874   338.07217    -0.00003    -0.00005    -0.00003
  Kinetic   469.95617   468.94424   472.73738     4.70529     0.00000     0.00000
  Fock        0.00000     0.00000     0.00000     0.00000     0.00000     0.00000
  -------------------------------------------------------------------------------------
  Total      -1.64091    -1.41418    -0.62659     0.00000     0.00000     0.00000
  in kB     -15.92643   -13.72590    -6.08162     0.00000     0.00000     0.00000
  external pressure =      -11.91 kB  Pullay stress =        0.00 kB


 VOLUME and BASIS-vectors are now :
 -----------------------------------------------------------------------------
  energy-cutoff  :      415.00
  volume of cell :      165.07
      direct lattice vectors                 reciprocal lattice vectors
     3.631354857  0.000000000  0.000000000     0.275379311  0.000000000  0.000000000
     0.000000000  2.567755644  0.000000000     0.000000000  0.389445157  0.000000000
     0.000000000  0.000000000 17.703266931     0.000000000  0.000000000  0.056486749

  length of vectors
     3.631354857  2.567755644 17.703266931     0.275379311  0.389445157  0.056486749


 FORCES acting on ions
    electron-ion (+dipol)            ewald-force                    non-local-force                 convergence-correction
 -----------------------------------------------------------------------------------------------
   -.876E-14 -.198E-13 0.311E+04   0.472E-14 0.119E-13 -.311E+04   0.000E+00 0.000E+00 -.396E+01   -.316E-13 -.153E-13 0.162E-02
   -.652E-13 -.478E-15 0.629E+03   -.215E-14 0.489E-14 -.628E+03   0.000E+00 0.000E+00 -.595E+00   0.954E-13 -.273E-13 -.426E-03
   -.178E-13 -.280E-13 -.205E+04   0.752E-14 0.854E-14 0.205E+04   0.000E+00 0.000E+00 -.927E+00   0.280E-13 -.169E-13 0.122E-02
   0.580E-12 0.380E-12 0.205E+04   -.257E-13 0.183E-13 -.205E+04   0.000E+00 0.000E+00 0.927E+00   0.894E-13 0.245E-13 -.121E-02
   0.643E-12 0.134E-11 -.629E+03   -.768E-14 0.259E-13 0.628E+03   0.000E+00 0.000E+00 0.595E+00   -.512E-13 0.315E-13 0.389E-03
   0.650E-12 0.428E-12 -.311E+04   -.178E-14 0.222E-13 0.311E+04   0.000E+00 0.000E+00 0.396E+01   0.389E-13 0.601E-14 -.159E-02
 -----------------------------------------------------------------------------------------------
   0.178E-11 0.210E-11 0.643E-03   -.251E-13 0.918E-13 0.455E-12   0.000E+00 0.000E+00 0.444E-15   0.169E-12 0.263E-14 0.135E-05
 
 
 POSITION                                       TOTAL-FORCE (eV/Angst)
 -----------------------------------------------------------------------------------
      0.00000      0.00000      0.06954         0.000000      0.000000      0.038633
      0.00000      0.00000      2.57625         0.000000      0.000000     -0.003168
      0.00000      0.00000      5.19373         0.000000      0.000000     -0.027027
      1.81568      1.28388      1.22566         0.000000      0.000000      0.027027
      1.81568      1.28388      3.84313         0.000000      0.000000      0.003168
      1.81568      1.28388      6.34985         0.000000      0.000000     -0.038633
 -----------------------------------------------------------------------------------
    total drift:                                0.000000      0.000000      0.000644


--------------------------------------------------------------------------------------------------------



  FREE ENERGIE OF THE ION-ELECTRON SYSTEM (eV)
  ---------------------------------------------------
  free  energy   TOTEN  =       -20.559202 eV

  energy  without entropy=      -20.559202  energy(sigma->0) =      -20.559202
 
 d Force = 0.1640564E-02[ 0.309E-03, 0.297E-02]  d Energy = 0.2452024E-02-0.811E-03
 d Force =-0.4850563E+02[-0.485E+02,-0.486E+02]  d Ewald  =-0.4850618E+02 0.551E-03


--------------------------------------------------------------------------------------------------------


    POTLOK:  cpu time    0.33: real time    0.33


--------------------------------------------------------------------------------------------------------




--------------------------------------------------------------------------------------------------------


    WAVPRE:  cpu time    0.06: real time    0.06
    FEWALD:  cpu time    0.00: real time    0.00
    ORTHCH:  cpu time    1.17: real time    1.17
     LOOP+:  cpu time  144.69: real time  144.71


----------------------------------------- Iteration   10(   1)  ---------------------------------------


    POTLOK:  cpu time    0.30: real time    0.30
    SETDIJ:  cpu time    0.03: real time    0.03
     EDDAV:  cpu time   13.05: real time   13.06
 BZINTS: Fermi energy: -0.845100; 66.000000 electrons
         Band energy:-238.465631;  BLOECHL correction: -0.189413
       DOS:  cpu time    0.04: real time    0.04
    CHARGE:  cpu time    0.64: real time    0.63
    MIXING:  cpu time    0.01: real time    0.01
    --------------------------------------------
      LOOP:  cpu time   14.07: real time   14.07

 eigenvalue-minimisations  :  1280
 total energy-change (2. order) :-0.1646683E-03  (-0.7842012E-02)
 number of electron      65.9999727 magnetization 
 augmentation part       43.2516147 magnetization 

 Broyden mixing:
  rms(total) = 0.19720E-02    rms(broyden)= 0.19699E-02
  rms(prec ) = 0.21877E-02
  weight for this iteration     100.00

 Free energy of the ion-electron system (eV)
  ---------------------------------------------------
  alpha Z        PSCENC =       278.63143507
  Ewald energy   TEWEN  =     14067.95026438
  -1/2 Hartree   DENC   =    -21862.58066773
  -exchange  EXHF       =         0.00000000
  -V(xc)+E(xc)   XCENC  =       255.75719553
  PAW double counting   =      6555.50335238    -7423.18381905
  entropy T*S    EENTRO =         0.00000000
  eigenvalues    EBANDS =      -238.46563138
  atomic energy  EATOM  =      8345.82850422
  ---------------------------------------------------
  free energy    TOTEN  =       -20.55936658 eV

  energy without entropy =      -20.55936658  energy(sigma->0) =      -20.55936658


--------------------------------------------------------------------------------------------------------




----------------------------------------- Iteration   10(   2)  ---------------------------------------


    POTLOK:  cpu time    0.30: real time    0.30
    SETDIJ:  cpu time    0.04: real time    0.03
     EDDAV:  cpu time   14.23: real time   14.24
 BZINTS: Fermi energy: -0.845266; 66.000000 electrons
         Band energy:-238.498153;  BLOECHL correction: -0.189450
       DOS:  cpu time    0.04: real time    0.04
    CHARGE:  cpu time    0.68: real time    0.68
    MIXING:  cpu time    0.01: real time    0.01
    --------------------------------------------
      LOOP:  cpu time   15.29: real time   15.30

 eigenvalue-minimisations  :  1432
 total energy-change (2. order) :-0.2023784E-04  (-0.2236013E-04)
 number of electron      65.9999727 magnetization 
 augmentation part       43.2527146 magnetization 

 Broyden mixing:
  rms(total) = 0.21624E-02    rms(broyden)= 0.21621E-02
  rms(prec ) = 0.24230E-02
  weight for this iteration     100.00

 eigenvalues of (default mixing * dielectric matrix)
  average eigenvalue GAMMA=   0.4494
  0.4494

 Free energy of the ion-electron system (eV)
  ---------------------------------------------------
  alpha Z        PSCENC =       278.63143507
  Ewald energy   TEWEN  =     14067.95026438
  -1/2 Hartree   DENC   =    -21862.55664882
  -exchange  EXHF       =         0.00000000
  -V(xc)+E(xc)   XCENC  =       255.75423842
  PAW double counting   =      6555.63331940    -7423.30234607
  entropy T*S    EENTRO =         0.00000000
  eigenvalues    EBANDS =      -238.49815342
  atomic energy  EATOM  =      8345.82850422
  ---------------------------------------------------
  free energy    TOTEN  =       -20.55938682 eV

  energy without entropy =      -20.55938682  energy(sigma->0) =      -20.55938682


--------------------------------------------------------------------------------------------------------




----------------------------------------- Iteration   10(   3)  ---------------------------------------


    POTLOK:  cpu time    0.29: real time    0.30
    SETDIJ:  cpu time    0.04: real time    0.03
     EDDAV:  cpu time   13.67: real time   13.67
 BZINTS: Fermi energy: -0.845511; 66.000000 electrons
         Band energy:-238.517238;  BLOECHL correction: -0.189441
       DOS:  cpu time    0.04: real time    0.04
    CHARGE:  cpu time    0.66: real time    0.66
    MIXING:  cpu time    0.01: real time    0.01
    --------------------------------------------
      LOOP:  cpu time   14.71: real time   14.71

 eigenvalue-minimisations  :  1360
 total energy-change (2. order) : 0.1522928E-04  (-0.5591357E-05)
 number of electron      65.9999727 magnetization 
 augmentation part       43.2530014 magnetization 

 Broyden mixing:
  rms(total) = 0.96401E-03    rms(broyden)= 0.96393E-03
  rms(prec ) = 0.10394E-02
  weight for this iteration     100.00

 eigenvalues of (default mixing * dielectric matrix)
  average eigenvalue GAMMA=   1.1381
  0.4425  1.8337

 Free energy of the ion-electron system (eV)
  ---------------------------------------------------
  alpha Z        PSCENC =       278.63143507
  Ewald energy   TEWEN  =     14067.95026438
  -1/2 Hartree   DENC   =    -21862.53279575
  -exchange  EXHF       =         0.00000000
  -V(xc)+E(xc)   XCENC  =       255.75441514
  PAW double counting   =      6555.69825400    -7423.37221082
  entropy T*S    EENTRO =         0.00000000
  eigenvalues    EBANDS =      -238.51723783
  atomic energy  EATOM  =      8345.82850422
  ---------------------------------------------------
  free energy    TOTEN  =       -20.55937159 eV

  energy without entropy =      -20.55937159  energy(sigma->0) =      -20.55937159


--------------------------------------------------------------------------------------------------------




----------------------------------------- Iteration   10(   4)  ---------------------------------------


    POTLOK:  cpu time    0.30: real time    0.30
    SETDIJ:  cpu time    0.03: real time    0.03
     EDDAV:  cpu time   13.49: real time   13.49
 BZINTS: Fermi energy: -0.844861; 66.000000 electrons
         Band energy:-238.450953;  BLOECHL correction: -0.189422
       DOS:  cpu time    0.04: real time    0.04
    CHARGE:  cpu time    0.66: real time    0.66
    MIXING:  cpu time    0.01: real time    0.01
    --------------------------------------------
      LOOP:  cpu time   14.53: real time   14.53

 eigenvalue-minimisations  :  1328
 total energy-change (2. order) :-0.5462809E-05  (-0.1099453E-05)
 number of electron      65.9999727 magnetization 
 augmentation part       43.2519627 magnetization 

 Broyden mixing:
  rms(total) = 0.47070E-03    rms(broyden)= 0.47068E-03
  rms(prec ) = 0.51198E-03
  weight for this iteration     100.00

 eigenvalues of (default mixing * dielectric matrix)
  average eigenvalue GAMMA=   1.2483
  2.7122  0.5887  0.4439

 Free energy of the ion-electron system (eV)
  ---------------------------------------------------
  alpha Z        PSCENC =       278.63143507
  Ewald energy   TEWEN  =     14067.95026438
  -1/2 Hartree   DENC   =    -21862.57391486
  -exchange  EXHF       =         0.00000000
  -V(xc)+E(xc)   XCENC  =       255.75546179
  PAW double counting   =      6555.95130783    -7423.65148286
  entropy T*S    EENTRO =         0.00000000
  eigenvalues    EBANDS =      -238.45095262
  atomic energy  EATOM  =      8345.82850422
  ---------------------------------------------------
  free energy    TOTEN  =       -20.55937706 eV

  energy without entropy =      -20.55937706  energy(sigma->0) =      -20.55937706


--------------------------------------------------------------------------------------------------------




----------------------------------------- Iteration   10(   5)  ---------------------------------------


    POTLOK:  cpu time    0.30: real time    0.30
    SETDIJ:  cpu time    0.04: real time    0.03
     EDDAV:  cpu time   11.74: real time   11.75
 BZINTS: Fermi energy: -0.845130; 66.000000 electrons
         Band energy:-238.479474;  BLOECHL correction: -0.189434
       DOS:  cpu time    0.04: real time    0.04
    CHARGE:  cpu time    0.63: real time    0.63
    MIXING:  cpu time    0.01: real time    0.01
    --------------------------------------------
      LOOP:  cpu time   12.76: real time   12.77

 eigenvalue-minimisations  :  1096
 total energy-change (2. order) : 0.3107927E-05  (-0.3238654E-06)
 number of electron      65.9999727 magnetization 
 augmentation part       43.2524724 magnetization 

 Broyden mixing:
  rms(total) = 0.26030E-03    rms(broyden)= 0.26028E-03
  rms(prec ) = 0.28850E-03
  weight for this iteration     100.00

 eigenvalues of (default mixing * dielectric matrix)
  average eigenvalue GAMMA=   1.0338
  2.6482  0.5459  0.5459  0.3952

 Free energy of the ion-electron system (eV)
  ---------------------------------------------------
  alpha Z        PSCENC =       278.63143507
  Ewald energy   TEWEN  =     14067.95026438
  -1/2 Hartree   DENC   =    -21862.54822214
  -exchange  EXHF       =         0.00000000
  -V(xc)+E(xc)   XCENC  =       255.75431532
  PAW double counting   =      6556.01637903    -7423.71257562
  entropy T*S    EENTRO =         0.00000000
  eigenvalues    EBANDS =      -238.47947420
  atomic energy  EATOM  =      8345.82850422
  ---------------------------------------------------
  free energy    TOTEN  =       -20.55937395 eV

  energy without entropy =      -20.55937395  energy(sigma->0) =      -20.55937395


--------------------------------------------------------------------------------------------------------




----------------------------------------- Iteration   10(   6)  ---------------------------------------


    POTLOK:  cpu time    0.29: real time    0.30
    SETDIJ:  cpu time    0.04: real time    0.03
     EDDAV:  cpu time    9.82: real time    9.83
 BZINTS: Fermi energy: -0.845172; 66.000000 electrons
         Band energy:-238.483842;  BLOECHL correction: -0.189434
       DOS:  cpu time    0.04: real time    0.04
    CHARGE:  cpu time    0.61: real time    0.61
    MIXING:  cpu time    0.01: real time    0.01
    --------------------------------------------
      LOOP:  cpu time   10.82: real time   10.82

 eigenvalue-minimisations  :   832
 total energy-change (2. order) : 0.1489057E-05  (-0.5400627E-07)
 number of electron      65.9999727 magnetization 
 augmentation part       43.2525768 magnetization 

 Broyden mixing:
  rms(total) = 0.14410E-03    rms(broyden)= 0.14410E-03
  rms(prec ) = 0.15982E-03
  weight for this iteration     100.00

 eigenvalues of (default mixing * dielectric matrix)
  average eigenvalue GAMMA=   0.9902
  2.4538  0.9847  0.6898  0.4113  0.4113

 Free energy of the ion-electron system (eV)
  ---------------------------------------------------
  alpha Z        PSCENC =       278.63143507
  Ewald energy   TEWEN  =     14067.95026438
  -1/2 Hartree   DENC   =    -21862.54521047
  -exchange  EXHF       =         0.00000000
  -V(xc)+E(xc)   XCENC  =       255.75422221
  PAW double counting   =      6556.00415210    -7423.69889833
  entropy T*S    EENTRO =         0.00000000
  eigenvalues    EBANDS =      -238.48384163
  atomic energy  EATOM  =      8345.82850422
  ---------------------------------------------------
  free energy    TOTEN  =       -20.55937246 eV

  energy without entropy =      -20.55937246  energy(sigma->0) =      -20.55937246


--------------------------------------------------------------------------------------------------------




----------------------------------------- Iteration   10(   7)  ---------------------------------------


    POTLOK:  cpu time    0.30: real time    0.30
    SETDIJ:  cpu time    0.03: real time    0.03
     EDDAV:  cpu time    9.64: real time    9.64
 BZINTS: Fermi energy: -0.845216; 66.000000 electrons
         Band energy:-238.487515;  BLOECHL correction: -0.189436
       DOS:  cpu time    0.04: real time    0.04
    CHARGE:  cpu time    0.61: real time    0.61
    MIXING:  cpu time    0.01: real time    0.01
    --------------------------------------------
      LOOP:  cpu time   10.64: real time   10.64

 eigenvalue-minimisations  :   808
 total energy-change (2. order) :-0.1073940E-05  (-0.1041950E-07)
 number of electron      65.9999727 magnetization 
 augmentation part       43.2526218 magnetization 

 Broyden mixing:
  rms(total) = 0.54937E-04    rms(broyden)= 0.54934E-04
  rms(prec ) = 0.62478E-04
  weight for this iteration     100.00

 eigenvalues of (default mixing * dielectric matrix)
  average eigenvalue GAMMA=   1.3059
  2.6947  2.6947  0.9048  0.7394  0.4256  0.3762

 Free energy of the ion-electron system (eV)
  ---------------------------------------------------
  alpha Z        PSCENC =       278.63143507
  Ewald energy   TEWEN  =     14067.95026438
  -1/2 Hartree   DENC   =    -21862.54236483
  -exchange  EXHF       =         0.00000000
  -V(xc)+E(xc)   XCENC  =       255.75418234
  PAW double counting   =      6555.99064509    -7423.68452448
  entropy T*S    EENTRO =         0.00000000
  eigenvalues    EBANDS =      -238.48751532
  atomic energy  EATOM  =      8345.82850422
  ---------------------------------------------------
  free energy    TOTEN  =       -20.55937353 eV

  energy without entropy =      -20.55937353  energy(sigma->0) =      -20.55937353


--------------------------------------------------------------------------------------------------------




----------------------------------------- Iteration   10(   8)  ---------------------------------------


    POTLOK:  cpu time    0.30: real time    0.30
    SETDIJ:  cpu time    0.03: real time    0.03
     EDDAV:  cpu time    9.75: real time    9.75
 BZINTS: Fermi energy: -0.845261; 66.000000 electrons
         Band energy:-238.489339;  BLOECHL correction: -0.189435
       DOS:  cpu time    0.04: real time    0.04
    CHARGE:  cpu time    0.64: real time    0.64
    MIXING:  cpu time    0.01: real time    0.01
    --------------------------------------------
      LOOP:  cpu time   10.77: real time   10.77

 eigenvalue-minimisations  :   824
 total energy-change (2. order) :-0.1395443E-05  (-0.6210379E-08)
 number of electron      65.9999727 magnetization 
 augmentation part       43.2525863 magnetization 

 Broyden mixing:
  rms(total) = 0.32547E-04    rms(broyden)= 0.32544E-04
  rms(prec ) = 0.38800E-04
  weight for this iteration     100.00

 eigenvalues of (default mixing * dielectric matrix)
  average eigenvalue GAMMA=   1.1730
  2.5156  2.1211  1.1698  0.4286  0.3730  0.8016  0.8016

 Free energy of the ion-electron system (eV)
  ---------------------------------------------------
  alpha Z        PSCENC =       278.63143507
  Ewald energy   TEWEN  =     14067.95026438
  -1/2 Hartree   DENC   =    -21862.53936268
  -exchange  EXHF       =         0.00000000
  -V(xc)+E(xc)   XCENC  =       255.75423318
  PAW double counting   =      6555.98692739    -7423.68203777
  entropy T*S    EENTRO =         0.00000000
  eigenvalues    EBANDS =      -238.48933870
  atomic energy  EATOM  =      8345.82850422
  ---------------------------------------------------
  free energy    TOTEN  =       -20.55937493 eV

  energy without entropy =      -20.55937493  energy(sigma->0) =      -20.55937493


--------------------------------------------------------------------------------------------------------




----------------------------------------- Iteration   10(   9)  ---------------------------------------


    POTLOK:  cpu time    0.30: real time    0.30
    SETDIJ:  cpu time    0.03: real time    0.03
     EDDAV:  cpu time    9.69: real time    9.69
 BZINTS: Fermi energy: -0.845295; 66.000000 electrons
         Band energy:-238.492109;  BLOECHL correction: -0.189435
       DOS:  cpu time    0.04: real time    0.04
    --------------------------------------------
      LOOP:  cpu time   10.06: real time   10.06

 eigenvalue-minimisations  :   816
 total energy-change (2. order) : 0.5099027E-06  (-0.5221661E-08)
 number of electron      65.9999727 magnetization 
 augmentation part       43.2525863 magnetization 

 Free energy of the ion-electron system (eV)
  ---------------------------------------------------
  alpha Z        PSCENC =       278.63143507
  Ewald energy   TEWEN  =     14067.95026438
  -1/2 Hartree   DENC   =    -21862.53665706
  -exchange  EXHF       =         0.00000000
  -V(xc)+E(xc)   XCENC  =       255.75418459
  PAW double counting   =      6555.99023594    -7423.68523279
  entropy T*S    EENTRO =         0.00000000
  eigenvalues    EBANDS =      -238.49210876
  atomic energy  EATOM  =      8345.82850422
  ---------------------------------------------------
  free energy    TOTEN  =       -20.55937442 eV

  energy without entropy =      -20.55937442  energy(sigma->0) =      -20.55937442


--------------------------------------------------------------------------------------------------------




 average (electrostatic) potential at core
  the test charge radii are     1.0053
  (the norm of the test charge is              1.0000)
       1 -44.0930       2 -44.5050       3 -44.4383       4 -44.4384       5 -44.5049
       6 -44.0929
 
 
 
 E-fermi :  -0.8453     XC(G=0):  -6.6107     alpha+bet : -4.1343


 k-point   1 :       0.0000    0.0000    0.0000
  band No.  band energies     occupation 
      1      -9.5008      2.00000
      2      -8.0612      2.00000
      3      -6.0983      2.00000
      4      -5.3556      2.00000
      5      -5.0133      2.00000
      6      -4.8729      2.00000
      7      -4.5761      2.00000
      8      -4.3795      2.00000
      9      -4.1433      2.00000
     10      -4.1208      2.00000
     11      -4.0947      2.00000
     12      -3.8124      2.00000
     13      -3.7550      2.00000
     14      -3.6869      2.00000
     15      -3.6073      2.00000
     16      -3.5069      2.00000
     17      -3.4213      2.00000
     18      -3.4013      2.00000
     19      -3.2098      2.00000
     20      -3.1975      2.00000
     21      -3.0959      2.00000
     22      -3.0729      2.00000
     23      -2.9887      2.00000
     24      -2.9359      2.00000
     25      -2.8477      2.00000
     26      -2.7913      2.00000
     27      -2.6255      2.00000
     28      -2.5235      2.00000
     29      -2.4938      2.00000
     30      -2.4119      2.00000
     31      -2.3381      2.00000
     32      -2.2474      2.00000
     33      -2.2060      2.00000
     34      -1.3260      2.14164
     35       0.8337      0.00000
     36       1.6374      0.00000
     37       3.0028      0.00000
     38       3.3797      0.00000
     39       3.6774      0.00000
     40       5.5346      0.00000

 k-point   2 :       0.1429    0.0000    0.0000
  band No.  band energies     occupation 
      1      -9.2611      2.00000
      2      -7.8479      2.00000
      3      -6.0009      2.00000
      4      -5.3516      2.00000
      5      -4.9980      2.00000
      6      -4.9046      2.00000
      7      -4.7265      2.00000
      8      -4.3494      2.00000
      9      -4.0810      2.00000
     10      -4.0169      2.00000
     11      -3.9911      2.00000
     12      -3.8135      2.00000
     13      -3.6557      2.00000
     14      -3.6131      2.00000
     15      -3.5857      2.00000
     16      -3.5102      2.00000
     17      -3.4590      2.00000
     18      -3.4257      2.00000
     19      -3.3858      2.00000
     20      -3.1724      2.00000
     21      -3.1632      2.00000
     22      -3.0062      2.00000
     23      -2.9867      2.00000
     24      -2.9214      2.00000
     25      -2.8577      2.00000
     26      -2.7689      2.00000
     27      -2.6440      2.00000
     28      -2.5658      2.00000
     29      -2.4549      2.00000
     30      -2.4169      2.00000
     31      -2.3204      2.00000
     32      -2.2423      2.00000
     33      -2.2420      2.00000
     34      -1.2255      2.16972
     35       0.2935     -0.00618
     36       0.9503      0.00000
     37       2.0571      0.00000
     38       3.0735      0.00000
     39       3.6005      0.00000
     40       4.4243      0.00000

 k-point   3 :       0.2857    0.0000    0.0000
  band No.  band energies     occupation 
      1      -8.5610      2.00000
      2      -7.2456      2.00000
      3      -5.8012      2.00000
      4      -5.5000      2.00000
      5      -5.1261      2.00000
      6      -5.0459      2.00000
      7      -4.6957      2.00000
      8      -4.2112      2.00000
      9      -3.9755      2.00000
     10      -3.9712      2.00000
     11      -3.8768      2.00000
     12      -3.8056      2.00000
     13      -3.6239      2.00000
     14      -3.6173      2.00000
     15      -3.5947      2.00000
     16      -3.4928      2.00000
     17      -3.4825      2.00000
     18      -3.3970      2.00000
     19      -3.2739      2.00000
     20      -3.1931      2.00000
     21      -3.1002      2.00000
     22      -3.0821      2.00000
     23      -3.0124      2.00000
     24      -2.8612      2.00000
     25      -2.7801      2.00000
     26      -2.7287      2.00000
     27      -2.7169      2.00000
     28      -2.6527      2.00000
     29      -2.4078      2.00000
     30      -2.3624      2.00000
     31      -2.3123      2.00000
     32      -2.2921      2.00000
     33      -2.2592      2.00000
     34      -1.5524      2.13292
     35      -0.8752      0.68235
     36      -0.2191     -0.00402
     37       1.3170      0.00000
     38       1.6589      0.00000
     39       4.1568      0.00000
     40       4.1607      0.00000

 k-point   4 :       0.4286    0.0000    0.0000
  band No.  band energies     occupation 
      1      -7.4791      2.00000
      2      -6.4264      2.00000
      3      -6.2427      2.00000
      4      -5.7714      2.00000
      5      -5.3052      2.00000
      6      -5.2864      2.00000
      7      -4.4703      2.00000
      8      -4.2071      2.00000
      9      -3.9728      2.00000
     10      -3.9005      2.00000
     11      -3.8095      2.00000
     12      -3.8087      2.00000
     13      -3.6821      2.00000
     14      -3.6807      2.00000
     15      -3.6157      2.00000
     16      -3.5927      2.00000
     17      -3.4094      2.00000
     18      -3.3982      2.00000
     19      -3.3544      2.00000
     20      -3.2821      2.00000
     21      -3.0622      2.00000
     22      -2.9515      2.00000
     23      -2.8059      2.00000
     24      -2.7954      2.00000
     25      -2.6658      2.00000
     26      -2.6389      2.00000
     27      -2.5626      2.00000
     28      -2.4564      2.00000
     29      -2.3863      2.00000
     30      -2.3533      2.00000
     31      -2.3492      2.00000
     32      -2.3109      2.00000
     33      -2.2950      2.00000
     34      -2.2165      2.00000
     35      -1.7676      2.11509
     36      -0.8809      0.25238
     37       0.4371      0.00000
     38       1.1274      0.00000
     39       4.2011      0.00000
     40       5.1477      0.00000

 k-point   5 :       0.0000    0.1429    0.0000
  band No.  band energies     occupation 
      1      -9.0205      2.00000
      2      -7.6134      2.00000
      3      -5.7679      2.00000
      4      -5.1685      2.00000
      5      -4.8557      2.00000
      6      -4.6935      2.00000
      7      -4.3572      2.00000
      8      -4.3258      2.00000
      9      -4.3232      2.00000
     10      -4.2640      2.00000
     11      -4.2190      2.00000
     12      -3.9504      2.00000
     13      -3.9244      2.00000
     14      -3.7295      2.00000
     15      -3.5978      2.00000
     16      -3.5011      2.00000
     17      -3.4768      2.00000
     18      -3.3520      2.00000
     19      -3.1867      2.00000
     20      -3.1697      2.00000
     21      -3.0819      2.00000
     22      -2.9532      2.00000
     23      -2.9348      2.00000
     24      -2.8848      2.00000
     25      -2.8737      2.00000
     26      -2.8479      2.00000
     27      -2.5615      2.00000
     28      -2.5555      2.00000
     29      -2.5343      2.00000
     30      -2.4372      2.00000
     31      -2.4336      2.00000
     32      -2.2262      2.00000
     33      -2.2039      2.00000
     34      -0.9501      1.19264
     35       1.2914      0.00000
     36       2.5590      0.00000
     37       3.4481      0.00000
     38       3.8438      0.00000
     39       4.3721      0.00000
     40       6.0054      0.00000

 k-point   6 :       0.1429    0.1429    0.0000
  band No.  band energies     occupation 
      1      -8.7872      2.00000
      2      -7.4054      2.00000
      3      -5.6660      2.00000
      4      -5.1426      2.00000
      5      -4.8276      2.00000
      6      -4.7122      2.00000
      7      -4.5666      2.00000
      8      -4.2887      2.00000
      9      -4.2292      2.00000
     10      -4.2206      2.00000
     11      -4.1003      2.00000
     12      -3.9577      2.00000
     13      -3.7699      2.00000
     14      -3.7385      2.00000
     15      -3.5869      2.00000
     16      -3.5663      2.00000
     17      -3.4852      2.00000
     18      -3.3685      2.00000
     19      -3.3039      2.00000
     20      -3.2149      2.00000
     21      -3.0656      2.00000
     22      -3.0434      2.00000
     23      -2.9678      2.00000
     24      -2.9660      2.00000
     25      -2.8279      2.00000
     26      -2.6852      2.00000
     27      -2.6263      2.00000
     28      -2.5477      2.00000
     29      -2.5090      2.00000
     30      -2.4396      2.00000
     31      -2.4008      2.00000
     32      -2.3199      2.00000
     33      -2.1548      2.00000
     34      -0.7671      0.73721
     35       1.0972     -0.00441
     36       1.4615      0.00000
     37       2.6388      0.00000
     38       3.5708      0.00000
     39       4.0657      0.00000
     40       4.8709      0.00000

 k-point   7 :       0.2857    0.1429    0.0000
  band No.  band energies     occupation 
      1      -8.1087      2.00000
      2      -6.8223      2.00000
      3      -5.4677      2.00000
      4      -5.2274      2.00000
      5      -4.8984      2.00000
      6      -4.7995      2.00000
      7      -4.5987      2.00000
      8      -4.2241      2.00000
      9      -4.1176      2.00000
     10      -4.0515      2.00000
     11      -4.0049      2.00000
     12      -3.9715      2.00000
     13      -3.7430      2.00000
     14      -3.7183      2.00000
     15      -3.5628      2.00000
     16      -3.4958      2.00000
     17      -3.4546      2.00000
     18      -3.4033      2.00000
     19      -3.3907      2.00000
     20      -3.3133      2.00000
     21      -3.1668      2.00000
     22      -3.1216      2.00000
     23      -3.1126      2.00000
     24      -2.9974      2.00000
     25      -2.7764      2.00000
     26      -2.6813      2.00000
     27      -2.6717      2.00000
     28      -2.5504      2.00000
     29      -2.4687      2.00000
     30      -2.4355      2.00000
     31      -2.3843      2.00000
     32      -2.3680      2.00000
     33      -1.9301      2.00000
     34      -0.8640      1.12484
     35      -0.1857     -0.05052
     36       0.4012     -0.00534
     37       1.8776      0.00000
     38       2.1928      0.00000
     39       4.5542      0.00000
     40       4.6248      0.00000

 k-point   8 :       0.4286    0.1429    0.0000
  band No.  band energies     occupation 
      1      -7.0709      2.00000
      2      -6.0587      2.00000
      3      -5.8929      2.00000
      4      -5.4565      2.00000
      5      -5.0130      2.00000
      6      -4.9942      2.00000
      7      -4.4119      2.00000
      8      -4.1990      2.00000
      9      -4.0136      2.00000
     10      -4.0001      2.00000
     11      -3.9572      2.00000
     12      -3.9069      2.00000
     13      -3.7475      2.00000
     14      -3.7272      2.00000
     15      -3.6953      2.00000
     16      -3.5949      2.00000
     17      -3.4701      2.00000
     18      -3.3938      2.00000
     19      -3.2383      2.00000
     20      -3.2076      2.00000
     21      -3.1586      2.00000
     22      -3.1274      2.00000
     23      -3.1076      2.00000
     24      -3.0664      2.00000
     25      -2.8190      2.00000
     26      -2.7806      2.00000
     27      -2.6473      2.00000
     28      -2.6321      2.00000
     29      -2.4834      2.00000
     30      -2.4633      2.00000
     31      -2.3962      2.00000
     32      -2.1250      2.00000
     33      -1.9725      2.00000
     34      -1.4294      1.90460
     35      -0.9699      1.09217
     36       0.1014     -0.08035
     37       0.8781      0.00000
     38       1.7723      0.00000
     39       4.5410      0.00000
     40       5.5186      0.00000

 k-point   9 :       0.0000    0.2857    0.0000
  band No.  band energies     occupation 
      1      -7.6739      2.00000
      2      -6.4784      2.00000
      3      -5.3498      2.00000
      4      -4.8943      2.00000
      5      -4.7277      2.00000
      6      -4.6992      2.00000
      7      -4.5366      2.00000
      8      -4.4712      2.00000
      9      -4.4599      2.00000
     10      -4.3274      2.00000
     11      -4.2785      2.00000
     12      -3.8747      2.00000
     13      -3.8134      2.00000
     14      -3.7432      2.00000
     15      -3.5096      2.00000
     16      -3.4341      2.00000
     17      -3.3326      2.00000
     18      -3.1473      2.00000
     19      -3.1205      2.00000
     20      -3.0679      2.00000
     21      -2.9846      2.00000
     22      -2.9475      2.00000
     23      -2.8654      2.00000
     24      -2.7824      2.00000
     25      -2.6574      2.00000
     26      -2.6479      2.00000
     27      -2.4967      2.00000
     28      -2.4932      2.00000
     29      -2.4841      2.00000
     30      -2.4559      2.00000
     31      -2.3087      2.00000
     32      -2.2775      2.00000
     33      -1.9401      2.06668
     34       0.1243     -0.08508
     35       2.4700      0.00000
     36       4.1123      0.00000
     37       4.7164      0.00000
     38       4.8063      0.00000
     39       5.0532      0.00000
     40       5.8692      0.00000

 k-point  10 :       0.1429    0.2857    0.0000
  band No.  band energies     occupation 
      1      -7.4738      2.00000
      2      -6.2991      2.00000
      3      -5.2266      2.00000
      4      -4.8351      2.00000
      5      -4.7125      2.00000
      6      -4.6891      2.00000
      7      -4.5692      2.00000
      8      -4.4262      2.00000
      9      -4.3985      2.00000
     10      -4.2726      2.00000
     11      -4.2363      2.00000
     12      -3.9055      2.00000
     13      -3.8064      2.00000
     14      -3.7538      2.00000
     15      -3.5847      2.00000
     16      -3.4882      2.00000
     17      -3.3917      2.00000
     18      -3.3083      2.00000
     19      -3.1238      2.00000
     20      -3.0472      2.00000
     21      -2.9755      2.00000
     22      -2.9069      2.00000
     23      -2.8928      2.00000
     24      -2.8364      2.00000
     25      -2.8012      2.00000
     26      -2.6356      2.00000
     27      -2.5314      2.00000
     28      -2.5205      2.00000
     29      -2.4417      2.00000
     30      -2.3784      2.00000
     31      -2.3446      2.00000
     32      -2.3372      2.00000
     33      -1.6598      1.94379
     34       0.4206     -0.06049
     35       2.7062      0.00000
     36       2.7143      0.00000
     37       4.1379      0.00000
     38       4.5136      0.00000
     39       5.0860      0.00000
     40       5.3368      0.00000

 k-point  11 :       0.2857    0.2857    0.0000
  band No.  band energies     occupation 
      1      -6.9133      2.00000
      2      -5.8178      2.00000
      3      -4.9304      2.00000
      4      -4.9118      2.00000
      5      -4.6956      2.00000
      6      -4.6785      2.00000
      7      -4.4557      2.00000
      8      -4.3702      2.00000
      9      -4.2421      2.00000
     10      -4.1553      2.00000
     11      -4.1078      2.00000
     12      -3.9659      2.00000
     13      -3.7848      2.00000
     14      -3.7837      2.00000
     15      -3.7051      2.00000
     16      -3.6221      2.00000
     17      -3.4905      2.00000
     18      -3.4684      2.00000
     19      -3.1626      2.00000
     20      -3.0761      2.00000
     21      -3.0387      2.00000
     22      -3.0320      2.00000
     23      -2.9862      2.00000
     24      -2.9483      2.00000
     25      -2.7477      2.00000
     26      -2.6974      2.00000
     27      -2.6252      2.00000
     28      -2.5295      2.00000
     29      -2.4641      2.00000
     30      -2.4344      2.00000
     31      -2.3912      2.00000
     32      -2.1236      2.07658
     33      -0.9362      1.37848
     34       0.4126     -0.08687
     35       1.2412     -0.01584
     36       1.7507      0.00000
     37       3.3621      0.00000
     38       3.6728      0.00000
     39       5.4048      0.00000
     40       5.8104      0.00000

 k-point  12 :       0.4286    0.2857    0.0000
  band No.  band energies     occupation 
      1      -6.1369      2.00000
      2      -5.4345      2.00000
      3      -5.1812      2.00000
      4      -4.8338      2.00000
      5      -4.5979      2.00000
      6      -4.5876      2.00000
      7      -4.3085      2.00000
      8      -4.2691      2.00000
      9      -4.1445      2.00000
     10      -4.1218      2.00000
     11      -4.0790      2.00000
     12      -3.9241      2.00000
     13      -3.7753      2.00000
     14      -3.7716      2.00000
     15      -3.7334      2.00000
     16      -3.7023      2.00000
     17      -3.5881      2.00000
     18      -3.5492      2.00000
     19      -3.2435      2.00000
     20      -3.1980      2.00000
     21      -3.1066      2.00000
     22      -3.0699      2.00000
     23      -3.0271      2.00000
     24      -3.0185      2.00000
     25      -2.7720      2.00000
     26      -2.7637      2.00000
     27      -2.6959      2.00000
     28      -2.5913      2.00000
     29      -2.4845      2.00000
     30      -2.4751      2.00000
     31      -2.2132      2.00000
     32      -1.4709      2.04902
     33      -1.1914      1.59949
     34      -0.3263      0.05119
     35       0.3751     -0.08590
     36       1.6733      0.00000
     37       2.3733      0.00000
     38       3.4689      0.00000
     39       5.6176      0.00000
     40       6.5240      0.00000

 k-point  13 :       0.0000    0.4286    0.0000
  band No.  band energies     occupation 
      1      -5.9231      2.00000
      2      -5.5977      2.00000
      3      -5.3821      2.00000
      4      -4.9684      2.00000
      5      -4.9584      2.00000
      6      -4.9568      2.00000
      7      -4.5744      2.00000
      8      -4.5622      2.00000
      9      -4.4725      2.00000
     10      -4.4703      2.00000
     11      -4.1169      2.00000
     12      -4.0261      2.00000
     13      -4.0076      2.00000
     14      -3.7777      2.00000
     15      -3.4332      2.00000
     16      -3.2759      2.00000
     17      -3.0920      2.00000
     18      -3.0281      2.00000
     19      -2.9111      2.00000
     20      -2.7688      2.00000
     21      -2.6946      2.00000
     22      -2.6670      2.00000
     23      -2.5703      2.00000
     24      -2.4747      2.00000
     25      -2.4368      2.00000
     26      -2.4144      2.00000
     27      -2.4131      2.00000
     28      -2.3442      2.00000
     29      -2.3239      2.00000
     30      -2.2772      2.00000
     31      -1.8149      2.00000
     32      -1.5620      2.00000
     33      -0.4965      0.35409
     34       0.4182      0.00000
     35       1.2151      0.00000
     36       1.3595      0.00000
     37       4.0290      0.00000
     38       4.4491      0.00000
     39       6.9827      0.00000
     40       7.4414      0.00000

 k-point  14 :       0.1429    0.4286    0.0000
  band No.  band energies     occupation 
      1      -5.8530      2.00000
      2      -5.4796      2.00000
      3      -5.2723      2.00000
      4      -4.9863      2.00000
      5      -4.9338      2.00000
      6      -4.8921      2.00000
      7      -4.7107      2.00000
      8      -4.6107      2.00000
      9      -4.2905      2.00000
     10      -4.2849      2.00000
     11      -4.0746      2.00000
     12      -4.0047      2.00000
     13      -3.8751      2.00000
     14      -3.7365      2.00000
     15      -3.4604      2.00000
     16      -3.4490      2.00000
     17      -3.1473      2.00000
     18      -3.0949      2.00000
     19      -2.8825      2.00000
     20      -2.8777      2.00000
     21      -2.7931      2.00000
     22      -2.7538      2.00000
     23      -2.6327      2.00000
     24      -2.5343      2.00000
     25      -2.4918      2.00000
     26      -2.4332      2.00000
     27      -2.3846      2.00000
     28      -2.3763      2.00000
     29      -2.3362      2.00000
     30      -2.3143      2.00000
     31      -1.8251      2.00000
     32      -1.4001      2.00000
     33      -0.0537      0.04517
     34       0.4930      0.00000
     35       1.4415      0.00000
     36       1.7764      0.00000
     37       4.2202      0.00000
     38       4.6936      0.00000
     39       5.4713      0.00000
     40       6.6067      0.00000

 k-point  15 :       0.2857    0.4286    0.0000
  band No.  band energies     occupation 
      1      -5.7116      2.00000
      2      -5.2242      2.00000
      3      -5.1258      2.00000
      4      -4.9904      2.00000
      5      -4.8503      2.00000
      6      -4.8385      2.00000
      7      -4.4786      2.00000
      8      -4.4538      2.00000
      9      -4.2074      2.00000
     10      -4.1649      2.00000
     11      -3.8452      2.00000
     12      -3.8118      2.00000
     13      -3.7749      2.00000
     14      -3.7502      2.00000
     15      -3.6302      2.00000
     16      -3.5781      2.00000
     17      -3.3762      2.00000
     18      -3.3078      2.00000
     19      -3.0794      2.00000
     20      -2.9876      2.00000
     21      -2.9021      2.00000
     22      -2.8037      2.00000
     23      -2.7219      2.00000
     24      -2.6112      2.00000
     25      -2.5608      2.00000
     26      -2.5028      2.00000
     27      -2.3920      2.00000
     28      -2.3654      2.00000
     29      -2.3224      2.00000
     30      -2.2873      2.00000
     31      -1.8544      2.00000
     32      -0.8532      1.46900
     33       0.4531     -0.12848
     34       0.9045      0.00000
     35       1.8766      0.00000
     36       2.7699      0.00000
     37       3.6008      0.00000
     38       4.5281      0.00000
     39       4.7780      0.00000
     40       5.3787      0.00000

 k-point  16 :       0.4286    0.4286    0.0000
  band No.  band energies     occupation 
      1      -5.5714      2.00000
      2      -5.4045      2.00000
      3      -4.8774      2.00000
      4      -4.7883      2.00000
      5      -4.6770      2.00000
      6      -4.6432      2.00000
      7      -4.2722      2.00000
      8      -4.1867      2.00000
      9      -4.1316      2.00000
     10      -4.1202      2.00000
     11      -3.9835      2.00000
     12      -3.9165      2.00000
     13      -3.7983      2.00000
     14      -3.7648      2.00000
     15      -3.6175      2.00000
     16      -3.6020      2.00000
     17      -3.5159      2.00000
     18      -3.4898      2.00000
     19      -3.1471      2.00000
     20      -3.1179      2.00000
     21      -2.8705      2.00000
     22      -2.8161      2.00000
     23      -2.7297      2.00000
     24      -2.6948      2.00000
     25      -2.5495      2.00000
     26      -2.4668      2.00000
     27      -2.4142      2.00000
     28      -2.3985      2.00000
     29      -2.2970      2.00000
     30      -2.2716      2.00000
     31      -1.5084      2.00000
     32      -0.4482      0.18411
     33       0.1184     -0.10817
     34       1.2681      0.00000
     35       2.2343      0.00000
     36       3.2962      0.00000
     37       3.5277      0.00000
     38       4.1492      0.00000
     39       4.5342      0.00000
     40       4.7397      0.00000


--------------------------------------------------------------------------------------------------------


 soft charge-density along one line, spin component           1
         0         1         2         3         4         5         6         7         8         9
 total charge-density along one line
 
 pseudopotential strength for first ion, spin component:           1
 -9.518   0.000   0.000   0.000   0.000   1.133   0.000   0.000
  0.000  -9.489   0.000   0.000   0.000   0.000   1.119   0.000
  0.000   0.000  -9.484   0.000  -0.015   0.000   0.000   1.116
  0.000   0.000   0.000  -9.477   0.000   0.000   0.000   0.000
  0.000   0.000  -0.015   0.000  -9.512   0.000   0.000   0.007
  1.133   0.000   0.000   0.000   0.000   1.056   0.000   0.000
  0.000   1.119   0.000   0.000   0.000   0.000   1.062   0.000
  0.000   0.000   1.116   0.000   0.007   0.000   0.000   1.064
  0.000   0.000   0.000   1.113   0.000   0.000   0.000   0.000
  0.000   0.000   0.007   0.000   1.131   0.000   0.000  -0.003
  0.000   0.000  -0.006   0.000  -0.003   0.000   0.000   0.002
  0.000   0.000   0.000   0.000   0.000   0.000   0.000   0.000
  0.000  -0.017   0.000   0.000   0.000   0.000   0.009   0.000
  0.000   0.000  -0.018   0.000   0.001   0.000   0.000   0.009
  0.000   0.000   0.000  -0.016   0.000   0.000   0.000   0.000
  0.000   0.010   0.000   0.000   0.000   0.000  -0.005   0.000
  0.000   0.000   0.011   0.000  -0.001   0.000   0.000  -0.005
  0.000   0.000   0.000   0.009   0.000   0.000   0.000   0.000
 total augmentation occupancy for first ion, spin component:           1
  1.915   0.000   0.000   0.000   0.000  -0.015   0.000   0.000   0.000   0.000   0.000   0.000   0.000   0.000   0.000   0.000
  0.000   1.931   0.000   0.000   0.000   0.000  -0.051   0.000   0.000   0.000   0.000   0.000  -0.004   0.000   0.000  -0.009
  0.000   0.000   1.930   0.000  -0.003   0.000   0.000  -0.032   0.000   0.016   0.015   0.028   0.000   0.022   0.000   0.000
  0.000   0.000   0.000   1.930   0.000   0.000   0.000   0.000  -0.045   0.000   0.000   0.000   0.000   0.000   0.038   0.000
  0.000   0.000  -0.003   0.000   1.918   0.000   0.000   0.016   0.000  -0.027  -0.007   0.016   0.000   0.022   0.000   0.000
 -0.015   0.000   0.000   0.000   0.000   0.047   0.000   0.000   0.000   0.000   0.000   0.000   0.000   0.000   0.000   0.000
  0.000  -0.051   0.000   0.000   0.000   0.000   0.044   0.000   0.000   0.000   0.000   0.000   0.043   0.000   0.000  -0.003
  0.000   0.000  -0.032   0.000   0.016   0.000   0.000   0.050   0.000   0.009  -0.053   0.002   0.000   0.040   0.000   0.000
  0.000   0.000   0.000  -0.045   0.000   0.000   0.000   0.000   0.054   0.000   0.000   0.000   0.000   0.000   0.058   0.000
  0.000   0.000   0.016   0.000  -0.027   0.000   0.000   0.009   0.000   0.053  -0.029   0.007   0.000   0.007   0.000   0.000
  0.000   0.000   0.015   0.000  -0.007   0.000   0.000  -0.053   0.000  -0.029   1.240  -0.265   0.000   0.120   0.000   0.000
  0.000   0.000   0.028   0.000   0.016   0.000   0.000   0.002   0.000   0.007  -0.265   0.100   0.000  -0.058   0.000   0.000
  0.000  -0.004   0.000   0.000   0.000   0.000   0.043   0.000   0.000   0.000   0.000   0.000   0.157   0.000   0.000  -0.009
  0.000   0.000   0.022   0.000   0.022   0.000   0.000   0.040   0.000   0.007   0.120  -0.058   0.000   0.085   0.000   0.000
  0.000   0.000   0.000   0.038   0.000   0.000   0.000   0.000   0.058   0.000   0.000   0.000   0.000   0.000   0.123   0.000
  0.000  -0.009   0.000   0.000   0.000   0.000  -0.003   0.000   0.000   0.000   0.000   0.000  -0.009   0.000   0.000   0.001
  0.000   0.000  -0.011   0.000  -0.001   0.000   0.000  -0.002   0.000   0.000  -0.019   0.007   0.000  -0.007   0.000   0.000
  0.000   0.000   0.000  -0.012   0.000   0.000   0.000   0.000  -0.004   0.000   0.000   0.000   0.000   0.000  -0.008   0.000


------------------------ aborting loop because EDIFF is reached ----------------------------------------


    CHARGE:  cpu time    0.66: real time    0.66
    FORLOC:  cpu time    0.02: real time    0.02
    FORNL :  cpu time    5.54: real time    5.54
    STRESS:  cpu time    8.62: real time    8.63
    FORCOR:  cpu time    0.30: real time    0.30
    FORHAR:  cpu time    0.09: real time    0.09
    MIXING:  cpu time    0.01: real time    0.01

  FORCE on cell =-STRESS in cart. coord.  units (eV):
  Direction    XX          YY          ZZ          XY          YZ          ZX
  --------------------------------------------------------------------------------------
  Alpha Z   278.63144   278.63144   278.63144
  Ewald   18272.10223 18440.87145-22645.02669     0.00000     0.00000     0.00000
  Hartree 20501.27775 20614.62409-19253.37839     0.00000     0.00000     0.00000
  E(xc)    -375.24216  -375.05838  -375.81646     0.00000     0.00000     0.00000
  Local  -39261.36336-39543.14124 41408.41329     0.00000     0.00000     0.00000
  n-local  -223.65430  -222.81057  -224.21583     3.08241     0.00000     0.00000
  augment   336.66685   336.52046   338.06788    -0.00002     0.00000    -0.00001
  Kinetic   469.97909   468.97206   472.75596     4.70330     0.00000     0.00000
  Fock        0.00000     0.00000     0.00000     0.00000     0.00000     0.00000
  -------------------------------------------------------------------------------------
  Total      -1.60246    -1.39071    -0.56881     0.00000     0.00000     0.00000
  in kB     -15.55326   -13.49802    -5.52077     0.00000     0.00000     0.00000
  external pressure =      -11.52 kB  Pullay stress =        0.00 kB


 VOLUME and BASIS-vectors are now :
 -----------------------------------------------------------------------------
  energy-cutoff  :      415.00
  volume of cell :      165.07
      direct lattice vectors                 reciprocal lattice vectors
     3.631354857  0.000000000  0.000000000     0.275379311  0.000000000  0.000000000
     0.000000000  2.567755644  0.000000000     0.000000000  0.389445157  0.000000000
     0.000000000  0.000000000 17.703266931     0.000000000  0.000000000  0.056486749

  length of vectors
     3.631354857  2.567755644 17.703266931     0.275379311  0.389445157  0.056486749


 FORCES acting on ions
    electron-ion (+dipol)            ewald-force                    non-local-force                 convergence-correction
 -----------------------------------------------------------------------------------------------
   0.131E-14 -.109E-13 0.311E+04   -.184E-13 0.185E-13 -.311E+04   0.000E+00 0.000E+00 -.396E+01   0.116E-13 0.399E-13 0.592E-03
   -.135E-13 -.723E-14 0.629E+03   -.115E-13 0.857E-14 -.629E+03   0.000E+00 0.000E+00 -.595E+00   -.952E-14 -.304E-13 -.121E-03
   -.606E-13 0.501E-14 -.205E+04   -.157E-13 0.121E-13 0.205E+04   0.000E+00 0.000E+00 -.927E+00   0.136E-13 0.738E-15 -.913E-04
   0.614E-12 -.708E-12 0.205E+04   0.497E-14 0.202E-13 -.205E+04   0.000E+00 0.000E+00 0.927E+00   0.664E-13 0.331E-13 0.149E-03
   0.622E-12 0.222E-11 -.629E+03   0.835E-14 0.241E-13 0.629E+03   0.000E+00 0.000E+00 0.595E+00   0.924E-13 0.374E-13 0.204E-03
   0.627E-12 0.322E-12 -.311E+04   0.720E-14 0.839E-14 0.311E+04   0.000E+00 0.000E+00 0.396E+01   0.153E-13 -.238E-13 -.569E-03
 -----------------------------------------------------------------------------------------------
   0.179E-11 0.182E-11 0.189E-03   -.251E-13 0.918E-13 0.000E+00   0.000E+00 0.000E+00 0.000E+00   0.190E-12 0.569E-13 0.163E-03
 
 
 POSITION                                       TOTAL-FORCE (eV/Angst)
 -----------------------------------------------------------------------------------
      0.00000      0.00000      0.07184         0.000000      0.000000      0.032191
      0.00000      0.00000      2.57646         0.000000      0.000000     -0.000731
      0.00000      0.00000      5.19226         0.000000      0.000000     -0.024546
      1.81568      1.28388      1.22713         0.000000      0.000000      0.024546
      1.81568      1.28388      3.84293         0.000000      0.000000      0.000731
      1.81568      1.28388      6.34754         0.000000      0.000000     -0.032191
 -----------------------------------------------------------------------------------
    total drift:                                0.000000      0.000000      0.000352


--------------------------------------------------------------------------------------------------------



  FREE ENERGIE OF THE ION-ELECTRON SYSTEM (eV)
  ---------------------------------------------------
  free  energy   TOTEN  =       -20.559374 eV

  energy  without entropy=      -20.559374  energy(sigma->0) =      -20.559374
 
 d Force = 0.2378632E-03[ 0.220E-03, 0.256E-03]  d Energy = 0.1726985E-03 0.652E-04
 d Force =-0.2057787E+02[-0.206E+02,-0.206E+02]  d Ewald  =-0.2057787E+02-0.825E-07


--------------------------------------------------------------------------------------------------------


    POTLOK:  cpu time    0.33: real time    0.33


--------------------------------------------------------------------------------------------------------


 Conjugate gradient step on ions:
 trial-energy change:   -0.000173  1 .order   -0.000238   -0.000256   -0.000220
  (g-gl).g = 0.967E-05      g.g   = 0.215E-04  gl.gl    = 0.178E-03
 g(Force)  = 0.215E-04   g(Stress)= 0.000E+00 ortho     = 0.144E-04
 gamma     =   0.05440
 trial     =  11.45740
 opt step  =  45.82960  (harmonic =  81.58421) maximal distance =0.00921214
 next E    =   -20.560113   (d E  =  -0.00091)


--------------------------------------------------------------------------------------------------------


    WAVPRE:  cpu time    0.06: real time    0.06
    FEWALD:  cpu time    0.00: real time    0.00
    ORTHCH:  cpu time    1.19: real time    1.19
     LOOP+:  cpu time  130.53: real time  130.55


----------------------------------------- Iteration   11(   1)  ---------------------------------------


    POTLOK:  cpu time    0.30: real time    0.30
    SETDIJ:  cpu time    0.03: real time    0.03
     EDDAV:  cpu time   13.16: real time   13.16
 BZINTS: Fermi energy: -0.843100; 66.000000 electrons
         Band energy:-238.719267;  BLOECHL correction: -0.188957
       DOS:  cpu time    0.04: real time    0.04
    CHARGE:  cpu time    0.62: real time    0.62
    MIXING:  cpu time    0.01: real time    0.01
    --------------------------------------------
      LOOP:  cpu time   14.16: real time   14.16

 eigenvalue-minimisations  :  1280
 total energy-change (2. order) :-0.1898942E-03  (-0.7059071E-01)
 number of electron      65.9999736 magnetization 
 augmentation part       43.2471894 magnetization 

 Broyden mixing:
  rms(total) = 0.59741E-02    rms(broyden)= 0.59678E-02
  rms(prec ) = 0.66332E-02
  weight for this iteration     100.00

 Free energy of the ion-electron system (eV)
  ---------------------------------------------------
  alpha Z        PSCENC =       278.63143507
  Ewald energy   TEWEN  =     14129.75012100
  -1/2 Hartree   DENC   =    -21924.13957980
  -exchange  EXHF       =         0.00000000
  -V(xc)+E(xc)   XCENC  =       255.78455317
  PAW double counting   =      6555.99209939    -7423.68743110
  entropy T*S    EENTRO =         0.00000000
  eigenvalues    EBANDS =      -238.71926677
  atomic energy  EATOM  =      8345.82850422
  ---------------------------------------------------
  free energy    TOTEN  =       -20.55956482 eV

  energy without entropy =      -20.55956482  energy(sigma->0) =      -20.55956482


--------------------------------------------------------------------------------------------------------




----------------------------------------- Iteration   11(   2)  ---------------------------------------


    POTLOK:  cpu time    0.30: real time    0.29
    SETDIJ:  cpu time    0.03: real time    0.03
     EDDAV:  cpu time   14.24: real time   14.24
 BZINTS: Fermi energy: -0.843506; 66.000000 electrons
         Band energy:-238.811006;  BLOECHL correction: -0.189077
       DOS:  cpu time    0.04: real time    0.04
    CHARGE:  cpu time    0.62: real time    0.62
    MIXING:  cpu time    0.01: real time    0.01
    --------------------------------------------
      LOOP:  cpu time   15.24: real time   15.24

 eigenvalue-minimisations  :  1440
 total energy-change (2. order) :-0.1580134E-03  (-0.2098869E-03)
 number of electron      65.9999736 magnetization 
 augmentation part       43.2505392 magnetization 

 Broyden mixing:
  rms(total) = 0.66403E-02    rms(broyden)= 0.66396E-02
  rms(prec ) = 0.74471E-02
  weight for this iteration     100.00

 eigenvalues of (default mixing * dielectric matrix)
  average eigenvalue GAMMA=   0.4435
  0.4435

 Free energy of the ion-electron system (eV)
  ---------------------------------------------------
  alpha Z        PSCENC =       278.63143507
  Ewald energy   TEWEN  =     14129.75012100
  -1/2 Hartree   DENC   =    -21924.07160971
  -exchange  EXHF       =         0.00000000
  -V(xc)+E(xc)   XCENC  =       255.77557235
  PAW double counting   =      6556.37609633    -7424.03883599
  entropy T*S    EENTRO =         0.00000000
  eigenvalues    EBANDS =      -238.81100611
  atomic energy  EATOM  =      8345.82850422
  ---------------------------------------------------
  free energy    TOTEN  =       -20.55972284 eV

  energy without entropy =      -20.55972284  energy(sigma->0) =      -20.55972284


--------------------------------------------------------------------------------------------------------




----------------------------------------- Iteration   11(   3)  ---------------------------------------


    POTLOK:  cpu time    0.30: real time    0.30
    SETDIJ:  cpu time    0.03: real time    0.03
     EDDAV:  cpu time   13.71: real time   13.71
 BZINTS: Fermi energy: -0.844225; 66.000000 electrons
         Band energy:-238.866798;  BLOECHL correction: -0.189044
       DOS:  cpu time    0.04: real time    0.04
    CHARGE:  cpu time    0.64: real time    0.64
    MIXING:  cpu time    0.01: real time    0.01
    --------------------------------------------
      LOOP:  cpu time   14.73: real time   14.73

 eigenvalue-minimisations  :  1360
 total energy-change (2. order) : 0.8956767E-04  (-0.5079938E-04)
 number of electron      65.9999736 magnetization 
 augmentation part       43.2514263 magnetization 

 Broyden mixing:
  rms(total) = 0.29281E-02    rms(broyden)= 0.29278E-02
  rms(prec ) = 0.31524E-02
  weight for this iteration     100.00

 eigenvalues of (default mixing * dielectric matrix)
  average eigenvalue GAMMA=   1.1267
  0.4455  1.8080

 Free energy of the ion-electron system (eV)
  ---------------------------------------------------
  alpha Z        PSCENC =       278.63143507
  Ewald energy   TEWEN  =     14129.75012100
  -1/2 Hartree   DENC   =    -21924.00114645
  -exchange  EXHF       =         0.00000000
  -V(xc)+E(xc)   XCENC  =       255.77613767
  PAW double counting   =      6556.57124332    -7424.24913058
  entropy T*S    EENTRO =         0.00000000
  eigenvalues    EBANDS =      -238.86679752
  atomic energy  EATOM  =      8345.82850422
  ---------------------------------------------------
  free energy    TOTEN  =       -20.55963327 eV

  energy without entropy =      -20.55963327  energy(sigma->0) =      -20.55963327


--------------------------------------------------------------------------------------------------------




----------------------------------------- Iteration   11(   4)  ---------------------------------------


    POTLOK:  cpu time    0.30: real time    0.30
    SETDIJ:  cpu time    0.03: real time    0.03
     EDDAV:  cpu time   13.42: real time   13.42
 BZINTS: Fermi energy: -0.842106; 66.000000 electrons
         Band energy:-238.654003;  BLOECHL correction: -0.188989
       DOS:  cpu time    0.04: real time    0.04
    CHARGE:  cpu time    0.66: real time    0.65
    MIXING:  cpu time    0.01: real time    0.01
    --------------------------------------------
      LOOP:  cpu time   14.45: real time   14.45

 eigenvalue-minimisations  :  1320
 total energy-change (2. order) :-0.1124635E-04  (-0.1055533E-04)
 number of electron      65.9999736 magnetization 
 augmentation part       43.2481538 magnetization 

 Broyden mixing:
  rms(total) = 0.14769E-02    rms(broyden)= 0.14769E-02
  rms(prec ) = 0.16052E-02
  weight for this iteration     100.00

 eigenvalues of (default mixing * dielectric matrix)
  average eigenvalue GAMMA=   1.2463
  2.7165  0.5670  0.4554

 Free energy of the ion-electron system (eV)
  ---------------------------------------------------
  alpha Z        PSCENC =       278.63143507
  Ewald energy   TEWEN  =     14129.75012100
  -1/2 Hartree   DENC   =    -21924.13724357
  -exchange  EXHF       =         0.00000000
  -V(xc)+E(xc)   XCENC  =       255.77945639
  PAW double counting   =      6557.33569786    -7425.09361292
  entropy T*S    EENTRO =         0.00000000
  eigenvalues    EBANDS =      -238.65400257
  atomic energy  EATOM  =      8345.82850422
  ---------------------------------------------------
  free energy    TOTEN  =       -20.55964451 eV

  energy without entropy =      -20.55964451  energy(sigma->0) =      -20.55964451


--------------------------------------------------------------------------------------------------------




----------------------------------------- Iteration   11(   5)  ---------------------------------------


    POTLOK:  cpu time    0.29: real time    0.29
    SETDIJ:  cpu time    0.04: real time    0.03
     EDDAV:  cpu time   13.68: real time   13.68
 BZINTS: Fermi energy: -0.842848; 66.000000 electrons
         Band energy:-238.736702;  BLOECHL correction: -0.189025
       DOS:  cpu time    0.04: real time    0.04
    CHARGE:  cpu time    0.62: real time    0.62
    MIXING:  cpu time    0.01: real time    0.01
    --------------------------------------------
      LOOP:  cpu time   14.68: real time   14.68

 eigenvalue-minimisations  :  1352
 total energy-change (2. order) : 0.1392724E-04  (-0.2977324E-05)
 number of electron      65.9999736 magnetization 
 augmentation part       43.2497966 magnetization 

 Broyden mixing:
  rms(total) = 0.81035E-03    rms(broyden)= 0.81029E-03
  rms(prec ) = 0.89927E-03
  weight for this iteration     100.00

 eigenvalues of (default mixing * dielectric matrix)
  average eigenvalue GAMMA=   1.0337
  2.6390  0.5476  0.5476  0.4006

 Free energy of the ion-electron system (eV)
  ---------------------------------------------------
  alpha Z        PSCENC =       278.63143507
  Ewald energy   TEWEN  =     14129.75012100
  -1/2 Hartree   DENC   =    -21924.06374046
  -exchange  EXHF       =         0.00000000
  -V(xc)+E(xc)   XCENC  =       255.77590390
  PAW double counting   =      6557.54577634    -7425.29092907
  entropy T*S    EENTRO =         0.00000000
  eigenvalues    EBANDS =      -238.73670158
  atomic energy  EATOM  =      8345.82850422
  ---------------------------------------------------
  free energy    TOTEN  =       -20.55963059 eV

  energy without entropy =      -20.55963059  energy(sigma->0) =      -20.55963059


--------------------------------------------------------------------------------------------------------




----------------------------------------- Iteration   11(   6)  ---------------------------------------


    POTLOK:  cpu time    0.29: real time    0.30
    SETDIJ:  cpu time    0.04: real time    0.03
     EDDAV:  cpu time   13.18: real time   13.18
 BZINTS: Fermi energy: -0.842956; 66.000000 electrons
         Band energy:-238.748427;  BLOECHL correction: -0.189026
       DOS:  cpu time    0.04: real time    0.04
    CHARGE:  cpu time    0.59: real time    0.59
    MIXING:  cpu time    0.01: real time    0.01
    --------------------------------------------
      LOOP:  cpu time   14.15: real time   14.15

 eigenvalue-minimisations  :  1288
 total energy-change (2. order) : 0.4512418E-05  (-0.4283496E-06)
 number of electron      65.9999736 magnetization 
 augmentation part       43.2501154 magnetization 

 Broyden mixing:
  rms(total) = 0.46102E-03    rms(broyden)= 0.46101E-03
  rms(prec ) = 0.50977E-03
  weight for this iteration     100.00

 eigenvalues of (default mixing * dielectric matrix)
  average eigenvalue GAMMA=   0.9872
  2.4345  0.9722  0.6723  0.4285  0.4285

 Free energy of the ion-electron system (eV)
  ---------------------------------------------------
  alpha Z        PSCENC =       278.63143507
  Ewald energy   TEWEN  =     14129.75012100
  -1/2 Hartree   DENC   =    -21924.05634365
  -exchange  EXHF       =         0.00000000
  -V(xc)+E(xc)   XCENC  =       255.77564038
  PAW double counting   =      6557.50595970    -7425.24651572
  entropy T*S    EENTRO =         0.00000000
  eigenvalues    EBANDS =      -238.74842706
  atomic energy  EATOM  =      8345.82850422
  ---------------------------------------------------
  free energy    TOTEN  =       -20.55962607 eV

  energy without entropy =      -20.55962607  energy(sigma->0) =      -20.55962607


--------------------------------------------------------------------------------------------------------




----------------------------------------- Iteration   11(   7)  ---------------------------------------


    POTLOK:  cpu time    0.30: real time    0.30
    SETDIJ:  cpu time    0.03: real time    0.03
     EDDAV:  cpu time    9.68: real time    9.68
 BZINTS: Fermi energy: -0.843055; 66.000000 electrons
         Band energy:-238.756794;  BLOECHL correction: -0.189030
       DOS:  cpu time    0.04: real time    0.04
    CHARGE:  cpu time    0.64: real time    0.65
    MIXING:  cpu time    0.01: real time    0.01
    --------------------------------------------
      LOOP:  cpu time   10.71: real time   10.71

 eigenvalue-minimisations  :   808
 total energy-change (2. order) :-0.2935243E-05  (-0.7333176E-07)
 number of electron      65.9999736 magnetization 
 augmentation part       43.2502306 magnetization 

 Broyden mixing:
  rms(total) = 0.18138E-03    rms(broyden)= 0.18137E-03
  rms(prec ) = 0.20136E-03
  weight for this iteration     100.00

 eigenvalues of (default mixing * dielectric matrix)
  average eigenvalue GAMMA=   1.2775
  2.5993  2.5993  0.9333  0.4240  0.4093  0.6996

 Free energy of the ion-electron system (eV)
  ---------------------------------------------------
  alpha Z        PSCENC =       278.63143507
  Ewald energy   TEWEN  =     14129.75012100
  -1/2 Hartree   DENC   =    -21924.05036678
  -exchange  EXHF       =         0.00000000
  -V(xc)+E(xc)   XCENC  =       255.77556408
  PAW double counting   =      6557.46743366    -7425.20552658
  entropy T*S    EENTRO =         0.00000000
  eigenvalues    EBANDS =      -238.75679368
  atomic energy  EATOM  =      8345.82850422
  ---------------------------------------------------
  free energy    TOTEN  =       -20.55962901 eV

  energy without entropy =      -20.55962901  energy(sigma->0) =      -20.55962901


--------------------------------------------------------------------------------------------------------




----------------------------------------- Iteration   11(   8)  ---------------------------------------


    POTLOK:  cpu time    0.29: real time    0.30
    SETDIJ:  cpu time    0.04: real time    0.03
     EDDAV:  cpu time    9.64: real time    9.64
 BZINTS: Fermi energy: -0.843120; 66.000000 electrons
         Band energy:-238.757795;  BLOECHL correction: -0.189030
       DOS:  cpu time    0.04: real time    0.04
    CHARGE:  cpu time    0.61: real time    0.61
    MIXING:  cpu time    0.01: real time    0.01
    --------------------------------------------
      LOOP:  cpu time   10.64: real time   10.63

 eigenvalue-minimisations  :   808
 total energy-change (2. order) :-0.5028134E-05  (-0.5863519E-07)
 number of electron      65.9999736 magnetization 
 augmentation part       43.2501154 magnetization 

 Broyden mixing:
  rms(total) = 0.11038E-03    rms(broyden)= 0.11036E-03
  rms(prec ) = 0.12580E-03
  weight for this iteration     100.00

 eigenvalues of (default mixing * dielectric matrix)
  average eigenvalue GAMMA=   1.1778
  2.5412  1.9216  1.3227  0.4320  0.4027  0.8928  0.7318

 Free energy of the ion-electron system (eV)
  ---------------------------------------------------
  alpha Z        PSCENC =       278.63143507
  Ewald energy   TEWEN  =     14129.75012100
  -1/2 Hartree   DENC   =    -21924.04566219
  -exchange  EXHF       =         0.00000000
  -V(xc)+E(xc)   XCENC  =       255.77573173
  PAW double counting   =      6557.46273269    -7425.20470192
  entropy T*S    EENTRO =         0.00000000
  eigenvalues    EBANDS =      -238.75779463
  atomic energy  EATOM  =      8345.82850422
  ---------------------------------------------------
  free energy    TOTEN  =       -20.55963404 eV

  energy without entropy =      -20.55963404  energy(sigma->0) =      -20.55963404


--------------------------------------------------------------------------------------------------------




----------------------------------------- Iteration   11(   9)  ---------------------------------------


    POTLOK:  cpu time    0.30: real time    0.30
    SETDIJ:  cpu time    0.03: real time    0.03
     EDDAV:  cpu time   10.10: real time   10.10
 BZINTS: Fermi energy: -0.843193; 66.000000 electrons
         Band energy:-238.764756;  BLOECHL correction: -0.189030
       DOS:  cpu time    0.04: real time    0.04
    CHARGE:  cpu time    0.63: real time    0.63
    MIXING:  cpu time    0.01: real time    0.01
    --------------------------------------------
      LOOP:  cpu time   11.11: real time   11.11

 eigenvalue-minimisations  :   864
 total energy-change (2. order) : 0.2477638E-05  (-0.5080610E-07)
 number of electron      65.9999736 magnetization 
 augmentation part       43.2502176 magnetization 

 Broyden mixing:
  rms(total) = 0.43586E-04    rms(broyden)= 0.43576E-04
  rms(prec ) = 0.49334E-04
  weight for this iteration     100.00

 eigenvalues of (default mixing * dielectric matrix)
  average eigenvalue GAMMA=   1.0385
  2.5448  1.8875  1.3573  0.4318  0.4026  0.8858  0.7334  0.0646

 Free energy of the ion-electron system (eV)
  ---------------------------------------------------
  alpha Z        PSCENC =       278.63143507
  Ewald energy   TEWEN  =     14129.75012100
  -1/2 Hartree   DENC   =    -21924.03962987
  -exchange  EXHF       =         0.00000000
  -V(xc)+E(xc)   XCENC  =       255.77555087
  PAW double counting   =      6557.46824099    -7425.20909742
  entropy T*S    EENTRO =         0.00000000
  eigenvalues    EBANDS =      -238.76475642
  atomic energy  EATOM  =      8345.82850422
  ---------------------------------------------------
  free energy    TOTEN  =       -20.55963156 eV

  energy without entropy =      -20.55963156  energy(sigma->0) =      -20.55963156


--------------------------------------------------------------------------------------------------------




----------------------------------------- Iteration   11(  10)  ---------------------------------------


    POTLOK:  cpu time    0.30: real time    0.30
    SETDIJ:  cpu time    0.04: real time    0.03
     EDDAV:  cpu time    9.43: real time    9.46
 BZINTS: Fermi energy: -0.843201; 66.000000 electrons
         Band energy:-238.765207;  BLOECHL correction: -0.189030
       DOS:  cpu time    0.04: real time    0.04
    --------------------------------------------
      LOOP:  cpu time    9.80: real time    9.83

 eigenvalue-minimisations  :   776
 total energy-change (2. order) :-0.1250373E-06  (-0.8369288E-08)
 number of electron      65.9999736 magnetization 
 augmentation part       43.2502176 magnetization 

 Free energy of the ion-electron system (eV)
  ---------------------------------------------------
  alpha Z        PSCENC =       278.63143507
  Ewald energy   TEWEN  =     14129.75012100
  -1/2 Hartree   DENC   =    -21924.03899962
  -exchange  EXHF       =         0.00000000
  -V(xc)+E(xc)   XCENC  =       255.77556078
  PAW double counting   =      6557.46909879    -7425.21014463
  entropy T*S    EENTRO =         0.00000000
  eigenvalues    EBANDS =      -238.76520729
  atomic energy  EATOM  =      8345.82850422
  ---------------------------------------------------
  free energy    TOTEN  =       -20.55963169 eV

  energy without entropy =      -20.55963169  energy(sigma->0) =      -20.55963169


--------------------------------------------------------------------------------------------------------




 average (electrostatic) potential at core
  the test charge radii are     1.0053
  (the norm of the test charge is              1.0000)
       1 -44.0955       2 -44.5088       3 -44.4409       4 -44.4409       5 -44.5088
       6 -44.0955
 
 
 
 E-fermi :  -0.8432     XC(G=0):  -6.6038     alpha+bet : -4.1343


 k-point   1 :       0.0000    0.0000    0.0000
  band No.  band energies     occupation 
      1      -9.5133      2.00000
      2      -8.0684      2.00000
      3      -6.0984      2.00000
      4      -5.3653      2.00000
      5      -5.0203      2.00000
      6      -4.8789      2.00000
      7      -4.5772      2.00000
      8      -4.3829      2.00000
      9      -4.1503      2.00000
     10      -4.1278      2.00000
     11      -4.0963      2.00000
     12      -3.8141      2.00000
     13      -3.7591      2.00000
     14      -3.6949      2.00000
     15      -3.6126      2.00000
     16      -3.5102      2.00000
     17      -3.4279      2.00000
     18      -3.4023      2.00000
     19      -3.2161      2.00000
     20      -3.2033      2.00000
     21      -3.0990      2.00000
     22      -3.0781      2.00000
     23      -2.9909      2.00000
     24      -2.9405      2.00000
     25      -2.8520      2.00000
     26      -2.7954      2.00000
     27      -2.6280      2.00000
     28      -2.5261      2.00000
     29      -2.4955      2.00000
     30      -2.4130      2.00000
     31      -2.3362      2.00000
     32      -2.2476      2.00000
     33      -2.2060      2.00000
     34      -1.3174      2.15096
     35       0.8463      0.00000
     36       1.6271      0.00000
     37       3.0148      0.00000
     38       3.3878      0.00000
     39       3.6747      0.00000
     40       5.5440      0.00000

 k-point   2 :       0.1429    0.0000    0.0000
  band No.  band energies     occupation 
      1      -9.2736      2.00000
      2      -7.8551      2.00000
      3      -6.0020      2.00000
      4      -5.3614      2.00000
      5      -5.0042      2.00000
      6      -4.9109      2.00000
      7      -4.7311      2.00000
      8      -4.3532      2.00000
      9      -4.0845      2.00000
     10      -4.0235      2.00000
     11      -3.9945      2.00000
     12      -3.8196      2.00000
     13      -3.6633      2.00000
     14      -3.6163      2.00000
     15      -3.5868      2.00000
     16      -3.5174      2.00000
     17      -3.4610      2.00000
     18      -3.4272      2.00000
     19      -3.3918      2.00000
     20      -3.1767      2.00000
     21      -3.1687      2.00000
     22      -3.0085      2.00000
     23      -2.9912      2.00000
     24      -2.9238      2.00000
     25      -2.8624      2.00000
     26      -2.7730      2.00000
     27      -2.6466      2.00000
     28      -2.5676      2.00000
     29      -2.4572      2.00000
     30      -2.4181      2.00000
     31      -2.3182      2.00000
     32      -2.2427      2.00000
     33      -2.2424      2.00000
     34      -1.2172      2.16712
     35       0.2856     -0.00521
     36       0.9614      0.00000
     37       2.0560      0.00000
     38       3.0846      0.00000
     39       3.6083      0.00000
     40       4.4294      0.00000

 k-point   3 :       0.2857    0.0000    0.0000
  band No.  band energies     occupation 
      1      -8.5735      2.00000
      2      -7.2532      2.00000
      3      -5.8053      2.00000
      4      -5.5105      2.00000
      5      -5.1315      2.00000
      6      -5.0523      2.00000
      7      -4.7032      2.00000
      8      -4.2156      2.00000
      9      -3.9828      2.00000
     10      -3.9743      2.00000
     11      -3.8819      2.00000
     12      -3.8110      2.00000
     13      -3.6303      2.00000
     14      -3.6249      2.00000
     15      -3.5978      2.00000
     16      -3.5000      2.00000
     17      -3.4833      2.00000
     18      -3.4012      2.00000
     19      -3.2784      2.00000
     20      -3.1937      2.00000
     21      -3.1024      2.00000
     22      -3.0813      2.00000
     23      -3.0158      2.00000
     24      -2.8624      2.00000
     25      -2.7836      2.00000
     26      -2.7329      2.00000
     27      -2.7188      2.00000
     28      -2.6550      2.00000
     29      -2.4093      2.00000
     30      -2.3641      2.00000
     31      -2.3094      2.00000
     32      -2.2934      2.00000
     33      -2.2602      2.00000
     34      -1.5568      2.12933
     35      -0.8685      0.67231
     36      -0.2205     -0.00369
     37       1.3261      0.00000
     38       1.6645      0.00000
     39       4.1668      0.00000
     40       4.1670      0.00000

 k-point   4 :       0.4286    0.0000    0.0000
  band No.  band energies     occupation 
      1      -7.4916      2.00000
      2      -6.4356      2.00000
      3      -6.2538      2.00000
      4      -5.7794      2.00000
      5      -5.3104      2.00000
      6      -5.2920      2.00000
      7      -4.4778      2.00000
      8      -4.2142      2.00000
      9      -3.9779      2.00000
     10      -3.9045      2.00000
     11      -3.8147      2.00000
     12      -3.8124      2.00000
     13      -3.6892      2.00000
     14      -3.6883      2.00000
     15      -3.6202      2.00000
     16      -3.5968      2.00000
     17      -3.4154      2.00000
     18      -3.3996      2.00000
     19      -3.3594      2.00000
     20      -3.2846      2.00000
     21      -3.0655      2.00000
     22      -2.9540      2.00000
     23      -2.8078      2.00000
     24      -2.7980      2.00000
     25      -2.6633      2.00000
     26      -2.6416      2.00000
     27      -2.5642      2.00000
     28      -2.4545      2.00000
     29      -2.3880      2.00000
     30      -2.3553      2.00000
     31      -2.3512      2.00000
     32      -2.3125      2.00000
     33      -2.2965      2.00000
     34      -2.2125      2.00000
     35      -1.7683      2.11528
     36      -0.8760      0.24427
     37       0.4424      0.00000
     38       1.1325      0.00000
     39       4.2150      0.00000
     40       5.1684      0.00000

 k-point   5 :       0.0000    0.1429    0.0000
  band No.  band energies     occupation 
      1      -9.0330      2.00000
      2      -7.6209      2.00000
      3      -5.7696      2.00000
      4      -5.1781      2.00000
      5      -4.8634      2.00000
      6      -4.7001      2.00000
      7      -4.3651      2.00000
      8      -4.3342      2.00000
      9      -4.3265      2.00000
     10      -4.2673      2.00000
     11      -4.2207      2.00000
     12      -3.9578      2.00000
     13      -3.9284      2.00000
     14      -3.7328      2.00000
     15      -3.6027      2.00000
     16      -3.5080      2.00000
     17      -3.4787      2.00000
     18      -3.3535      2.00000
     19      -3.1932      2.00000
     20      -3.1744      2.00000
     21      -3.0875      2.00000
     22      -2.9560      2.00000
     23      -2.9369      2.00000
     24      -2.8856      2.00000
     25      -2.8764      2.00000
     26      -2.8496      2.00000
     27      -2.5632      2.00000
     28      -2.5566      2.00000
     29      -2.5370      2.00000
     30      -2.4382      2.00000
     31      -2.4355      2.00000
     32      -2.2264      2.00000
     33      -2.2013      2.00000
     34      -0.9416      1.17150
     35       1.3033      0.00000
     36       2.5501      0.00000
     37       3.4594      0.00000
     38       3.8519      0.00000
     39       4.3697      0.00000
     40       6.0143      0.00000

 k-point   6 :       0.1429    0.1429    0.0000
  band No.  band energies     occupation 
      1      -8.7998      2.00000
      2      -7.4130      2.00000
      3      -5.6686      2.00000
      4      -5.1524      2.00000
      5      -4.8350      2.00000
      6      -4.7195      2.00000
      7      -4.5730      2.00000
      8      -4.2928      2.00000
      9      -4.2359      2.00000
     10      -4.2247      2.00000
     11      -4.1047      2.00000
     12      -3.9646      2.00000
     13      -3.7739      2.00000
     14      -3.7427      2.00000
     15      -3.5900      2.00000
     16      -3.5680      2.00000
     17      -3.4926      2.00000
     18      -3.3726      2.00000
     19      -3.3065      2.00000
     20      -3.2194      2.00000
     21      -3.0694      2.00000
     22      -3.0490      2.00000
     23      -2.9699      2.00000
     24      -2.9678      2.00000
     25      -2.8299      2.00000
     26      -2.6863      2.00000
     27      -2.6290      2.00000
     28      -2.5498      2.00000
     29      -2.5101      2.00000
     30      -2.4409      2.00000
     31      -2.4016      2.00000
     32      -2.3195      2.00000
     33      -2.1526      2.00000
     34      -0.7593      0.71821
     35       1.0907     -0.00374
     36       1.4725      0.00000
     37       2.6376      0.00000
     38       3.5814      0.00000
     39       4.0736      0.00000
     40       4.8760      0.00000

 k-point   7 :       0.2857    0.1429    0.0000
  band No.  band energies     occupation 
      1      -8.1213      2.00000
      2      -6.8304      2.00000
      3      -5.4728      2.00000
      4      -5.2381      2.00000
      5      -4.9047      2.00000
      6      -4.8068      2.00000
      7      -4.6063      2.00000
      8      -4.2292      2.00000
      9      -4.1226      2.00000
     10      -4.0580      2.00000
     11      -4.0104      2.00000
     12      -3.9771      2.00000
     13      -3.7479      2.00000
     14      -3.7222      2.00000
     15      -3.5686      2.00000
     16      -3.4987      2.00000
     17      -3.4612      2.00000
     18      -3.4068      2.00000
     19      -3.3915      2.00000
     20      -3.3149      2.00000
     21      -3.1696      2.00000
     22      -3.1253      2.00000
     23      -3.1148      2.00000
     24      -3.0017      2.00000
     25      -2.7791      2.00000
     26      -2.6824      2.00000
     27      -2.6732      2.00000
     28      -2.5517      2.00000
     29      -2.4693      2.00000
     30      -2.4368      2.00000
     31      -2.3840      2.00000
     32      -2.3676      2.00000
     33      -1.9280      2.00000
     34      -0.8673      1.13828
     35      -0.1796     -0.05180
     36       0.4002     -0.00495
     37       1.8867      0.00000
     38       2.1981      0.00000
     39       4.5644      0.00000
     40       4.6310      0.00000

 k-point   8 :       0.4286    0.1429    0.0000
  band No.  band energies     occupation 
      1      -7.0835      2.00000
      2      -6.0687      2.00000
      3      -5.9039      2.00000
      4      -5.4651      2.00000
      5      -5.0191      2.00000
      6      -5.0000      2.00000
      7      -4.4189      2.00000
      8      -4.2058      2.00000
      9      -4.0185      2.00000
     10      -4.0046      2.00000
     11      -3.9633      2.00000
     12      -3.9136      2.00000
     13      -3.7529      2.00000
     14      -3.7325      2.00000
     15      -3.7002      2.00000
     16      -3.6020      2.00000
     17      -3.4733      2.00000
     18      -3.3968      2.00000
     19      -3.2411      2.00000
     20      -3.2103      2.00000
     21      -3.1610      2.00000
     22      -3.1296      2.00000
     23      -3.1081      2.00000
     24      -3.0667      2.00000
     25      -2.8226      2.00000
     26      -2.7830      2.00000
     27      -2.6481      2.00000
     28      -2.6333      2.00000
     29      -2.4828      2.00000
     30      -2.4620      2.00000
     31      -2.3965      2.00000
     32      -2.1264      2.00000
     33      -1.9744      2.00000
     34      -1.4288      1.90601
     35      -0.9680      1.09134
     36       0.1054     -0.08002
     37       0.8843      0.00000
     38       1.7777      0.00000
     39       4.5552      0.00000
     40       5.5384      0.00000

 k-point   9 :       0.0000    0.2857    0.0000
  band No.  band energies     occupation 
      1      -7.6867      2.00000
      2      -6.4874      2.00000
      3      -5.3571      2.00000
      4      -4.9025      2.00000
      5      -4.7366      2.00000
      6      -4.7082      2.00000
      7      -4.5455      2.00000
      8      -4.4770      2.00000
      9      -4.4669      2.00000
     10      -4.3347      2.00000
     11      -4.2855      2.00000
     12      -3.8793      2.00000
     13      -3.8183      2.00000
     14      -3.7456      2.00000
     15      -3.5190      2.00000
     16      -3.4357      2.00000
     17      -3.3360      2.00000
     18      -3.1500      2.00000
     19      -3.1222      2.00000
     20      -3.0681      2.00000
     21      -2.9869      2.00000
     22      -2.9478      2.00000
     23      -2.8681      2.00000
     24      -2.7835      2.00000
     25      -2.6569      2.00000
     26      -2.6486      2.00000
     27      -2.4986      2.00000
     28      -2.4941      2.00000
     29      -2.4854      2.00000
     30      -2.4579      2.00000
     31      -2.3090      2.00000
     32      -2.2786      2.00000
     33      -1.9352      2.06552
     34       0.1327     -0.08048
     35       2.4802      0.00000
     36       4.1100      0.00000
     37       4.7092      0.00000
     38       4.8112      0.00000
     39       5.0585      0.00000
     40       5.8706      0.00000

 k-point  10 :       0.1429    0.2857    0.0000
  band No.  band energies     occupation 
      1      -7.4867      2.00000
      2      -6.3082      2.00000
      3      -5.2341      2.00000
      4      -4.8436      2.00000
      5      -4.7212      2.00000
      6      -4.6980      2.00000
      7      -4.5783      2.00000
      8      -4.4331      2.00000
      9      -4.4048      2.00000
     10      -4.2784      2.00000
     11      -4.2433      2.00000
     12      -3.9098      2.00000
     13      -3.8112      2.00000
     14      -3.7562      2.00000
     15      -3.5879      2.00000
     16      -3.4978      2.00000
     17      -3.3932      2.00000
     18      -3.3102      2.00000
     19      -3.1267      2.00000
     20      -3.0493      2.00000
     21      -2.9762      2.00000
     22      -2.9092      2.00000
     23      -2.8956      2.00000
     24      -2.8374      2.00000
     25      -2.8022      2.00000
     26      -2.6365      2.00000
     27      -2.5330      2.00000
     28      -2.5221      2.00000
     29      -2.4431      2.00000
     30      -2.3787      2.00000
     31      -2.3444      2.00000
     32      -2.3371      2.00000
     33      -1.6556      1.94301
     34       0.4287     -0.06034
     35       2.7088      0.00000
     36       2.7164      0.00000
     37       4.1365      0.00000
     38       4.5129      0.00000
     39       5.0896      0.00000
     40       5.3424      0.00000

 k-point  11 :       0.2857    0.2857    0.0000
  band No.  band energies     occupation 
      1      -6.9262      2.00000
      2      -5.8272      2.00000
      3      -4.9388      2.00000
      4      -4.9220      2.00000
      5      -4.7034      2.00000
      6      -4.6868      2.00000
      7      -4.4635      2.00000
      8      -4.3777      2.00000
      9      -4.2490      2.00000
     10      -4.1621      2.00000
     11      -4.1128      2.00000
     12      -3.9695      2.00000
     13      -3.7887      2.00000
     14      -3.7841      2.00000
     15      -3.7112      2.00000
     16      -3.6250      2.00000
     17      -3.4918      2.00000
     18      -3.4776      2.00000
     19      -3.1651      2.00000
     20      -3.0790      2.00000
     21      -3.0403      2.00000
     22      -3.0343      2.00000
     23      -2.9886      2.00000
     24      -2.9518      2.00000
     25      -2.7486      2.00000
     26      -2.6991      2.00000
     27      -2.6274      2.00000
     28      -2.5308      2.00000
     29      -2.4651      2.00000
     30      -2.4331      2.00000
     31      -2.3901      2.00000
     32      -2.1243      2.07641
     33      -0.9319      1.37676
     34       0.4088     -0.08928
     35       1.2487     -0.01579
     36       1.7509      0.00000
     37       3.3702      0.00000
     38       3.6774      0.00000
     39       5.4036      0.00000
     40       5.8159      0.00000

 k-point  12 :       0.4286    0.2857    0.0000
  band No.  band energies     occupation 
      1      -6.1496      2.00000
      2      -5.4460      2.00000
      3      -5.1907      2.00000
      4      -4.8432      2.00000
      5      -4.6049      2.00000
      6      -4.5947      2.00000
      7      -4.3165      2.00000
      8      -4.2767      2.00000
      9      -4.1520      2.00000
     10      -4.1282      2.00000
     11      -4.0856      2.00000
     12      -3.9282      2.00000
     13      -3.7783      2.00000
     14      -3.7723      2.00000
     15      -3.7358      2.00000
     16      -3.7074      2.00000
     17      -3.5915      2.00000
     18      -3.5567      2.00000
     19      -3.2469      2.00000
     20      -3.2011      2.00000
     21      -3.1087      2.00000
     22      -3.0723      2.00000
     23      -3.0302      2.00000
     24      -3.0207      2.00000
     25      -2.7739      2.00000
     26      -2.7664      2.00000
     27      -2.6977      2.00000
     28      -2.5924      2.00000
     29      -2.4834      2.00000
     30      -2.4739      2.00000
     31      -2.2149      2.00000
     32      -1.4717      2.05221
     33      -1.1934      1.60405
     34      -0.3256      0.05292
     35       0.3797     -0.08586
     36       1.6797      0.00000
     37       2.3794      0.00000
     38       3.4748      0.00000
     39       5.6314      0.00000
     40       6.5316      0.00000

 k-point  13 :       0.0000    0.4286    0.0000
  band No.  band energies     occupation 
      1      -5.9358      2.00000
      2      -5.6084      2.00000
      3      -5.3922      2.00000
      4      -4.9775      2.00000
      5      -4.9670      2.00000
      6      -4.9659      2.00000
      7      -4.5819      2.00000
      8      -4.5697      2.00000
      9      -4.4802      2.00000
     10      -4.4786      2.00000
     11      -4.1235      2.00000
     12      -4.0307      2.00000
     13      -4.0117      2.00000
     14      -3.7853      2.00000
     15      -3.4377      2.00000
     16      -3.2806      2.00000
     17      -3.0922      2.00000
     18      -3.0291      2.00000
     19      -2.9118      2.00000
     20      -2.7707      2.00000
     21      -2.6953      2.00000
     22      -2.6692      2.00000
     23      -2.5706      2.00000
     24      -2.4735      2.00000
     25      -2.4369      2.00000
     26      -2.4151      2.00000
     27      -2.4143      2.00000
     28      -2.3443      2.00000
     29      -2.3258      2.00000
     30      -2.2775      2.00000
     31      -1.8171      2.00000
     32      -1.5630      2.00000
     33      -0.4913      0.35114
     34       0.4136      0.00000
     35       1.2143      0.00000
     36       1.3663      0.00000
     37       4.0329      0.00000
     38       4.4543      0.00000
     39       6.9916      0.00000
     40       7.4491      0.00000

 k-point  14 :       0.1429    0.4286    0.0000
  band No.  band energies     occupation 
      1      -5.8656      2.00000
      2      -5.4902      2.00000
      3      -5.2823      2.00000
      4      -4.9950      2.00000
      5      -4.9425      2.00000
      6      -4.9020      2.00000
      7      -4.7183      2.00000
      8      -4.6181      2.00000
      9      -4.2959      2.00000
     10      -4.2920      2.00000
     11      -4.0797      2.00000
     12      -4.0092      2.00000
     13      -3.8823      2.00000
     14      -3.7447      2.00000
     15      -3.4625      2.00000
     16      -3.4534      2.00000
     17      -3.1495      2.00000
     18      -3.0961      2.00000
     19      -2.8836      2.00000
     20      -2.8802      2.00000
     21      -2.7953      2.00000
     22      -2.7544      2.00000
     23      -2.6339      2.00000
     24      -2.5350      2.00000
     25      -2.4919      2.00000
     26      -2.4342      2.00000
     27      -2.3848      2.00000
     28      -2.3773      2.00000
     29      -2.3371      2.00000
     30      -2.3148      2.00000
     31      -1.8275      2.00000
     32      -1.4010      2.00000
     33      -0.0484      0.04344
     34       0.4880      0.00000
     35       1.4407      0.00000
     36       1.7834      0.00000
     37       4.2243      0.00000
     38       4.6990      0.00000
     39       5.4668      0.00000
     40       6.6072      0.00000

 k-point  15 :       0.2857    0.4286    0.0000
  band No.  band energies     occupation 
      1      -5.7235      2.00000
      2      -5.2341      2.00000
      3      -5.1358      2.00000
      4      -5.0001      2.00000
      5      -4.8580      2.00000
      6      -4.8464      2.00000
      7      -4.4860      2.00000
      8      -4.4611      2.00000
      9      -4.2127      2.00000
     10      -4.1688      2.00000
     11      -3.8487      2.00000
     12      -3.8188      2.00000
     13      -3.7805      2.00000
     14      -3.7551      2.00000
     15      -3.6358      2.00000
     16      -3.5850      2.00000
     17      -3.3781      2.00000
     18      -3.3094      2.00000
     19      -3.0828      2.00000
     20      -2.9911      2.00000
     21      -2.9040      2.00000
     22      -2.8059      2.00000
     23      -2.7234      2.00000
     24      -2.6127      2.00000
     25      -2.5631      2.00000
     26      -2.5045      2.00000
     27      -2.3924      2.00000
     28      -2.3651      2.00000
     29      -2.3229      2.00000
     30      -2.2885      2.00000
     31      -1.8578      2.00000
     32      -0.8540      1.47970
     33       0.4468     -0.12777
     34       0.9102      0.00000
     35       1.8759      0.00000
     36       2.7772      0.00000
     37       3.5983      0.00000
     38       4.5276      0.00000
     39       4.7829      0.00000
     40       5.3844      0.00000

 k-point  16 :       0.4286    0.4286    0.0000
  band No.  band energies     occupation 
      1      -5.5825      2.00000
      2      -5.4149      2.00000
      3      -4.8852      2.00000
      4      -4.7950      2.00000
      5      -4.6862      2.00000
      6      -4.6513      2.00000
      7      -4.2793      2.00000
      8      -4.1935      2.00000
      9      -4.1362      2.00000
     10      -4.1240      2.00000
     11      -3.9887      2.00000
     12      -3.9204      2.00000
     13      -3.8013      2.00000
     14      -3.7656      2.00000
     15      -3.6243      2.00000
     16      -3.6113      2.00000
     17      -3.5210      2.00000
     18      -3.4955      2.00000
     19      -3.1514      2.00000
     20      -3.1219      2.00000
     21      -2.8732      2.00000
     22      -2.8189      2.00000
     23      -2.7316      2.00000
     24      -2.6968      2.00000
     25      -2.5518      2.00000
     26      -2.4685      2.00000
     27      -2.4148      2.00000
     28      -2.3991      2.00000
     29      -2.2977      2.00000
     30      -2.2723      2.00000
     31      -1.5139      2.00000
     32      -0.4547      0.19319
     33       0.1177     -0.10728
     34       1.2677      0.00000
     35       2.2406      0.00000
     36       3.2942      0.00000
     37       3.5361      0.00000
     38       4.1480      0.00000
     39       4.5316      0.00000
     40       4.7426      0.00000


--------------------------------------------------------------------------------------------------------


 soft charge-density along one line, spin component           1
         0         1         2         3         4         5         6         7         8         9
 total charge-density along one line
 
 pseudopotential strength for first ion, spin component:           1
 -9.520   0.000   0.000   0.000   0.000   1.134   0.000   0.000
  0.000  -9.491   0.000   0.000   0.000   0.000   1.120   0.000
  0.000   0.000  -9.486   0.000  -0.015   0.000   0.000   1.117
  0.000   0.000   0.000  -9.479   0.000   0.000   0.000   0.000
  0.000   0.000  -0.015   0.000  -9.514   0.000   0.000   0.007
  1.134   0.000   0.000   0.000   0.000   1.055   0.000   0.000
  0.000   1.120   0.000   0.000   0.000   0.000   1.062   0.000
  0.000   0.000   1.117   0.000   0.007   0.000   0.000   1.063
  0.000   0.000   0.000   1.114   0.000   0.000   0.000   0.000
  0.000   0.000   0.007   0.000   1.131   0.000   0.000  -0.003
  0.000   0.000  -0.006   0.000  -0.003   0.000   0.000   0.002
  0.000   0.000   0.000   0.000   0.000   0.000   0.000   0.000
  0.000  -0.017   0.000   0.000   0.000   0.000   0.009   0.000
  0.000   0.000  -0.018   0.000   0.001   0.000   0.000   0.009
  0.000   0.000   0.000  -0.016   0.000   0.000   0.000   0.000
  0.000   0.010   0.000   0.000   0.000   0.000  -0.005   0.000
  0.000   0.000   0.011   0.000  -0.001   0.000   0.000  -0.005
  0.000   0.000   0.000   0.009   0.000   0.000   0.000   0.000
 total augmentation occupancy for first ion, spin component:           1
  1.915   0.000   0.000   0.000   0.000  -0.015   0.000   0.000   0.000   0.000   0.000   0.000   0.000   0.000   0.000   0.000
  0.000   1.931   0.000   0.000   0.000   0.000  -0.051   0.000   0.000   0.000   0.000   0.000  -0.004   0.000   0.000  -0.009
  0.000   0.000   1.930   0.000  -0.003   0.000   0.000  -0.032   0.000   0.016   0.015   0.028   0.000   0.022   0.000   0.000
  0.000   0.000   0.000   1.930   0.000   0.000   0.000   0.000  -0.045   0.000   0.000   0.000   0.000   0.000   0.038   0.000
  0.000   0.000  -0.003   0.000   1.918   0.000   0.000   0.016   0.000  -0.026  -0.007   0.016   0.000   0.022   0.000   0.000
 -0.015   0.000   0.000   0.000   0.000   0.047   0.000   0.000   0.000   0.000   0.000   0.000   0.000   0.000   0.000   0.000
  0.000  -0.051   0.000   0.000   0.000   0.000   0.044   0.000   0.000   0.000   0.000   0.000   0.043   0.000   0.000  -0.003
  0.000   0.000  -0.032   0.000   0.016   0.000   0.000   0.051   0.000   0.009  -0.052   0.002   0.000   0.040   0.000   0.000
  0.000   0.000   0.000  -0.045   0.000   0.000   0.000   0.000   0.054   0.000   0.000   0.000   0.000   0.000   0.058   0.000
  0.000   0.000   0.016   0.000  -0.026   0.000   0.000   0.009   0.000   0.054  -0.029   0.007   0.000   0.007   0.000   0.000
  0.000   0.000   0.015   0.000  -0.007   0.000   0.000  -0.052   0.000  -0.029   1.242  -0.266   0.000   0.121   0.000   0.000
  0.000   0.000   0.028   0.000   0.016   0.000   0.000   0.002   0.000   0.007  -0.266   0.100   0.000  -0.058   0.000   0.000
  0.000  -0.004   0.000   0.000   0.000   0.000   0.043   0.000   0.000   0.000   0.000   0.000   0.157   0.000   0.000  -0.009
  0.000   0.000   0.022   0.000   0.022   0.000   0.000   0.040   0.000   0.007   0.121  -0.058   0.000   0.085   0.000   0.000
  0.000   0.000   0.000   0.038   0.000   0.000   0.000   0.000   0.058   0.000   0.000   0.000   0.000   0.000   0.123   0.000
  0.000  -0.009   0.000   0.000   0.000   0.000  -0.003   0.000   0.000   0.000   0.000   0.000  -0.009   0.000   0.000   0.001
  0.000   0.000  -0.011   0.000  -0.001   0.000   0.000  -0.002   0.000   0.000  -0.020   0.007   0.000  -0.007   0.000   0.000
  0.000   0.000   0.000  -0.012   0.000   0.000   0.000   0.000  -0.004   0.000   0.000   0.000   0.000   0.000  -0.008   0.000


------------------------ aborting loop because EDIFF is reached ----------------------------------------


    CHARGE:  cpu time    0.59: real time    0.59
    FORLOC:  cpu time    0.02: real time    0.02
    FORNL :  cpu time    5.55: real time    5.55
    STRESS:  cpu time    8.60: real time    8.60
    FORCOR:  cpu time    0.30: real time    0.30
    FORHAR:  cpu time    0.09: real time    0.09
    MIXING:  cpu time    0.02: real time    0.01

  FORCE on cell =-STRESS in cart. coord.  units (eV):
  Direction    XX          YY          ZZ          XY          YZ          ZX
  --------------------------------------------------------------------------------------
  Alpha Z   278.63144   278.63144   278.63144
  Ewald   18336.68464 18503.08826-22710.02606     0.00000     0.00000     0.00000
  Hartree 20564.36304 20676.39831-19316.73942     0.00000     0.00000     0.00000
  E(xc)    -375.26147  -375.07965  -375.83578     0.00000     0.00000     0.00000
  Local  -39389.10168-39667.25696 41536.79479     0.00000     0.00000     0.00000
  n-local  -223.54285  -222.72077  -224.09442     3.08292     0.00000     0.00000
  augment   336.68334   336.55355   338.05150    -0.00004    -0.00001    -0.00003
  Kinetic   470.04750   469.05557   472.81155     4.69723     0.00000     0.00000
  Fock        0.00000     0.00000     0.00000     0.00000     0.00000     0.00000
  -------------------------------------------------------------------------------------
  Total      -1.49604    -1.33024    -0.40641     0.00000     0.00000     0.00000
  in kB     -14.52038   -12.91114    -3.94452     0.00000     0.00000     0.00000
  external pressure =      -10.46 kB  Pullay stress =        0.00 kB


 VOLUME and BASIS-vectors are now :
 -----------------------------------------------------------------------------
  energy-cutoff  :      415.00
  volume of cell :      165.07
      direct lattice vectors                 reciprocal lattice vectors
     3.631354857  0.000000000  0.000000000     0.275379311  0.000000000  0.000000000
     0.000000000  2.567755644  0.000000000     0.000000000  0.389445157  0.000000000
     0.000000000  0.000000000 17.703266931     0.000000000  0.000000000  0.056486749

  length of vectors
     3.631354857  2.567755644 17.703266931     0.275379311  0.389445157  0.056486749


 FORCES acting on ions
    electron-ion (+dipol)            ewald-force                    non-local-force                 convergence-correction
 -----------------------------------------------------------------------------------------------
   -.676E-13 0.115E-13 0.312E+04   -.913E-14 0.239E-13 -.311E+04   0.000E+00 0.000E+00 -.395E+01   0.167E-12 0.589E-13 0.136E-02
   -.491E-13 -.176E-13 0.630E+03   -.239E-13 0.120E-13 -.630E+03   0.000E+00 0.000E+00 -.598E+00   0.478E-13 0.222E-13 -.226E-03
   -.709E-13 -.685E-13 -.205E+04   -.158E-13 0.167E-13 0.205E+04   0.000E+00 0.000E+00 -.932E+00   -.707E-13 -.345E-13 -.321E-03
   0.559E-12 0.612E-12 0.205E+04   0.745E-14 0.139E-13 -.205E+04   0.000E+00 0.000E+00 0.932E+00   0.194E-12 0.221E-13 0.486E-03
   0.618E-12 0.362E-12 -.630E+03   0.156E-13 0.186E-13 0.630E+03   0.000E+00 0.000E+00 0.598E+00   0.102E-12 -.399E-13 0.485E-03
   0.620E-12 0.376E-12 -.312E+04   0.794E-15 0.666E-14 0.311E+04   0.000E+00 0.000E+00 0.395E+01   -.627E-13 -.249E-13 -.132E-02
 -----------------------------------------------------------------------------------------------
   0.161E-11 0.128E-11 -.890E-03   -.251E-13 0.918E-13 0.000E+00   0.000E+00 0.000E+00 0.444E-15   0.377E-12 0.400E-14 0.469E-03
 
 
 POSITION                                       TOTAL-FORCE (eV/Angst)
 -----------------------------------------------------------------------------------
      0.00000      0.00000      0.07875         0.000000      0.000000      0.012189
      0.00000      0.00000      2.57709         0.000000      0.000000      0.007446
      0.00000      0.00000      5.18787         0.000000      0.000000     -0.016814
      1.81568      1.28388      1.23152         0.000000      0.000000      0.016814
      1.81568      1.28388      3.84230         0.000000      0.000000     -0.007446
      1.81568      1.28388      6.34064         0.000000      0.000000     -0.012189
 -----------------------------------------------------------------------------------
    total drift:                                0.000000      0.000000     -0.000420


--------------------------------------------------------------------------------------------------------



  FREE ENERGIE OF THE ION-ELECTRON SYSTEM (eV)
  ---------------------------------------------------
  free  energy   TOTEN  =       -20.559632 eV

  energy  without entropy=      -20.559632  energy(sigma->0) =      -20.559632
 
 d Force = 0.4926329E-03[ 0.326E-03, 0.660E-03]  d Energy = 0.2572673E-03 0.235E-03
 d Force =-0.6179986E+02[-0.618E+02,-0.618E+02]  d Ewald  =-0.6179986E+02-0.228E-05


--------------------------------------------------------------------------------------------------------


    POTLOK:  cpu time    0.33: real time    0.33


--------------------------------------------------------------------------------------------------------




--------------------------------------------------------------------------------------------------------


    WAVPRE:  cpu time    0.06: real time    0.06
    FEWALD:  cpu time    0.00: real time    0.00
    ORTHCH:  cpu time    1.18: real time    1.18
     LOOP+:  cpu time  147.08: real time  147.12


----------------------------------------- Iteration   12(   1)  ---------------------------------------


    POTLOK:  cpu time    0.29: real time    0.30
    SETDIJ:  cpu time    0.04: real time    0.03
     EDDAV:  cpu time   13.06: real time   13.06
 BZINTS: Fermi energy: -0.838593; 66.000000 electrons
         Band energy:-239.213140;  BLOECHL correction: -0.187928
       DOS:  cpu time    0.04: real time    0.04
    CHARGE:  cpu time    0.64: real time    0.65
    MIXING:  cpu time    0.01: real time    0.01
    --------------------------------------------
      LOOP:  cpu time   14.08: real time   14.09

 eigenvalue-minimisations  :  1280
 total energy-change (2. order) : 0.9519289E-03  (-0.2825539E+00)
 number of electron      65.9999795 magnetization 
 augmentation part       43.2390226 magnetization 

 Broyden mixing:
  rms(total) = 0.12248E-01    rms(broyden)= 0.12236E-01
  rms(prec ) = 0.13612E-01
  weight for this iteration     100.00

 Free energy of the ion-electron system (eV)
  ---------------------------------------------------
  alpha Z        PSCENC =       278.63143507
  Ewald energy   TEWEN  =     14253.64803495
  -1/2 Hartree   DENC   =    -22047.54863454
  -exchange  EXHF       =         0.00000000
  -V(xc)+E(xc)   XCENC  =       255.83731838
  PAW double counting   =      6557.47450937    -7425.21670660
  entropy T*S    EENTRO =         0.00000000
  eigenvalues    EBANDS =      -239.21314047
  atomic energy  EATOM  =      8345.82850422
  ---------------------------------------------------
  free energy    TOTEN  =       -20.55867963 eV

  energy without entropy =      -20.55867963  energy(sigma->0) =      -20.55867963


--------------------------------------------------------------------------------------------------------




----------------------------------------- Iteration   12(   2)  ---------------------------------------


    POTLOK:  cpu time    0.29: real time    0.29
    SETDIJ:  cpu time    0.03: real time    0.03
     EDDAV:  cpu time   14.06: real time   14.06
 BZINTS: Fermi energy: -0.839466; 66.000000 electrons
         Band energy:-239.410080;  BLOECHL correction: -0.188200
       DOS:  cpu time    0.04: real time    0.04
    CHARGE:  cpu time    0.64: real time    0.64
    MIXING:  cpu time    0.01: real time    0.01
    --------------------------------------------
      LOOP:  cpu time   15.07: real time   15.07

 eigenvalue-minimisations  :  1416
 total energy-change (2. order) :-0.6503942E-03  (-0.9100139E-03)
 number of electron      65.9999795 magnetization 
 augmentation part       43.2460320 magnetization 

 Broyden mixing:
  rms(total) = 0.13885E-01    rms(broyden)= 0.13884E-01
  rms(prec ) = 0.15613E-01
  weight for this iteration     100.00

 eigenvalues of (default mixing * dielectric matrix)
  average eigenvalue GAMMA=   0.4373
  0.4373

 Free energy of the ion-electron system (eV)
  ---------------------------------------------------
  alpha Z        PSCENC =       278.63143507
  Ewald energy   TEWEN  =     14253.64803495
  -1/2 Hartree   DENC   =    -22047.39876475
  -exchange  EXHF       =         0.00000000
  -V(xc)+E(xc)   XCENC  =       255.81839218
  PAW double counting   =      6558.20782628    -7425.88467765
  entropy T*S    EENTRO =         0.00000000
  eigenvalues    EBANDS =      -239.41008033
  atomic energy  EATOM  =      8345.82850422
  ---------------------------------------------------
  free energy    TOTEN  =       -20.55933003 eV

  energy without entropy =      -20.55933003  energy(sigma->0) =      -20.55933003


--------------------------------------------------------------------------------------------------------




----------------------------------------- Iteration   12(   3)  ---------------------------------------


    POTLOK:  cpu time    0.30: real time    0.29
    SETDIJ:  cpu time    0.03: real time    0.03
     EDDAV:  cpu time   13.62: real time   13.62
 BZINTS: Fermi energy: -0.840986; 66.000000 electrons
         Band energy:-239.526855;  BLOECHL correction: -0.188111
       DOS:  cpu time    0.04: real time    0.04
    CHARGE:  cpu time    0.59: real time    0.59
    MIXING:  cpu time    0.01: real time    0.01
    --------------------------------------------
      LOOP:  cpu time   14.58: real time   14.59

 eigenvalue-minimisations  :  1352
 total energy-change (2. order) : 0.3413783E-03  (-0.2128007E-03)
 number of electron      65.9999795 magnetization 
 augmentation part       43.2479889 magnetization 

 Broyden mixing:
  rms(total) = 0.59578E-02    rms(broyden)= 0.59573E-02
  rms(prec ) = 0.64019E-02
  weight for this iteration     100.00

 eigenvalues of (default mixing * dielectric matrix)
  average eigenvalue GAMMA=   1.0893
  0.4521  1.7266

 Free energy of the ion-electron system (eV)
  ---------------------------------------------------
  alpha Z        PSCENC =       278.63143507
  Ewald energy   TEWEN  =     14253.64803495
  -1/2 Hartree   DENC   =    -22047.25204725
  -exchange  EXHF       =         0.00000000
  -V(xc)+E(xc)   XCENC  =       255.81959604
  PAW double counting   =      6558.60148939    -7426.30914636
  entropy T*S    EENTRO =         0.00000000
  eigenvalues    EBANDS =      -239.52685471
  atomic energy  EATOM  =      8345.82850422
  ---------------------------------------------------
  free energy    TOTEN  =       -20.55898865 eV

  energy without entropy =      -20.55898865  energy(sigma->0) =      -20.55898865


--------------------------------------------------------------------------------------------------------




----------------------------------------- Iteration   12(   4)  ---------------------------------------


    POTLOK:  cpu time    0.29: real time    0.29
    SETDIJ:  cpu time    0.04: real time    0.03
     EDDAV:  cpu time   13.34: real time   13.34
 BZINTS: Fermi energy: -0.836591; 66.000000 electrons
         Band energy:-239.082886;  BLOECHL correction: -0.188017
       DOS:  cpu time    0.04: real time    0.04
    CHARGE:  cpu time    0.59: real time    0.59
    MIXING:  cpu time    0.01: real time    0.01
    --------------------------------------------
      LOOP:  cpu time   14.32: real time   14.32

 eigenvalue-minimisations  :  1320
 total energy-change (2. order) :-0.1031076E-04  (-0.4592877E-04)
 number of electron      65.9999795 magnetization 
 augmentation part       43.2411505 magnetization 

 Broyden mixing:
  rms(total) = 0.31503E-02    rms(broyden)= 0.31502E-02
  rms(prec ) = 0.34214E-02
  weight for this iteration     100.00

 eigenvalues of (default mixing * dielectric matrix)
  average eigenvalue GAMMA=   1.2449
  2.7181  0.5363  0.4804

 Free energy of the ion-electron system (eV)
  ---------------------------------------------------
  alpha Z        PSCENC =       278.63143507
  Ewald energy   TEWEN  =     14253.64803495
  -1/2 Hartree   DENC   =    -22047.54229210
  -exchange  EXHF       =         0.00000000
  -V(xc)+E(xc)   XCENC  =       255.82671949
  PAW double counting   =      6560.12008415    -7427.98859842
  entropy T*S    EENTRO =         0.00000000
  eigenvalues    EBANDS =      -239.08288631
  atomic energy  EATOM  =      8345.82850422
  ---------------------------------------------------
  free energy    TOTEN  =       -20.55899896 eV

  energy without entropy =      -20.55899896  energy(sigma->0) =      -20.55899896


--------------------------------------------------------------------------------------------------------




----------------------------------------- Iteration   12(   5)  ---------------------------------------


    POTLOK:  cpu time    0.29: real time    0.29
    SETDIJ:  cpu time    0.03: real time    0.03
     EDDAV:  cpu time   14.27: real time   14.27
 BZINTS: Fermi energy: -0.838034; 66.000000 electrons
         Band energy:-239.246342;  BLOECHL correction: -0.188085
       DOS:  cpu time    0.04: real time    0.04
    CHARGE:  cpu time    0.62: real time    0.62
    MIXING:  cpu time    0.01: real time    0.01
    --------------------------------------------
      LOOP:  cpu time   15.26: real time   15.27

 eigenvalue-minimisations  :  1440
 total energy-change (2. order) : 0.4137834E-04  (-0.1166304E-04)
 number of electron      65.9999795 magnetization 
 augmentation part       43.2444595 magnetization 

 Broyden mixing:
  rms(total) = 0.17710E-02    rms(broyden)= 0.17709E-02
  rms(prec ) = 0.19678E-02
  weight for this iteration     100.00

 eigenvalues of (default mixing * dielectric matrix)
  average eigenvalue GAMMA=   1.0367
  2.6416  0.5495  0.5495  0.4063

 Free energy of the ion-electron system (eV)
  ---------------------------------------------------
  alpha Z        PSCENC =       278.63143507
  Ewald energy   TEWEN  =     14253.64803495
  -1/2 Hartree   DENC   =    -22047.39533183
  -exchange  EXHF       =         0.00000000
  -V(xc)+E(xc)   XCENC  =       255.81943228
  PAW double counting   =      6560.62929265    -7428.47398307
  entropy T*S    EENTRO =         0.00000000
  eigenvalues    EBANDS =      -239.24634184
  atomic energy  EATOM  =      8345.82850422
  ---------------------------------------------------
  free energy    TOTEN  =       -20.55895758 eV

  energy without entropy =      -20.55895758  energy(sigma->0) =      -20.55895758


--------------------------------------------------------------------------------------------------------




----------------------------------------- Iteration   12(   6)  ---------------------------------------


    POTLOK:  cpu time    0.29: real time    0.29
    SETDIJ:  cpu time    0.03: real time    0.03
     EDDAV:  cpu time   13.67: real time   13.67
 BZINTS: Fermi energy: -0.838279; 66.000000 electrons
         Band energy:-239.272984;  BLOECHL correction: -0.188089
       DOS:  cpu time    0.04: real time    0.04
    CHARGE:  cpu time    0.63: real time    0.63
    MIXING:  cpu time    0.01: real time    0.01
    --------------------------------------------
      LOOP:  cpu time   14.68: real time   14.68

 eigenvalue-minimisations  :  1368
 total energy-change (2. order) : 0.1111273E-04  (-0.1995845E-05)
 number of electron      65.9999795 magnetization 
 augmentation part       43.2451828 magnetization 

 Broyden mixing:
  rms(total) = 0.97479E-03    rms(broyden)= 0.97477E-03
  rms(prec ) = 0.10791E-02
  weight for this iteration     100.00

 eigenvalues of (default mixing * dielectric matrix)
  average eigenvalue GAMMA=   0.9897
  2.4329  0.9948  0.6447  0.4380  0.4380

 Free energy of the ion-electron system (eV)
  ---------------------------------------------------
  alpha Z        PSCENC =       278.63143507
  Ewald energy   TEWEN  =     14253.64803495
  -1/2 Hartree   DENC   =    -22047.37822008
  -exchange  EXHF       =         0.00000000
  -V(xc)+E(xc)   XCENC  =       255.81885020
  PAW double counting   =      6560.54611567    -7428.38068282
  entropy T*S    EENTRO =         0.00000000
  eigenvalues    EBANDS =      -239.27298367
  atomic energy  EATOM  =      8345.82850422
  ---------------------------------------------------
  free energy    TOTEN  =       -20.55894647 eV

  energy without entropy =      -20.55894647  energy(sigma->0) =      -20.55894647


--------------------------------------------------------------------------------------------------------




----------------------------------------- Iteration   12(   7)  ---------------------------------------


    POTLOK:  cpu time    0.29: real time    0.29
    SETDIJ:  cpu time    0.04: real time    0.03
     EDDAV:  cpu time   12.87: real time   12.88
 BZINTS: Fermi energy: -0.838489; 66.000000 electrons
         Band energy:-239.290836;  BLOECHL correction: -0.188095
       DOS:  cpu time    0.04: real time    0.04
    CHARGE:  cpu time    0.60: real time    0.61
    MIXING:  cpu time    0.01: real time    0.01
    --------------------------------------------
      LOOP:  cpu time   13.86: real time   13.86

 eigenvalue-minimisations  :  1248
 total energy-change (2. order) :-0.4337009E-05  (-0.4362487E-06)
 number of electron      65.9999795 magnetization 
 augmentation part       43.2454574 magnetization 

 Broyden mixing:
  rms(total) = 0.34745E-03    rms(broyden)= 0.34742E-03
  rms(prec ) = 0.38485E-03
  weight for this iteration     100.00

 eigenvalues of (default mixing * dielectric matrix)
  average eigenvalue GAMMA=   1.2494
  2.5115  2.5115  0.9310  0.6898  0.4307  0.4216

 Free energy of the ion-electron system (eV)
  ---------------------------------------------------
  alpha Z        PSCENC =       278.63143507
  Ewald energy   TEWEN  =     14253.64803495
  -1/2 Hartree   DENC   =    -22047.36540416
  -exchange  EXHF       =         0.00000000
  -V(xc)+E(xc)   XCENC  =       255.81871896
  PAW double counting   =      6560.46682622    -7428.29623017
  entropy T*S    EENTRO =         0.00000000
  eigenvalues    EBANDS =      -239.29083588
  atomic energy  EATOM  =      8345.82850422
  ---------------------------------------------------
  free energy    TOTEN  =       -20.55895080 eV

  energy without entropy =      -20.55895080  energy(sigma->0) =      -20.55895080


--------------------------------------------------------------------------------------------------------




----------------------------------------- Iteration   12(   8)  ---------------------------------------


    POTLOK:  cpu time    0.29: real time    0.29
    SETDIJ:  cpu time    0.03: real time    0.03
     EDDAV:  cpu time   10.48: real time   10.49
 BZINTS: Fermi energy: -0.838572; 66.000000 electrons
         Band energy:-239.288228;  BLOECHL correction: -0.188091
       DOS:  cpu time    0.04: real time    0.04
    CHARGE:  cpu time    0.64: real time    0.64
    MIXING:  cpu time    0.01: real time    0.01
    --------------------------------------------
      LOOP:  cpu time   11.50: real time   11.51

 eigenvalue-minimisations  :   928
 total energy-change (2. order) :-0.9830555E-05  (-0.2124758E-06)
 number of electron      65.9999795 magnetization 
 augmentation part       43.2451348 magnetization 

 Broyden mixing:
  rms(total) = 0.19025E-03    rms(broyden)= 0.19023E-03
  rms(prec ) = 0.21490E-03
  weight for this iteration     100.00

 eigenvalues of (default mixing * dielectric matrix)
  average eigenvalue GAMMA=   1.1854
  2.5237  1.7542  1.5337  0.4391  0.4142  0.9076  0.7256

 Free energy of the ion-electron system (eV)
  ---------------------------------------------------
  alpha Z        PSCENC =       278.63143507
  Ewald energy   TEWEN  =     14253.64803495
  -1/2 Hartree   DENC   =    -22047.35982389
  -exchange  EXHF       =         0.00000000
  -V(xc)+E(xc)   XCENC  =       255.81927816
  PAW double counting   =      6560.47367800    -7428.31183931
  entropy T*S    EENTRO =         0.00000000
  eigenvalues    EBANDS =      -239.28822783
  atomic energy  EATOM  =      8345.82850422
  ---------------------------------------------------
  free energy    TOTEN  =       -20.55896063 eV

  energy without entropy =      -20.55896063  energy(sigma->0) =      -20.55896063


--------------------------------------------------------------------------------------------------------




----------------------------------------- Iteration   12(   9)  ---------------------------------------


    POTLOK:  cpu time    0.30: real time    0.29
    SETDIJ:  cpu time    0.03: real time    0.03
     EDDAV:  cpu time   10.06: real time   10.06
 BZINTS: Fermi energy: -0.838768; 66.000000 electrons
         Band energy:-239.307355;  BLOECHL correction: -0.188095
       DOS:  cpu time    0.04: real time    0.04
    CHARGE:  cpu time    0.64: real time    0.64
    MIXING:  cpu time    0.01: real time    0.01
    --------------------------------------------
      LOOP:  cpu time   11.08: real time   11.08

 eigenvalue-minimisations  :   864
 total energy-change (2. order) : 0.5600605E-05  (-0.1624891E-06)
 number of electron      65.9999795 magnetization 
 augmentation part       43.2454498 magnetization 

 Broyden mixing:
  rms(total) = 0.98888E-04    rms(broyden)= 0.98873E-04
  rms(prec ) = 0.11095E-03
  weight for this iteration     100.00

 eigenvalues of (default mixing * dielectric matrix)
  average eigenvalue GAMMA=   1.1144
  2.5523  1.7453  1.7453  0.8810  0.7246  0.4230  0.4230  0.4208

 Free energy of the ion-electron system (eV)
  ---------------------------------------------------
  alpha Z        PSCENC =       278.63143507
  Ewald energy   TEWEN  =     14253.64803495
  -1/2 Hartree   DENC   =    -22047.34433093
  -exchange  EXHF       =         0.00000000
  -V(xc)+E(xc)   XCENC  =       255.81872063
  PAW double counting   =      6560.47189924    -7428.30586295
  entropy T*S    EENTRO =         0.00000000
  eigenvalues    EBANDS =      -239.30735525
  atomic energy  EATOM  =      8345.82850422
  ---------------------------------------------------
  free energy    TOTEN  =       -20.55895503 eV

  energy without entropy =      -20.55895503  energy(sigma->0) =      -20.55895503


--------------------------------------------------------------------------------------------------------




----------------------------------------- Iteration   12(  10)  ---------------------------------------


    POTLOK:  cpu time    0.30: real time    0.30
    SETDIJ:  cpu time    0.03: real time    0.03
     EDDAV:  cpu time    9.62: real time    9.62
 BZINTS: Fermi energy: -0.838785; 66.000000 electrons
         Band energy:-239.307936;  BLOECHL correction: -0.188094
       DOS:  cpu time    0.04: real time    0.04
    --------------------------------------------
      LOOP:  cpu time    9.99: real time    9.99

 eigenvalue-minimisations  :   808
 total energy-change (2. order) :-0.5207748E-06  (-0.2179240E-07)
 number of electron      65.9999795 magnetization 
 augmentation part       43.2454498 magnetization 

 Free energy of the ion-electron system (eV)
  ---------------------------------------------------
  alpha Z        PSCENC =       278.63143507
  Ewald energy   TEWEN  =     14253.64803495
  -1/2 Hartree   DENC   =    -22047.34286439
  -exchange  EXHF       =         0.00000000
  -V(xc)+E(xc)   XCENC  =       255.81877231
  PAW double counting   =      6560.47569980    -7428.31060115
  entropy T*S    EENTRO =         0.00000000
  eigenvalues    EBANDS =      -239.30793635
  atomic energy  EATOM  =      8345.82850422
  ---------------------------------------------------
  free energy    TOTEN  =       -20.55895555 eV

  energy without entropy =      -20.55895555  energy(sigma->0) =      -20.55895555


--------------------------------------------------------------------------------------------------------




 average (electrostatic) potential at core
  the test charge radii are     1.0053
  (the norm of the test charge is              1.0000)
       1 -44.1005       2 -44.5165       3 -44.4460       4 -44.4459       5 -44.5166
       6 -44.1007
 
 
 
 E-fermi :  -0.8388     XC(G=0):  -6.5874     alpha+bet : -4.1343


 k-point   1 :       0.0000    0.0000    0.0000
  band No.  band energies     occupation 
      1      -9.5383      2.00000
      2      -8.0826      2.00000
      3      -6.0984      2.00000
      4      -5.3847      2.00000
      5      -5.0344      2.00000
      6      -4.8910      2.00000
      7      -4.5794      2.00000
      8      -4.3896      2.00000
      9      -4.1645      2.00000
     10      -4.1422      2.00000
     11      -4.0994      2.00000
     12      -3.8173      2.00000
     13      -3.7675      2.00000
     14      -3.7109      2.00000
     15      -3.6230      2.00000
     16      -3.5167      2.00000
     17      -3.4411      2.00000
     18      -3.4042      2.00000
     19      -3.2287      2.00000
     20      -3.2150      2.00000
     21      -3.1049      2.00000
     22      -3.0884      2.00000
     23      -2.9951      2.00000
     24      -2.9496      2.00000
     25      -2.8606      2.00000
     26      -2.8038      2.00000
     27      -2.6330      2.00000
     28      -2.5310      2.00000
     29      -2.4987      2.00000
     30      -2.4148      2.00000
     31      -2.3323      2.00000
     32      -2.2479      2.00000
     33      -2.2059      2.00000
     34      -1.3001      2.16879
     35       0.8715      0.00000
     36       1.6065      0.00000
     37       3.0385      0.00000
     38       3.4112      0.00000
     39       3.6697      0.00000
     40       5.5642      0.00000

 k-point   2 :       0.1429    0.0000    0.0000
  band No.  band energies     occupation 
      1      -9.2985      2.00000
      2      -7.8696      2.00000
      3      -6.0042      2.00000
      4      -5.3810      2.00000
      5      -5.0168      2.00000
      6      -4.9234      2.00000
      7      -4.7403      2.00000
      8      -4.3605      2.00000
      9      -4.0913      2.00000
     10      -4.0371      2.00000
     11      -4.0013      2.00000
     12      -3.8321      2.00000
     13      -3.6785      2.00000
     14      -3.6227      2.00000
     15      -3.5890      2.00000
     16      -3.5316      2.00000
     17      -3.4650      2.00000
     18      -3.4301      2.00000
     19      -3.4039      2.00000
     20      -3.1852      2.00000
     21      -3.1798      2.00000
     22      -3.0132      2.00000
     23      -3.0000      2.00000
     24      -2.9286      2.00000
     25      -2.8716      2.00000
     26      -2.7813      2.00000
     27      -2.6516      2.00000
     28      -2.5709      2.00000
     29      -2.4616      2.00000
     30      -2.4202      2.00000
     31      -2.3137      2.00000
     32      -2.2435      2.00000
     33      -2.2432      2.00000
     34      -1.2005      2.16314
     35       0.2697     -0.00328
     36       0.9836      0.00000
     37       2.0541      0.00000
     38       3.1067      0.00000
     39       3.6311      0.00000
     40       4.4396      0.00000

 k-point   3 :       0.2857    0.0000    0.0000
  band No.  band energies     occupation 
      1      -8.5984      2.00000
      2      -7.2684      2.00000
      3      -5.8134      2.00000
      4      -5.5314      2.00000
      5      -5.1422      2.00000
      6      -5.0650      2.00000
      7      -4.7183      2.00000
      8      -4.2245      2.00000
      9      -3.9976      2.00000
     10      -3.9804      2.00000
     11      -3.8921      2.00000
     12      -3.8216      2.00000
     13      -3.6432      2.00000
     14      -3.6401      2.00000
     15      -3.6040      2.00000
     16      -3.5144      2.00000
     17      -3.4847      2.00000
     18      -3.4096      2.00000
     19      -3.2875      2.00000
     20      -3.1950      2.00000
     21      -3.1063      2.00000
     22      -3.0795      2.00000
     23      -3.0226      2.00000
     24      -2.8646      2.00000
     25      -2.7906      2.00000
     26      -2.7414      2.00000
     27      -2.7224      2.00000
     28      -2.6597      2.00000
     29      -2.4122      2.00000
     30      -2.3675      2.00000
     31      -2.3034      2.00000
     32      -2.2960      2.00000
     33      -2.2623      2.00000
     34      -1.5654      2.12438
     35      -0.8547      0.65212
     36      -0.2231     -0.00302
     37       1.3443      0.00000
     38       1.6757      0.00000
     39       4.1847      0.00000
     40       4.1869      0.00000

 k-point   4 :       0.4286    0.0000    0.0000
  band No.  band energies     occupation 
      1      -7.5165      2.00000
      2      -6.4540      2.00000
      3      -6.2760      2.00000
      4      -5.7955      2.00000
      5      -5.3207      2.00000
      6      -5.3030      2.00000
      7      -4.4928      2.00000
      8      -4.2288      2.00000
      9      -3.9880      2.00000
     10      -3.9124      2.00000
     11      -3.8249      2.00000
     12      -3.8197      2.00000
     13      -3.7035      2.00000
     14      -3.7034      2.00000
     15      -3.6291      2.00000
     16      -3.6050      2.00000
     17      -3.4275      2.00000
     18      -3.4023      2.00000
     19      -3.3692      2.00000
     20      -3.2895      2.00000
     21      -3.0719      2.00000
     22      -2.9587      2.00000
     23      -2.8115      2.00000
     24      -2.8031      2.00000
     25      -2.6580      2.00000
     26      -2.6469      2.00000
     27      -2.5673      2.00000
     28      -2.4506      2.00000
     29      -2.3913      2.00000
     30      -2.3593      2.00000
     31      -2.3551      2.00000
     32      -2.3155      2.00000
     33      -2.2994      2.00000
     34      -2.2042      2.00000
     35      -1.7694      2.11568
     36      -0.8658      0.22776
     37       0.4530      0.00000
     38       1.1429      0.00000
     39       4.2430      0.00000
     40       5.2099      0.00000

 k-point   5 :       0.0000    0.1429    0.0000
  band No.  band energies     occupation 
      1      -9.0582      2.00000
      2      -7.6358      2.00000
      3      -5.7729      2.00000
      4      -5.1975      2.00000
      5      -4.8790      2.00000
      6      -4.7133      2.00000
      7      -4.3812      2.00000
      8      -4.3509      2.00000
      9      -4.3331      2.00000
     10      -4.2740      2.00000
     11      -4.2239      2.00000
     12      -3.9725      2.00000
     13      -3.9365      2.00000
     14      -3.7393      2.00000
     15      -3.6123      2.00000
     16      -3.5220      2.00000
     17      -3.4824      2.00000
     18      -3.3567      2.00000
     19      -3.2061      2.00000
     20      -3.1837      2.00000
     21      -3.0987      2.00000
     22      -2.9616      2.00000
     23      -2.9409      2.00000
     24      -2.8869      2.00000
     25      -2.8816      2.00000
     26      -2.8530      2.00000
     27      -2.5665      2.00000
     28      -2.5585      2.00000
     29      -2.5422      2.00000
     30      -2.4411      2.00000
     31      -2.4384      2.00000
     32      -2.2267      2.00000
     33      -2.1961      2.00000
     34      -0.9246      1.12719
     35       1.3273      0.00000
     36       2.5324      0.00000
     37       3.4817      0.00000
     38       3.8753      0.00000
     39       4.3649      0.00000
     40       6.0336      0.00000

 k-point   6 :       0.1429    0.1429    0.0000
  band No.  band energies     occupation 
      1      -8.8250      2.00000
      2      -7.4281      2.00000
      3      -5.6736      2.00000
      4      -5.1721      2.00000
      5      -4.8498      2.00000
      6      -4.7341      2.00000
      7      -4.5859      2.00000
      8      -4.3011      2.00000
      9      -4.2494      2.00000
     10      -4.2328      2.00000
     11      -4.1134      2.00000
     12      -3.9784      2.00000
     13      -3.7822      2.00000
     14      -3.7510      2.00000
     15      -3.5961      2.00000
     16      -3.5710      2.00000
     17      -3.5075      2.00000
     18      -3.3810      2.00000
     19      -3.3112      2.00000
     20      -3.2285      2.00000
     21      -3.0767      2.00000
     22      -3.0602      2.00000
     23      -2.9741      2.00000
     24      -2.9714      2.00000
     25      -2.8335      2.00000
     26      -2.6884      2.00000
     27      -2.6343      2.00000
     28      -2.5540      2.00000
     29      -2.5121      2.00000
     30      -2.4432      2.00000
     31      -2.4031      2.00000
     32      -2.3187      2.00000
     33      -2.1480      2.00000
     34      -0.7436      0.67847
     35       1.0779     -0.00238
     36       1.4946      0.00000
     37       2.6353      0.00000
     38       3.6024      0.00000
     39       4.0964      0.00000
     40       4.8862      0.00000

 k-point   7 :       0.2857    0.1429    0.0000
  band No.  band energies     occupation 
      1      -8.1465      2.00000
      2      -6.8464      2.00000
      3      -5.4831      2.00000
      4      -5.2596      2.00000
      5      -4.9175      2.00000
      6      -4.8213      2.00000
      7      -4.6214      2.00000
      8      -4.2395      2.00000
      9      -4.1326      2.00000
     10      -4.0711      2.00000
     11      -4.0214      2.00000
     12      -3.9883      2.00000
     13      -3.7578      2.00000
     14      -3.7299      2.00000
     15      -3.5802      2.00000
     16      -3.5059      2.00000
     17      -3.4731      2.00000
     18      -3.4135      2.00000
     19      -3.3928      2.00000
     20      -3.3179      2.00000
     21      -3.1750      2.00000
     22      -3.1331      2.00000
     23      -3.1185      2.00000
     24      -3.0102      2.00000
     25      -2.7845      2.00000
     26      -2.6846      2.00000
     27      -2.6761      2.00000
     28      -2.5543      2.00000
     29      -2.4704      2.00000
     30      -2.4394      2.00000
     31      -2.3831      2.00000
     32      -2.3669      2.00000
     33      -1.9235      2.00000
     34      -0.8739      1.16209
     35      -0.1672     -0.05425
     36       0.3982     -0.00414
     37       1.9049      0.00000
     38       2.2088      0.00000
     39       4.5844      0.00000
     40       4.6492      0.00000

 k-point   8 :       0.4286    0.1429    0.0000
  band No.  band energies     occupation 
      1      -7.1088      2.00000
      2      -6.0888      2.00000
      3      -5.9257      2.00000
      4      -5.4824      2.00000
      5      -5.0314      2.00000
      6      -5.0117      2.00000
      7      -4.4331      2.00000
      8      -4.2197      2.00000
      9      -4.0283      2.00000
     10      -4.0137      2.00000
     11      -3.9754      2.00000
     12      -3.9272      2.00000
     13      -3.7637      2.00000
     14      -3.7431      2.00000
     15      -3.7097      2.00000
     16      -3.6162      2.00000
     17      -3.4797      2.00000
     18      -3.4028      2.00000
     19      -3.2467      2.00000
     20      -3.2160      2.00000
     21      -3.1656      2.00000
     22      -3.1340      2.00000
     23      -3.1090      2.00000
     24      -3.0673      2.00000
     25      -2.8296      2.00000
     26      -2.7878      2.00000
     27      -2.6496      2.00000
     28      -2.6356      2.00000
     29      -2.4818      2.00000
     30      -2.4592      2.00000
     31      -2.3969      2.00000
     32      -2.1291      2.00000
     33      -1.9779      2.00000
     34      -1.4277      1.90894
     35      -0.9639      1.08968
     36       0.1137     -0.07931
     37       0.8968      0.00000
     38       1.7887      0.00000
     39       4.5837      0.00000
     40       5.5781      0.00000

 k-point   9 :       0.0000    0.2857    0.0000
  band No.  band energies     occupation 
      1      -7.7124      2.00000
      2      -6.5052      2.00000
      3      -5.3715      2.00000
      4      -4.9190      2.00000
      5      -4.7542      2.00000
      6      -4.7262      2.00000
      7      -4.5635      2.00000
      8      -4.4885      2.00000
      9      -4.4808      2.00000
     10      -4.3492      2.00000
     11      -4.2995      2.00000
     12      -3.8886      2.00000
     13      -3.8280      2.00000
     14      -3.7503      2.00000
     15      -3.5381      2.00000
     16      -3.4389      2.00000
     17      -3.3427      2.00000
     18      -3.1552      2.00000
     19      -3.1256      2.00000
     20      -3.0685      2.00000
     21      -2.9916      2.00000
     22      -2.9481      2.00000
     23      -2.8736      2.00000
     24      -2.7854      2.00000
     25      -2.6558      2.00000
     26      -2.6501      2.00000
     27      -2.5022      2.00000
     28      -2.4958      2.00000
     29      -2.4879      2.00000
     30      -2.4619      2.00000
     31      -2.3096      2.00000
     32      -2.2805      2.00000
     33      -1.9253      2.06317
     34       0.1497     -0.07108
     35       2.5007      0.00000
     36       4.1051      0.00000
     37       4.6948      0.00000
     38       4.8212      0.00000
     39       5.0737      0.00000
     40       5.8768      0.00000

 k-point  10 :       0.1429    0.2857    0.0000
  band No.  band energies     occupation 
      1      -7.5125      2.00000
      2      -6.3262      2.00000
      3      -5.2492      2.00000
      4      -4.8607      2.00000
      5      -4.7387      2.00000
      6      -4.7157      2.00000
      7      -4.5967      2.00000
      8      -4.4469      2.00000
      9      -4.4173      2.00000
     10      -4.2898      2.00000
     11      -4.2571      2.00000
     12      -3.9184      2.00000
     13      -3.8208      2.00000
     14      -3.7610      2.00000
     15      -3.5942      2.00000
     16      -3.5171      2.00000
     17      -3.3961      2.00000
     18      -3.3139      2.00000
     19      -3.1325      2.00000
     20      -3.0535      2.00000
     21      -2.9773      2.00000
     22      -2.9137      2.00000
     23      -2.9011      2.00000
     24      -2.8390      2.00000
     25      -2.8042      2.00000
     26      -2.6382      2.00000
     27      -2.5362      2.00000
     28      -2.5252      2.00000
     29      -2.4458      2.00000
     30      -2.3793      2.00000
     31      -2.3439      2.00000
     32      -2.3366      2.00000
     33      -1.6471      1.94143
     34       0.4450     -0.05885
     35       2.6980      0.00000
     36       2.7369      0.00000
     37       4.1340      0.00000
     38       4.5109      0.00000
     39       5.0971      0.00000
     40       5.3588      0.00000

 k-point  11 :       0.2857    0.2857    0.0000
  band No.  band energies     occupation 
      1      -6.9521      2.00000
      2      -5.8460      2.00000
      3      -4.9557      2.00000
      4      -4.9425      2.00000
      5      -4.7192      2.00000
      6      -4.7035      2.00000
      7      -4.4792      2.00000
      8      -4.3928      2.00000
      9      -4.2627      2.00000
     10      -4.1759      2.00000
     11      -4.1229      2.00000
     12      -3.9764      2.00000
     13      -3.7967      2.00000
     14      -3.7849      2.00000
     15      -3.7233      2.00000
     16      -3.6309      2.00000
     17      -3.4961      2.00000
     18      -3.4944      2.00000
     19      -3.1701      2.00000
     20      -3.0848      2.00000
     21      -3.0431      2.00000
     22      -3.0388      2.00000
     23      -2.9932      2.00000
     24      -2.9587      2.00000
     25      -2.7503      2.00000
     26      -2.7025      2.00000
     27      -2.6317      2.00000
     28      -2.5333      2.00000
     29      -2.4670      2.00000
     30      -2.4304      2.00000
     31      -2.3876      2.00000
     32      -2.1258      2.07596
     33      -0.9231      1.37332
     34       0.4014     -0.09290
     35       1.2639     -0.01569
     36       1.7515      0.00000
     37       3.3866      0.00000
     38       3.6869      0.00000
     39       5.4009      0.00000
     40       5.8272      0.00000

 k-point  12 :       0.4286    0.2857    0.0000
  band No.  band energies     occupation 
      1      -6.1749      2.00000
      2      -5.4690      2.00000
      3      -5.2097      2.00000
      4      -4.8621      2.00000
      5      -4.6191      2.00000
      6      -4.6090      2.00000
      7      -4.3326      2.00000
      8      -4.2920      2.00000
      9      -4.1672      2.00000
     10      -4.1411      2.00000
     11      -4.0986      2.00000
     12      -3.9364      2.00000
     13      -3.7841      2.00000
     14      -3.7740      2.00000
     15      -3.7410      2.00000
     16      -3.7177      2.00000
     17      -3.5980      2.00000
     18      -3.5713      2.00000
     19      -3.2537      2.00000
     20      -3.2072      2.00000
     21      -3.1129      2.00000
     22      -3.0768      2.00000
     23      -3.0363      2.00000
     24      -3.0248      2.00000
     25      -2.7778      2.00000
     26      -2.7718      2.00000
     27      -2.7012      2.00000
     28      -2.5947      2.00000
     29      -2.4810      2.00000
     30      -2.4714      2.00000
     31      -2.2182      2.00000
     32      -1.4733      2.05848
     33      -1.1973      1.61324
     34      -0.3240      0.05650
     35       0.3891     -0.08577
     36       1.6927      0.00000
     37       2.3919      0.00000
     38       3.4868      0.00000
     39       5.6590      0.00000
     40       6.5443      0.00000

 k-point  13 :       0.0000    0.4286    0.0000
  band No.  band energies     occupation 
      1      -5.9612      2.00000
      2      -5.6299      2.00000
      3      -5.4126      2.00000
      4      -4.9957      2.00000
      5      -4.9843      2.00000
      6      -4.9841      2.00000
      7      -4.5968      2.00000
      8      -4.5847      2.00000
      9      -4.5002      2.00000
     10      -4.4909      2.00000
     11      -4.1366      2.00000
     12      -4.0400      2.00000
     13      -4.0197      2.00000
     14      -3.8008      2.00000
     15      -3.4467      2.00000
     16      -3.2898      2.00000
     17      -3.0924      2.00000
     18      -3.0310      2.00000
     19      -2.9131      2.00000
     20      -2.7745      2.00000
     21      -2.6965      2.00000
     22      -2.6736      2.00000
     23      -2.5712      2.00000
     24      -2.4707      2.00000
     25      -2.4369      2.00000
     26      -2.4190      2.00000
     27      -2.4143      2.00000
     28      -2.3439      2.00000
     29      -2.3297      2.00000
     30      -2.2783      2.00000
     31      -1.8214      2.00000
     32      -1.5647      2.00000
     33      -0.4805      0.34522
     34       0.4046      0.00000
     35       1.2129      0.00000
     36       1.3801      0.00000
     37       4.0408      0.00000
     38       4.4650      0.00000
     39       7.0109      0.00000
     40       7.4638      0.00000

 k-point  14 :       0.1429    0.4286    0.0000
  band No.  band energies     occupation 
      1      -5.8907      2.00000
      2      -5.5114      2.00000
      3      -5.3025      2.00000
      4      -5.0125      2.00000
      5      -4.9601      2.00000
      6      -4.9218      2.00000
      7      -4.7335      2.00000
      8      -4.6328      2.00000
      9      -4.3067      2.00000
     10      -4.3064      2.00000
     11      -4.0900      2.00000
     12      -4.0182      2.00000
     13      -3.8968      2.00000
     14      -3.7613      2.00000
     15      -3.4664      2.00000
     16      -3.4623      2.00000
     17      -3.1537      2.00000
     18      -3.0983      2.00000
     19      -2.8856      2.00000
     20      -2.8850      2.00000
     21      -2.7994      2.00000
     22      -2.7556      2.00000
     23      -2.6362      2.00000
     24      -2.5365      2.00000
     25      -2.4921      2.00000
     26      -2.4364      2.00000
     27      -2.3851      2.00000
     28      -2.3792      2.00000
     29      -2.3384      2.00000
     30      -2.3158      2.00000
     31      -1.8322      2.00000
     32      -1.4028      2.00000
     33      -0.0375      0.04000
     34       0.4780      0.00000
     35       1.4394      0.00000
     36       1.7978      0.00000
     37       4.2325      0.00000
     38       4.7100      0.00000
     39       5.4578      0.00000
     40       6.6081      0.00000

 k-point  15 :       0.2857    0.4286    0.0000
  band No.  band energies     occupation 
      1      -5.7473      2.00000
      2      -5.2541      2.00000
      3      -5.1559      2.00000
      4      -5.0198      2.00000
      5      -4.8733      2.00000
      6      -4.8621      2.00000
      7      -4.5008      2.00000
      8      -4.4759      2.00000
      9      -4.2233      2.00000
     10      -4.1764      2.00000
     11      -3.8562      2.00000
     12      -3.8329      2.00000
     13      -3.7937      2.00000
     14      -3.7633      2.00000
     15      -3.6463      2.00000
     16      -3.5987      2.00000
     17      -3.3816      2.00000
     18      -3.3125      2.00000
     19      -3.0895      2.00000
     20      -2.9979      2.00000
     21      -2.9078      2.00000
     22      -2.8103      2.00000
     23      -2.7263      2.00000
     24      -2.6159      2.00000
     25      -2.5675      2.00000
     26      -2.5079      2.00000
     27      -2.3931      2.00000
     28      -2.3644      2.00000
     29      -2.3238      2.00000
     30      -2.2907      2.00000
     31      -1.8646      2.00000
     32      -0.8553      1.50187
     33       0.4341     -0.12631
     34       0.9218      0.00000
     35       1.8747      0.00000
     36       2.7919      0.00000
     37       3.5937      0.00000
     38       4.5270      0.00000
     39       4.7929      0.00000
     40       5.3959      0.00000

 k-point  16 :       0.4286    0.4286    0.0000
  band No.  band energies     occupation 
      1      -5.6046      2.00000
      2      -5.4358      2.00000
      3      -4.9009      2.00000
      4      -4.8084      2.00000
      5      -4.7048      2.00000
      6      -4.6675      2.00000
      7      -4.2936      2.00000
      8      -4.2074      2.00000
      9      -4.1455      2.00000
     10      -4.1316      2.00000
     11      -3.9987      2.00000
     12      -3.9281      2.00000
     13      -3.8078      2.00000
     14      -3.7674      2.00000
     15      -3.6377      2.00000
     16      -3.6302      2.00000
     17      -3.5307      2.00000
     18      -3.5067      2.00000
     19      -3.1598      2.00000
     20      -3.1300      2.00000
     21      -2.8786      2.00000
     22      -2.8246      2.00000
     23      -2.7353      2.00000
     24      -2.7006      2.00000
     25      -2.5564      2.00000
     26      -2.4719      2.00000
     27      -2.4159      2.00000
     28      -2.4003      2.00000
     29      -2.2989      2.00000
     30      -2.2736      2.00000
     31      -1.5247      2.00000
     32      -0.4677      0.21220
     33       0.1166     -0.10543
     34       1.2670      0.00000
     35       2.2533      0.00000
     36       3.2902      0.00000
     37       3.5535      0.00000
     38       4.1457      0.00000
     39       4.5269      0.00000
     40       4.7485      0.00000


--------------------------------------------------------------------------------------------------------


 soft charge-density along one line, spin component           1
         0         1         2         3         4         5         6         7         8         9
 total charge-density along one line
 
 pseudopotential strength for first ion, spin component:           1
 -9.523   0.000   0.000   0.000   0.000   1.136   0.000   0.000
  0.000  -9.495   0.000   0.000   0.000   0.000   1.122   0.000
  0.000   0.000  -9.491   0.000  -0.015   0.000   0.000   1.119
  0.000   0.000   0.000  -9.484   0.000   0.000   0.000   0.000
  0.000   0.000  -0.015   0.000  -9.517   0.000   0.000   0.007
  1.136   0.000   0.000   0.000   0.000   1.054   0.000   0.000
  0.000   1.122   0.000   0.000   0.000   0.000   1.061   0.000
  0.000   0.000   1.119   0.000   0.007   0.000   0.000   1.062
  0.000   0.000   0.000   1.116   0.000   0.000   0.000   0.000
  0.000   0.000   0.007   0.000   1.133   0.000   0.000  -0.003
  0.000   0.000  -0.006   0.000  -0.003   0.000   0.000   0.002
  0.000   0.000   0.000   0.000   0.000   0.000   0.000   0.000
  0.000  -0.017   0.000   0.000   0.000   0.000   0.009   0.000
  0.000   0.000  -0.018   0.000   0.001   0.000   0.000   0.009
  0.000   0.000   0.000  -0.016   0.000   0.000   0.000   0.000
  0.000   0.010   0.000   0.000   0.000   0.000  -0.005   0.000
  0.000   0.000   0.011   0.000  -0.001   0.000   0.000  -0.005
  0.000   0.000   0.000   0.009   0.000   0.000   0.000   0.000
 total augmentation occupancy for first ion, spin component:           1
  1.916   0.000   0.000   0.000   0.000  -0.015   0.000   0.000   0.000   0.000   0.000   0.000   0.000   0.000   0.000   0.000
  0.000   1.932   0.000   0.000   0.000   0.000  -0.051   0.000   0.000   0.000   0.000   0.000  -0.004   0.000   0.000  -0.009
  0.000   0.000   1.931   0.000  -0.003   0.000   0.000  -0.030   0.000   0.016   0.015   0.028   0.000   0.023   0.000   0.000
  0.000   0.000   0.000   1.930   0.000   0.000   0.000   0.000  -0.045   0.000   0.000   0.000   0.000   0.000   0.038   0.000
  0.000   0.000  -0.003   0.000   1.918   0.000   0.000   0.016   0.000  -0.026  -0.006   0.016   0.000   0.022   0.000   0.000
 -0.015   0.000   0.000   0.000   0.000   0.047   0.000   0.000   0.000   0.000   0.000   0.000   0.000   0.000   0.000   0.000
  0.000  -0.051   0.000   0.000   0.000   0.000   0.045   0.000   0.000   0.000   0.000   0.000   0.044   0.000   0.000  -0.003
  0.000   0.000  -0.030   0.000   0.016   0.000   0.000   0.052   0.000   0.009  -0.051   0.002   0.000   0.041   0.000   0.000
  0.000   0.000   0.000  -0.045   0.000   0.000   0.000   0.000   0.055   0.000   0.000   0.000   0.000   0.000   0.059   0.000
  0.000   0.000   0.016   0.000  -0.026   0.000   0.000   0.009   0.000   0.054  -0.029   0.007   0.000   0.007   0.000   0.000
  0.000   0.000   0.015   0.000  -0.006   0.000   0.000  -0.051   0.000  -0.029   1.244  -0.268   0.000   0.122   0.000   0.000
  0.000   0.000   0.028   0.000   0.016   0.000   0.000   0.002   0.000   0.007  -0.268   0.101   0.000  -0.059   0.000   0.000
  0.000  -0.004   0.000   0.000   0.000   0.000   0.044   0.000   0.000   0.000   0.000   0.000   0.158   0.000   0.000  -0.010
  0.000   0.000   0.023   0.000   0.022   0.000   0.000   0.041   0.000   0.007   0.122  -0.059   0.000   0.086   0.000   0.000
  0.000   0.000   0.000   0.038   0.000   0.000   0.000   0.000   0.059   0.000   0.000   0.000   0.000   0.000   0.124   0.000
  0.000  -0.009   0.000   0.000   0.000   0.000  -0.003   0.000   0.000   0.000   0.000   0.000  -0.010   0.000   0.000   0.001
  0.000   0.000  -0.011   0.000  -0.001   0.000   0.000  -0.002   0.000   0.000  -0.020   0.007   0.000  -0.007   0.000   0.000
  0.000   0.000   0.000  -0.012   0.000   0.000   0.000   0.000  -0.004   0.000   0.000   0.000   0.000   0.000  -0.008   0.000


------------------------ aborting loop because EDIFF is reached ----------------------------------------


    CHARGE:  cpu time    0.58: real time    0.59
    FORLOC:  cpu time    0.02: real time    0.02
    FORNL :  cpu time    5.54: real time    5.54
    STRESS:  cpu time    8.62: real time    8.62
    FORCOR:  cpu time    0.30: real time    0.30
    FORHAR:  cpu time    0.09: real time    0.09
    MIXING:  cpu time    0.01: real time    0.01

  FORCE on cell =-STRESS in cart. coord.  units (eV):
  Direction    XX          YY          ZZ          XY          YZ          ZX
  --------------------------------------------------------------------------------------
  Alpha Z   278.63144   278.63144   278.63144
  Ewald   18466.10703 18627.79399-22840.25627     0.00000     0.00000     0.00000
  Hartree 20690.80837 20800.23550-19443.72468     0.00000     0.00000     0.00000
  E(xc)    -375.30063  -375.12269  -375.87493     0.00000     0.00000     0.00000
  Local  -39645.11329-39916.05346 41794.05914     0.00000     0.00000     0.00000
  n-local  -223.31798  -222.53879  -223.84807     3.08433     0.00000     0.00000
  augment   336.71666   336.61943   338.01366    -0.00003    -0.00002    -0.00002
  Kinetic   470.18622   469.22549   472.92386     4.68508     0.00000     0.00000
  Fock        0.00000     0.00000     0.00000     0.00000     0.00000     0.00000
  -------------------------------------------------------------------------------------
  Total      -1.28219    -1.20910    -0.07584     0.00000     0.00000     0.00000
  in kB     -12.44473   -11.73535    -0.73613     0.00000     0.00000     0.00000
  external pressure =       -8.31 kB  Pullay stress =        0.00 kB


 VOLUME and BASIS-vectors are now :
 -----------------------------------------------------------------------------
  energy-cutoff  :      415.00
  volume of cell :      165.07
      direct lattice vectors                 reciprocal lattice vectors
     3.631354857  0.000000000  0.000000000     0.275379311  0.000000000  0.000000000
     0.000000000  2.567755644  0.000000000     0.000000000  0.389445157  0.000000000
     0.000000000  0.000000000 17.703266931     0.000000000  0.000000000  0.056486749

  length of vectors
     3.631354857  2.567755644 17.703266931     0.275379311  0.389445157  0.056486749


 FORCES acting on ions
    electron-ion (+dipol)            ewald-force                    non-local-force                 convergence-correction
 -----------------------------------------------------------------------------------------------
   0.172E-13 0.434E-14 0.313E+04   0.116E-13 0.836E-14 -.312E+04   0.000E+00 0.000E+00 -.392E+01   -.489E-13 0.342E-13 0.618E-03
   -.331E-13 -.438E-14 0.633E+03   0.386E-13 0.350E-13 -.632E+03   0.000E+00 0.000E+00 -.603E+00   -.319E-13 -.377E-13 -.269E-03
   -.461E-13 0.559E-14 -.206E+04   0.508E-13 0.147E-13 0.206E+04   0.000E+00 0.000E+00 -.946E+00   -.542E-13 -.243E-13 0.123E-03
   0.638E-12 0.835E-12 0.206E+04   -.589E-13 0.135E-13 -.206E+04   0.000E+00 0.000E+00 0.946E+00   0.624E-13 -.191E-13 0.706E-04
   0.615E-12 0.775E-12 -.633E+03   -.732E-13 0.423E-14 0.632E+03   0.000E+00 0.000E+00 0.603E+00   0.438E-13 -.232E-13 0.598E-03
   0.589E-12 0.141E-11 -.313E+04   0.591E-14 0.160E-13 0.312E+04   0.000E+00 0.000E+00 0.392E+01   0.440E-13 -.104E-13 -.585E-03
 -----------------------------------------------------------------------------------------------
   0.178E-11 0.303E-11 -.152E-02   -.251E-13 0.918E-13 0.909E-12   0.000E+00 0.000E+00 0.888E-15   0.154E-13 -.806E-13 0.556E-03
 
 
 POSITION                                       TOTAL-FORCE (eV/Angst)
 -----------------------------------------------------------------------------------
      0.00000      0.00000      0.09257         0.000000      0.000000     -0.032147
      0.00000      0.00000      2.57834         0.000000      0.000000      0.024815
      0.00000      0.00000      5.17908         0.000000      0.000000     -0.001781
      1.81568      1.28388      1.24031         0.000000      0.000000      0.001781
      1.81568      1.28388      3.84105         0.000000      0.000000     -0.024815
      1.81568      1.28388      6.32682         0.000000      0.000000      0.032147
 -----------------------------------------------------------------------------------
    total drift:                                0.000000      0.000000     -0.000963


--------------------------------------------------------------------------------------------------------



  FREE ENERGIE OF THE ION-ELECTRON SYSTEM (eV)
  ---------------------------------------------------
  free  energy   TOTEN  =       -20.558956 eV

  energy  without entropy=      -20.558956  energy(sigma->0) =      -20.558956
 
 d Force =-0.7196511E-04[-0.795E-03, 0.651E-03]  d Energy =-0.6761307E-03 0.604E-03
 d Force =-0.1238979E+03[-0.124E+03,-0.124E+03]  d Ewald  =-0.1238979E+03-0.193E-04


--------------------------------------------------------------------------------------------------------


    POTLOK:  cpu time    0.33: real time    0.33


--------------------------------------------------------------------------------------------------------




--------------------------------------------------------------------------------------------------------


    WAVPRE:  cpu time    0.06: real time    0.06
    FEWALD:  cpu time    0.00: real time    0.00
    ORTHCH:  cpu time    1.17: real time    1.17
     LOOP+:  cpu time  151.21: real time  151.23


----------------------------------------- Iteration   13(   1)  ---------------------------------------


    POTLOK:  cpu time    0.30: real time    0.30
    SETDIJ:  cpu time    0.03: real time    0.03
     EDDAV:  cpu time   13.08: real time   13.08
 BZINTS: Fermi energy: -0.840424; 66.000000 electrons
         Band energy:-239.159882;  BLOECHL correction: -0.188783
       DOS:  cpu time    0.04: real time    0.04
    CHARGE:  cpu time    0.65: real time    0.65
    MIXING:  cpu time    0.01: real time    0.01
    --------------------------------------------
      LOOP:  cpu time   14.10: real time   14.11

 eigenvalue-minimisations  :  1280
 total energy-change (2. order) :-0.7396236E-03  (-0.4180841E-01)
 number of electron      65.9999750 magnetization 
 augmentation part       43.2487982 magnetization 

 Broyden mixing:
  rms(total) = 0.46309E-02    rms(broyden)= 0.46265E-02
  rms(prec ) = 0.50081E-02
  weight for this iteration     100.00

 Free energy of the ion-electron system (eV)
  ---------------------------------------------------
  alpha Z        PSCENC =       278.63143507
  Ewald energy   TEWEN  =     14228.58397115
  -1/2 Hartree   DENC   =    -22022.40561887
  -exchange  EXHF       =         0.00000000
  -V(xc)+E(xc)   XCENC  =       255.79961819
  PAW double counting   =      6560.48466690    -7428.32238980
  entropy T*S    EENTRO =         0.00000000
  eigenvalues    EBANDS =      -239.15988152
  atomic energy  EATOM  =      8345.82850422
  ---------------------------------------------------
  free energy    TOTEN  =       -20.55969466 eV

  energy without entropy =      -20.55969466  energy(sigma->0) =      -20.55969466


--------------------------------------------------------------------------------------------------------




----------------------------------------- Iteration   13(   2)  ---------------------------------------


    POTLOK:  cpu time    0.29: real time    0.30
    SETDIJ:  cpu time    0.04: real time    0.03
     EDDAV:  cpu time   14.32: real time   14.32
 BZINTS: Fermi energy: -0.840097; 66.000000 electrons
         Band energy:-239.100496;  BLOECHL correction: -0.188686
       DOS:  cpu time    0.04: real time    0.04
    CHARGE:  cpu time    0.61: real time    0.61
    MIXING:  cpu time    0.01: real time    0.01
    --------------------------------------------
      LOOP:  cpu time   15.31: real time   15.31

 eigenvalue-minimisations  :  1448
 total energy-change (2. order) :-0.5017915E-04  (-0.1413753E-03)
 number of electron      65.9999750 magnetization 
 augmentation part       43.2466812 magnetization 

 Broyden mixing:
  rms(total) = 0.42296E-02    rms(broyden)= 0.42291E-02
  rms(prec ) = 0.46443E-02
  weight for this iteration     100.00

 eigenvalues of (default mixing * dielectric matrix)
  average eigenvalue GAMMA=   0.5632
  0.5632

 Free energy of the ion-electron system (eV)
  ---------------------------------------------------
  alpha Z        PSCENC =       278.63143507
  Ewald energy   TEWEN  =     14228.58397115
  -1/2 Hartree   DENC   =    -22022.45162093
  -exchange  EXHF       =         0.00000000
  -V(xc)+E(xc)   XCENC  =       255.80482125
  PAW double counting   =      6560.17484765    -7428.03120758
  entropy T*S    EENTRO =         0.00000000
  eigenvalues    EBANDS =      -239.10049567
  atomic energy  EATOM  =      8345.82850422
  ---------------------------------------------------
  free energy    TOTEN  =       -20.55974484 eV

  energy without entropy =      -20.55974484  energy(sigma->0) =      -20.55974484


--------------------------------------------------------------------------------------------------------




----------------------------------------- Iteration   13(   3)  ---------------------------------------


    POTLOK:  cpu time    0.30: real time    0.30
    SETDIJ:  cpu time    0.04: real time    0.03
     EDDAV:  cpu time   13.78: real time   13.78
 BZINTS: Fermi energy: -0.839845; 66.000000 electrons
         Band energy:-239.079644;  BLOECHL correction: -0.188730
       DOS:  cpu time    0.04: real time    0.04
    CHARGE:  cpu time    0.62: real time    0.62
    MIXING:  cpu time    0.01: real time    0.01
    --------------------------------------------
      LOOP:  cpu time   14.79: real time   14.79

 eigenvalue-minimisations  :  1376
 total energy-change (2. order) :-0.4298714E-04  (-0.3757459E-04)
 number of electron      65.9999750 magnetization 
 augmentation part       43.2464295 magnetization 

 Broyden mixing:
  rms(total) = 0.24550E-02    rms(broyden)= 0.24548E-02
  rms(prec ) = 0.26690E-02
  weight for this iteration     100.00

 eigenvalues of (default mixing * dielectric matrix)
  average eigenvalue GAMMA=   1.3000
  0.4003  2.1997

 Free energy of the ion-electron system (eV)
  ---------------------------------------------------
  alpha Z        PSCENC =       278.63143507
  Ewald energy   TEWEN  =     14228.58397115
  -1/2 Hartree   DENC   =    -22022.48663540
  -exchange  EXHF       =         0.00000000
  -V(xc)+E(xc)   XCENC  =       255.80428907
  PAW double counting   =      6560.00820911    -7427.84991710
  entropy T*S    EENTRO =         0.00000000
  eigenvalues    EBANDS =      -239.07964395
  atomic energy  EATOM  =      8345.82850422
  ---------------------------------------------------
  free energy    TOTEN  =       -20.55978782 eV

  energy without entropy =      -20.55978782  energy(sigma->0) =      -20.55978782


--------------------------------------------------------------------------------------------------------




----------------------------------------- Iteration   13(   4)  ---------------------------------------


    POTLOK:  cpu time    0.30: real time    0.30
    SETDIJ:  cpu time    0.03: real time    0.03
     EDDAV:  cpu time   13.53: real time   13.53
 BZINTS: Fermi energy: -0.841257; 66.000000 electrons
         Band energy:-239.211572;  BLOECHL correction: -0.188743
       DOS:  cpu time    0.04: real time    0.04
    CHARGE:  cpu time    0.61: real time    0.61
    MIXING:  cpu time    0.01: real time    0.01
    --------------------------------------------
      LOOP:  cpu time   14.52: real time   14.52

 eigenvalue-minimisations  :  1344
 total energy-change (2. order) : 0.5689740E-04  (-0.4810318E-05)
 number of electron      65.9999750 magnetization 
 augmentation part       43.2483562 magnetization 

 Broyden mixing:
  rms(total) = 0.84792E-03    rms(broyden)= 0.84788E-03
  rms(prec ) = 0.93020E-03
  weight for this iteration     100.00

 eigenvalues of (default mixing * dielectric matrix)
  average eigenvalue GAMMA=   1.2263
  2.6477  0.6286  0.4026

 Free energy of the ion-electron system (eV)
  ---------------------------------------------------
  alpha Z        PSCENC =       278.63143507
  Ewald energy   TEWEN  =     14228.58397115
  -1/2 Hartree   DENC   =    -22022.40829305
  -exchange  EXHF       =         0.00000000
  -V(xc)+E(xc)   XCENC  =       255.80272907
  PAW double counting   =      6559.45696468    -7427.24346973
  entropy T*S    EENTRO =         0.00000000
  eigenvalues    EBANDS =      -239.21157233
  atomic energy  EATOM  =      8345.82850422
  ---------------------------------------------------
  free energy    TOTEN  =       -20.55973093 eV

  energy without entropy =      -20.55973093  energy(sigma->0) =      -20.55973093


--------------------------------------------------------------------------------------------------------




----------------------------------------- Iteration   13(   5)  ---------------------------------------


    POTLOK:  cpu time    0.30: real time    0.30
    SETDIJ:  cpu time    0.03: real time    0.03
     EDDAV:  cpu time   14.55: real time   14.55
 BZINTS: Fermi energy: -0.840792; 66.000000 electrons
         Band energy:-239.157930;  BLOECHL correction: -0.188717
       DOS:  cpu time    0.04: real time    0.04
    CHARGE:  cpu time    0.61: real time    0.61
    MIXING:  cpu time    0.01: real time    0.01
    --------------------------------------------
      LOOP:  cpu time   15.54: real time   15.55

 eigenvalue-minimisations  :  1472
 total energy-change (2. order) :-0.3302148E-05  (-0.1567451E-05)
 number of electron      65.9999750 magnetization 
 augmentation part       43.2474685 magnetization 

 Broyden mixing:
  rms(total) = 0.33839E-03    rms(broyden)= 0.33834E-03
  rms(prec ) = 0.40105E-03
  weight for this iteration     100.00

 eigenvalues of (default mixing * dielectric matrix)
  average eigenvalue GAMMA=   1.0558
  2.6248  0.6014  0.6014  0.3953

 Free energy of the ion-electron system (eV)
  ---------------------------------------------------
  alpha Z        PSCENC =       278.63143507
  Ewald energy   TEWEN  =     14228.58397115
  -1/2 Hartree   DENC   =    -22022.45133277
  -exchange  EXHF       =         0.00000000
  -V(xc)+E(xc)   XCENC  =       255.80486436
  PAW double counting   =      6559.42386395    -7427.22311037
  entropy T*S    EENTRO =         0.00000000
  eigenvalues    EBANDS =      -239.15792984
  atomic energy  EATOM  =      8345.82850422
  ---------------------------------------------------
  free energy    TOTEN  =       -20.55973423 eV

  energy without entropy =      -20.55973423  energy(sigma->0) =      -20.55973423


--------------------------------------------------------------------------------------------------------




----------------------------------------- Iteration   13(   6)  ---------------------------------------


    POTLOK:  cpu time    0.30: real time    0.30
    SETDIJ:  cpu time    0.03: real time    0.03
     EDDAV:  cpu time   13.28: real time   13.28
 BZINTS: Fermi energy: -0.840809; 66.000000 electrons
         Band energy:-239.157229;  BLOECHL correction: -0.188713
       DOS:  cpu time    0.04: real time    0.04
    CHARGE:  cpu time    0.59: real time    0.59
    MIXING:  cpu time    0.01: real time    0.01
    --------------------------------------------
      LOOP:  cpu time   14.25: real time   14.26

 eigenvalue-minimisations  :  1312
 total energy-change (2. order) :-0.1350092E-05  (-0.4134950E-06)
 number of electron      65.9999750 magnetization 
 augmentation part       43.2472185 magnetization 

 Broyden mixing:
  rms(total) = 0.23559E-03    rms(broyden)= 0.23557E-03
  rms(prec ) = 0.26290E-03
  weight for this iteration     100.00

 eigenvalues of (default mixing * dielectric matrix)
  average eigenvalue GAMMA=   0.9734
  2.5083  0.8069  0.8069  0.3919  0.3532

 Free energy of the ion-electron system (eV)
  ---------------------------------------------------
  alpha Z        PSCENC =       278.63143507
  Ewald energy   TEWEN  =     14228.58397115
  -1/2 Hartree   DENC   =    -22022.44859992
  -exchange  EXHF       =         0.00000000
  -V(xc)+E(xc)   XCENC  =       255.80515873
  PAW double counting   =      6559.43898191    -7427.24195808
  entropy T*S    EENTRO =         0.00000000
  eigenvalues    EBANDS =      -239.15722866
  atomic energy  EATOM  =      8345.82850422
  ---------------------------------------------------
  free energy    TOTEN  =       -20.55973558 eV

  energy without entropy =      -20.55973558  energy(sigma->0) =      -20.55973558


--------------------------------------------------------------------------------------------------------




----------------------------------------- Iteration   13(   7)  ---------------------------------------


    POTLOK:  cpu time    0.30: real time    0.30
    SETDIJ:  cpu time    0.03: real time    0.03
     EDDAV:  cpu time    9.76: real time    9.76
 BZINTS: Fermi energy: -0.840822; 66.000000 electrons
         Band energy:-239.158140;  BLOECHL correction: -0.188708
       DOS:  cpu time    0.04: real time    0.04
    CHARGE:  cpu time    0.63: real time    0.63
    MIXING:  cpu time    0.01: real time    0.01
    --------------------------------------------
      LOOP:  cpu time   10.78: real time   10.78

 eigenvalue-minimisations  :   824
 total energy-change (2. order) : 0.2142066E-05  (-0.5838664E-07)
 number of electron      65.9999750 magnetization 
 augmentation part       43.2471010 magnetization 

 Broyden mixing:
  rms(total) = 0.10029E-03    rms(broyden)= 0.10028E-03
  rms(prec ) = 0.11421E-03
  weight for this iteration     100.00

 eigenvalues of (default mixing * dielectric matrix)
  average eigenvalue GAMMA=   1.1778
  2.2679  2.2679  0.9154  0.8496  0.3994  0.3665

 Free energy of the ion-electron system (eV)
  ---------------------------------------------------
  alpha Z        PSCENC =       278.63143507
  Ewald energy   TEWEN  =     14228.58397115
  -1/2 Hartree   DENC   =    -22022.44552265
  -exchange  EXHF       =         0.00000000
  -V(xc)+E(xc)   XCENC  =       255.80525312
  PAW double counting   =      6559.45797178    -7427.26320625
  entropy T*S    EENTRO =         0.00000000
  eigenvalues    EBANDS =      -239.15813989
  atomic energy  EATOM  =      8345.82850422
  ---------------------------------------------------
  free energy    TOTEN  =       -20.55973344 eV

  energy without entropy =      -20.55973344  energy(sigma->0) =      -20.55973344


--------------------------------------------------------------------------------------------------------




----------------------------------------- Iteration   13(   8)  ---------------------------------------


    POTLOK:  cpu time    0.30: real time    0.30
    SETDIJ:  cpu time    0.03: real time    0.03
     EDDAV:  cpu time    9.54: real time    9.54
 BZINTS: Fermi energy: -0.840918; 66.000000 electrons
         Band energy:-239.167050;  BLOECHL correction: -0.188708
       DOS:  cpu time    0.04: real time    0.04
    CHARGE:  cpu time    0.65: real time    0.65
    MIXING:  cpu time    0.01: real time    0.01
    --------------------------------------------
      LOOP:  cpu time   10.58: real time   10.58

 eigenvalue-minimisations  :   800
 total energy-change (2. order) : 0.3154311E-05  (-0.2362636E-07)
 number of electron      65.9999750 magnetization 
 augmentation part       43.2471742 magnetization 

 Broyden mixing:
  rms(total) = 0.52778E-04    rms(broyden)= 0.52777E-04
  rms(prec ) = 0.57307E-04
  weight for this iteration     100.00

 eigenvalues of (default mixing * dielectric matrix)
  average eigenvalue GAMMA=   1.1402
  2.3276  2.3276  0.3984  0.3680  0.8135  0.8135  0.9331

 Free energy of the ion-electron system (eV)
  ---------------------------------------------------
  alpha Z        PSCENC =       278.63143507
  Ewald energy   TEWEN  =     14228.58397115
  -1/2 Hartree   DENC   =    -22022.43835429
  -exchange  EXHF       =         0.00000000
  -V(xc)+E(xc)   XCENC  =       255.80513720
  PAW double counting   =      6559.45718089    -7427.26055449
  entropy T*S    EENTRO =         0.00000000
  eigenvalues    EBANDS =      -239.16705004
  atomic energy  EATOM  =      8345.82850422
  ---------------------------------------------------
  free energy    TOTEN  =       -20.55973028 eV

  energy without entropy =      -20.55973028  energy(sigma->0) =      -20.55973028


--------------------------------------------------------------------------------------------------------




----------------------------------------- Iteration   13(   9)  ---------------------------------------


    POTLOK:  cpu time    0.30: real time    0.30
    SETDIJ:  cpu time    0.03: real time    0.03
     EDDAV:  cpu time    9.78: real time    9.78
 BZINTS: Fermi energy: -0.840931; 66.000000 electrons
         Band energy:-239.167298;  BLOECHL correction: -0.188707
       DOS:  cpu time    0.04: real time    0.04
    --------------------------------------------
      LOOP:  cpu time   10.15: real time   10.15

 eigenvalue-minimisations  :   824
 total energy-change (2. order) : 0.5547554E-07  (-0.6652295E-08)
 number of electron      65.9999750 magnetization 
 augmentation part       43.2471742 magnetization 

 Free energy of the ion-electron system (eV)
  ---------------------------------------------------
  alpha Z        PSCENC =       278.63143507
  Ewald energy   TEWEN  =     14228.58397115
  -1/2 Hartree   DENC   =    -22022.43733561
  -exchange  EXHF       =         0.00000000
  -V(xc)+E(xc)   XCENC  =       255.80521790
  PAW double counting   =      6559.46208774    -7427.26631286
  entropy T*S    EENTRO =         0.00000000
  eigenvalues    EBANDS =      -239.16729784
  atomic energy  EATOM  =      8345.82850422
  ---------------------------------------------------
  free energy    TOTEN  =       -20.55973023 eV

  energy without entropy =      -20.55973023  energy(sigma->0) =      -20.55973023


--------------------------------------------------------------------------------------------------------




 average (electrostatic) potential at core
  the test charge radii are     1.0053
  (the norm of the test charge is              1.0000)
       1 -44.0961       2 -44.5179       3 -44.4447       4 -44.4446       5 -44.5179
       6 -44.0963
 
 
 
 E-fermi :  -0.8409     XC(G=0):  -6.6009     alpha+bet : -4.1343


 k-point   1 :       0.0000    0.0000    0.0000
  band No.  band energies     occupation 
      1      -9.5366      2.00000
      2      -8.0715      2.00000
      3      -6.1006      2.00000
      4      -5.3840      2.00000
      5      -5.0345      2.00000
      6      -4.8822      2.00000
      7      -4.5791      2.00000
      8      -4.3860      2.00000
      9      -4.1665      2.00000
     10      -4.1375      2.00000
     11      -4.0993      2.00000
     12      -3.8170      2.00000
     13      -3.7648      2.00000
     14      -3.7111      2.00000
     15      -3.6173      2.00000
     16      -3.5164      2.00000
     17      -3.4320      2.00000
     18      -3.4038      2.00000
     19      -3.2268      2.00000
     20      -3.2161      2.00000
     21      -3.1045      2.00000
     22      -3.0836      2.00000
     23      -2.9939      2.00000
     24      -2.9483      2.00000
     25      -2.8556      2.00000
     26      -2.7974      2.00000
     27      -2.6294      2.00000
     28      -2.5280      2.00000
     29      -2.4974      2.00000
     30      -2.4139      2.00000
     31      -2.3355      2.00000
     32      -2.2492      2.00000
     33      -2.2071      2.00000
     34      -1.3067      2.16226
     35       0.8663      0.00000
     36       1.6086      0.00000
     37       3.0242      0.00000
     38       3.3836      0.00000
     39       3.6798      0.00000
     40       5.5465      0.00000

 k-point   2 :       0.1429    0.0000    0.0000
  band No.  band energies     occupation 
      1      -9.2969      2.00000
      2      -7.8586      2.00000
      3      -6.0058      2.00000
      4      -5.3801      2.00000
      5      -5.0184      2.00000
      6      -4.9152      2.00000
      7      -4.7374      2.00000
      8      -4.3562      2.00000
      9      -4.0913      2.00000
     10      -4.0386      2.00000
     11      -3.9947      2.00000
     12      -3.8276      2.00000
     13      -3.6799      2.00000
     14      -3.6190      2.00000
     15      -3.5909      2.00000
     16      -3.5247      2.00000
     17      -3.4660      2.00000
     18      -3.4289      2.00000
     19      -3.4016      2.00000
     20      -3.1815      2.00000
     21      -3.1772      2.00000
     22      -3.0104      2.00000
     23      -2.9994      2.00000
     24      -2.9281      2.00000
     25      -2.8690      2.00000
     26      -2.7755      2.00000
     27      -2.6484      2.00000
     28      -2.5687      2.00000
     29      -2.4593      2.00000
     30      -2.4190      2.00000
     31      -2.3169      2.00000
     32      -2.2442      2.00000
     33      -2.2439      2.00000
     34      -1.2072      2.16212
     35       0.2713     -0.00395
     36       0.9794      0.00000
     37       2.0603      0.00000
     38       3.0928      0.00000
     39       3.6034      0.00000
     40       4.4330      0.00000

 k-point   3 :       0.2857    0.0000    0.0000
  band No.  band energies     occupation 
      1      -8.5968      2.00000
      2      -7.2579      2.00000
      3      -5.8132      2.00000
      4      -5.5304      2.00000
      5      -5.1426      2.00000
      6      -5.0574      2.00000
      7      -4.7154      2.00000
      8      -4.2187      2.00000
      9      -3.9930      2.00000
     10      -3.9805      2.00000
     11      -3.8833      2.00000
     12      -3.8226      2.00000
     13      -3.6483      2.00000
     14      -3.6356      2.00000
     15      -3.6016      2.00000
     16      -3.5071      2.00000
     17      -3.4833      2.00000
     18      -3.4079      2.00000
     19      -3.2836      2.00000
     20      -3.1958      2.00000
     21      -3.1093      2.00000
     22      -3.0826      2.00000
     23      -3.0188      2.00000
     24      -2.8647      2.00000
     25      -2.7852      2.00000
     26      -2.7363      2.00000
     27      -2.7191      2.00000
     28      -2.6616      2.00000
     29      -2.4102      2.00000
     30      -2.3663      2.00000
     31      -2.3068      2.00000
     32      -2.2955      2.00000
     33      -2.2617      2.00000
     34      -1.5653      2.12342
     35      -0.8601      0.65902
     36      -0.2160     -0.00359
     37       1.3374      0.00000
     38       1.6675      0.00000
     39       4.1608      0.00000
     40       4.1770      0.00000

 k-point   4 :       0.4286    0.0000    0.0000
  band No.  band energies     occupation 
      1      -7.5147      2.00000
      2      -6.4448      2.00000
      3      -6.2743      2.00000
      4      -5.7911      2.00000
      5      -5.3152      2.00000
      6      -5.3012      2.00000
      7      -4.4912      2.00000
      8      -4.2268      2.00000
      9      -3.9805      2.00000
     10      -3.9110      2.00000
     11      -3.8202      2.00000
     12      -3.8188      2.00000
     13      -3.7043      2.00000
     14      -3.7017      2.00000
     15      -3.6273      2.00000
     16      -3.6039      2.00000
     17      -3.4226      2.00000
     18      -3.3996      2.00000
     19      -3.3642      2.00000
     20      -3.2876      2.00000
     21      -3.0688      2.00000
     22      -2.9578      2.00000
     23      -2.8080      2.00000
     24      -2.7964      2.00000
     25      -2.6621      2.00000
     26      -2.6445      2.00000
     27      -2.5683      2.00000
     28      -2.4539      2.00000
     29      -2.3907      2.00000
     30      -2.3573      2.00000
     31      -2.3531      2.00000
     32      -2.3142      2.00000
     33      -2.2991      2.00000
     34      -2.2088      2.00000
     35      -1.7664      2.11493
     36      -0.8727      0.24126
     37       0.4466      0.00000
     38       1.1365      0.00000
     39       4.2348      0.00000
     40       5.1995      0.00000

 k-point   5 :       0.0000    0.1429    0.0000
  band No.  band energies     occupation 
      1      -9.0565      2.00000
      2      -7.6247      2.00000
      3      -5.7740      2.00000
      4      -5.1977      2.00000
      5      -4.8784      2.00000
      6      -4.7043      2.00000
      7      -4.3829      2.00000
      8      -4.3465      2.00000
      9      -4.3310      2.00000
     10      -4.2700      2.00000
     11      -4.2241      2.00000
     12      -3.9671      2.00000
     13      -3.9321      2.00000
     14      -3.7373      2.00000
     15      -3.6105      2.00000
     16      -3.5209      2.00000
     17      -3.4816      2.00000
     18      -3.3549      2.00000
     19      -3.1971      2.00000
     20      -3.1785      2.00000
     21      -3.0927      2.00000
     22      -2.9626      2.00000
     23      -2.9433      2.00000
     24      -2.8864      2.00000
     25      -2.8807      2.00000
     26      -2.8542      2.00000
     27      -2.5647      2.00000
     28      -2.5569      2.00000
     29      -2.5394      2.00000
     30      -2.4408      2.00000
     31      -2.4366      2.00000
     32      -2.2278      2.00000
     33      -2.1992      2.00000
     34      -0.9313      1.14383
     35       1.3218      0.00000
     36       2.5337      0.00000
     37       3.4685      0.00000
     38       3.8476      0.00000
     39       4.3739      0.00000
     40       6.0171      0.00000

 k-point   6 :       0.1429    0.1429    0.0000
  band No.  band energies     occupation 
      1      -8.8233      2.00000
      2      -7.4172      2.00000
      3      -5.6742      2.00000
      4      -5.1719      2.00000
      5      -4.8506      2.00000
      6      -4.7261      2.00000
      7      -4.5828      2.00000
      8      -4.3009      2.00000
      9      -4.2450      2.00000
     10      -4.2310      2.00000
     11      -4.1068      2.00000
     12      -3.9732      2.00000
     13      -3.7812      2.00000
     14      -3.7516      2.00000
     15      -3.5955      2.00000
     16      -3.5696      2.00000
     17      -3.5049      2.00000
     18      -3.3774      2.00000
     19      -3.3093      2.00000
     20      -3.2271      2.00000
     21      -3.0719      2.00000
     22      -3.0522      2.00000
     23      -2.9742      2.00000
     24      -2.9709      2.00000
     25      -2.8316      2.00000
     26      -2.6906      2.00000
     27      -2.6307      2.00000
     28      -2.5532      2.00000
     29      -2.5111      2.00000
     30      -2.4426      2.00000
     31      -2.4033      2.00000
     32      -2.3208      2.00000
     33      -2.1498      2.00000
     34      -0.7501      0.69729
     35       1.0787     -0.00286
     36       1.4892      0.00000
     37       2.6410      0.00000
     38       3.5895      0.00000
     39       4.0687      0.00000
     40       4.8799      0.00000

 k-point   7 :       0.2857    0.1429    0.0000
  band No.  band energies     occupation 
      1      -8.1448      2.00000
      2      -6.8358      2.00000
      3      -5.4825      2.00000
      4      -5.2584      2.00000
      5      -4.9185      2.00000
      6      -4.8138      2.00000
      7      -4.6182      2.00000
      8      -4.2347      2.00000
      9      -4.1294      2.00000
     10      -4.0647      2.00000
     11      -4.0156      2.00000
     12      -3.9892      2.00000
     13      -3.7587      2.00000
     14      -3.7287      2.00000
     15      -3.5752      2.00000
     16      -3.5027      2.00000
     17      -3.4742      2.00000
     18      -3.4114      2.00000
     19      -3.3947      2.00000
     20      -3.3160      2.00000
     21      -3.1723      2.00000
     22      -3.1280      2.00000
     23      -3.1183      2.00000
     24      -3.0037      2.00000
     25      -2.7819      2.00000
     26      -2.6832      2.00000
     27      -2.6745      2.00000
     28      -2.5535      2.00000
     29      -2.4711      2.00000
     30      -2.4378      2.00000
     31      -2.3849      2.00000
     32      -2.3680      2.00000
     33      -1.9270      2.00000
     34      -0.8748      1.16146
     35      -0.1718     -0.05390
     36       0.4032     -0.00479
     37       1.8984      0.00000
     38       2.2016      0.00000
     39       4.5746      0.00000
     40       4.6255      0.00000

 k-point   8 :       0.4286    0.1429    0.0000
  band No.  band energies     occupation 
      1      -7.1070      2.00000
      2      -6.0800      2.00000
      3      -5.9235      2.00000
      4      -5.4779      2.00000
      5      -5.0298      2.00000
      6      -5.0061      2.00000
      7      -4.4312      2.00000
      8      -4.2177      2.00000
      9      -4.0254      2.00000
     10      -4.0082      2.00000
     11      -3.9727      2.00000
     12      -3.9250      2.00000
     13      -3.7610      2.00000
     14      -3.7449      2.00000
     15      -3.7042      2.00000
     16      -3.6114      2.00000
     17      -3.4771      2.00000
     18      -3.4005      2.00000
     19      -3.2436      2.00000
     20      -3.2107      2.00000
     21      -3.1642      2.00000
     22      -3.1305      2.00000
     23      -3.1127      2.00000
     24      -3.0678      2.00000
     25      -2.8255      2.00000
     26      -2.7832      2.00000
     27      -2.6504      2.00000
     28      -2.6352      2.00000
     29      -2.4832      2.00000
     30      -2.4614      2.00000
     31      -2.3972      2.00000
     32      -2.1272      2.00000
     33      -1.9771      2.00000
     34      -1.4276      1.90730
     35      -0.9658      1.08986
     36       0.1083     -0.07988
     37       0.8905      0.00000
     38       1.7825      0.00000
     39       4.5756      0.00000
     40       5.5681      0.00000

 k-point   9 :       0.0000    0.2857    0.0000
  band No.  band energies     occupation 
      1      -7.7107      2.00000
      2      -6.4944      2.00000
      3      -5.3690      2.00000
      4      -4.9230      2.00000
      5      -4.7545      2.00000
      6      -4.7229      2.00000
      7      -4.5599      2.00000
      8      -4.4804      2.00000
      9      -4.4757      2.00000
     10      -4.3440      2.00000
     11      -4.2926      2.00000
     12      -3.8825      2.00000
     13      -3.8233      2.00000
     14      -3.7494      2.00000
     15      -3.5343      2.00000
     16      -3.4362      2.00000
     17      -3.3376      2.00000
     18      -3.1495      2.00000
     19      -3.1242      2.00000
     20      -3.0684      2.00000
     21      -2.9898      2.00000
     22      -2.9483      2.00000
     23      -2.8711      2.00000
     24      -2.7886      2.00000
     25      -2.6577      2.00000
     26      -2.6526      2.00000
     27      -2.5008      2.00000
     28      -2.4962      2.00000
     29      -2.4877      2.00000
     30      -2.4599      2.00000
     31      -2.3101      2.00000
     32      -2.2806      2.00000
     33      -1.9306      2.06457
     34       0.1427     -0.07461
     35       2.4953      0.00000
     36       4.1015      0.00000
     37       4.6953      0.00000
     38       4.8144      0.00000
     39       5.0556      0.00000
     40       5.8677      0.00000

 k-point  10 :       0.1429    0.2857    0.0000
  band No.  band energies     occupation 
      1      -7.5108      2.00000
      2      -6.3155      2.00000
      3      -5.2465      2.00000
      4      -4.8631      2.00000
      5      -4.7382      2.00000
      6      -4.7142      2.00000
      7      -4.5950      2.00000
      8      -4.4384      2.00000
      9      -4.4094      2.00000
     10      -4.2857      2.00000
     11      -4.2518      2.00000
     12      -3.9141      2.00000
     13      -3.8156      2.00000
     14      -3.7602      2.00000
     15      -3.5884      2.00000
     16      -3.5135      2.00000
     17      -3.3953      2.00000
     18      -3.3145      2.00000
     19      -3.1277      2.00000
     20      -3.0507      2.00000
     21      -2.9772      2.00000
     22      -2.9139      2.00000
     23      -2.8974      2.00000
     24      -2.8382      2.00000
     25      -2.8049      2.00000
     26      -2.6388      2.00000
     27      -2.5351      2.00000
     28      -2.5234      2.00000
     29      -2.4440      2.00000
     30      -2.3800      2.00000
     31      -2.3452      2.00000
     32      -2.3384      2.00000
     33      -1.6530      1.94346
     34       0.4382     -0.06093
     35       2.6983      0.00000
     36       2.7311      0.00000
     37       4.1387      0.00000
     38       4.5061      0.00000
     39       5.0918      0.00000
     40       5.3385      0.00000

 k-point  11 :       0.2857    0.2857    0.0000
  band No.  band energies     occupation 
      1      -6.9502      2.00000
      2      -5.8354      2.00000
      3      -4.9530      2.00000
      4      -4.9411      2.00000
      5      -4.7189      2.00000
      6      -4.7007      2.00000
      7      -4.4809      2.00000
      8      -4.3855      2.00000
      9      -4.2547      2.00000
     10      -4.1709      2.00000
     11      -4.1196      2.00000
     12      -3.9750      2.00000
     13      -3.7925      2.00000
     14      -3.7851      2.00000
     15      -3.7172      2.00000
     16      -3.6285      2.00000
     17      -3.4955      2.00000
     18      -3.4935      2.00000
     19      -3.1653      2.00000
     20      -3.0803      2.00000
     21      -3.0421      2.00000
     22      -3.0378      2.00000
     23      -2.9920      2.00000
     24      -2.9547      2.00000
     25      -2.7503      2.00000
     26      -2.7008      2.00000
     27      -2.6299      2.00000
     28      -2.5330      2.00000
     29      -2.4667      2.00000
     30      -2.4331      2.00000
     31      -2.3892      2.00000
     32      -2.1234      2.07701
     33      -0.9297      1.37786
     34       0.4004     -0.09315
     35       1.2585     -0.01570
     36       1.7549      0.00000
     37       3.3810      0.00000
     38       3.6816      0.00000
     39       5.3970      0.00000
     40       5.8211      0.00000

 k-point  12 :       0.4286    0.2857    0.0000
  band No.  band energies     occupation 
      1      -6.1729      2.00000
      2      -5.4649      2.00000
      3      -5.2032      2.00000
      4      -4.8565      2.00000
      5      -4.6179      2.00000
      6      -4.6068      2.00000
      7      -4.3274      2.00000
      8      -4.2928      2.00000
      9      -4.1611      2.00000
     10      -4.1385      2.00000
     11      -4.0933      2.00000
     12      -3.9345      2.00000
     13      -3.7804      2.00000
     14      -3.7739      2.00000
     15      -3.7380      2.00000
     16      -3.7117      2.00000
     17      -3.5982      2.00000
     18      -3.5717      2.00000
     19      -3.2480      2.00000
     20      -3.2046      2.00000
     21      -3.1122      2.00000
     22      -3.0744      2.00000
     23      -3.0317      2.00000
     24      -3.0219      2.00000
     25      -2.7756      2.00000
     26      -2.7698      2.00000
     27      -2.7008      2.00000
     28      -2.5935      2.00000
     29      -2.4832      2.00000
     30      -2.4734      2.00000
     31      -2.2177      2.00000
     32      -1.4712      2.05706
     33      -1.1971      1.60978
     34      -0.3248      0.05501
     35       0.3862     -0.08580
     36       1.6862      0.00000
     37       2.3866      0.00000
     38       3.4810      0.00000
     39       5.6511      0.00000
     40       6.5374      0.00000

 k-point  13 :       0.0000    0.4286    0.0000
  band No.  band energies     occupation 
      1      -5.9601      2.00000
      2      -5.6230      2.00000
      3      -5.4071      2.00000
      4      -4.9947      2.00000
      5      -4.9833      2.00000
      6      -4.9821      2.00000
      7      -4.5913      2.00000
      8      -4.5786      2.00000
      9      -4.4939      2.00000
     10      -4.4832      2.00000
     11      -4.1344      2.00000
     12      -4.0347      2.00000
     13      -4.0154      2.00000
     14      -3.7985      2.00000
     15      -3.4414      2.00000
     16      -3.2832      2.00000
     17      -3.0912      2.00000
     18      -3.0292      2.00000
     19      -2.9111      2.00000
     20      -2.7719      2.00000
     21      -2.6966      2.00000
     22      -2.6703      2.00000
     23      -2.5723      2.00000
     24      -2.4738      2.00000
     25      -2.4387      2.00000
     26      -2.4169      2.00000
     27      -2.4165      2.00000
     28      -2.3454      2.00000
     29      -2.3283      2.00000
     30      -2.2802      2.00000
     31      -1.8213      2.00000
     32      -1.5627      2.00000
     33      -0.4867      0.34912
     34       0.4041      0.00000
     35       1.2164      0.00000
     36       1.3733      0.00000
     37       4.0360      0.00000
     38       4.4591      0.00000
     39       6.9985      0.00000
     40       7.4564      0.00000

 k-point  14 :       0.1429    0.4286    0.0000
  band No.  band energies     occupation 
      1      -5.8894      2.00000
      2      -5.5045      2.00000
      3      -5.2974      2.00000
      4      -5.0146      2.00000
      5      -4.9577      2.00000
      6      -4.9137      2.00000
      7      -4.7319      2.00000
      8      -4.6277      2.00000
      9      -4.3005      2.00000
     10      -4.3001      2.00000
     11      -4.0861      2.00000
     12      -4.0137      2.00000
     13      -3.8921      2.00000
     14      -3.7572      2.00000
     15      -3.4629      2.00000
     16      -3.4590      2.00000
     17      -3.1508      2.00000
     18      -3.0951      2.00000
     19      -2.8871      2.00000
     20      -2.8825      2.00000
     21      -2.7988      2.00000
     22      -2.7570      2.00000
     23      -2.6350      2.00000
     24      -2.5355      2.00000
     25      -2.4930      2.00000
     26      -2.4365      2.00000
     27      -2.3853      2.00000
     28      -2.3789      2.00000
     29      -2.3392      2.00000
     30      -2.3164      2.00000
     31      -1.8319      2.00000
     32      -1.3994      2.00000
     33      -0.0440      0.04247
     34       0.4780      0.00000
     35       1.4434      0.00000
     36       1.7908      0.00000
     37       4.2277      0.00000
     38       4.7041      0.00000
     39       5.4574      0.00000
     40       6.6090      0.00000

 k-point  15 :       0.2857    0.4286    0.0000
  band No.  band energies     occupation 
      1      -5.7458      2.00000
      2      -5.2496      2.00000
      3      -5.1516      2.00000
      4      -5.0148      2.00000
      5      -4.8697      2.00000
      6      -4.8596      2.00000
      7      -4.4988      2.00000
      8      -4.4719      2.00000
      9      -4.2180      2.00000
     10      -4.1716      2.00000
     11      -3.8539      2.00000
     12      -3.8227      2.00000
     13      -3.7868      2.00000
     14      -3.7613      2.00000
     15      -3.6459      2.00000
     16      -3.5960      2.00000
     17      -3.3850      2.00000
     18      -3.3149      2.00000
     19      -3.0849      2.00000
     20      -2.9934      2.00000
     21      -2.9056      2.00000
     22      -2.8074      2.00000
     23      -2.7270      2.00000
     24      -2.6159      2.00000
     25      -2.5655      2.00000
     26      -2.5070      2.00000
     27      -2.3933      2.00000
     28      -2.3662      2.00000
     29      -2.3244      2.00000
     30      -2.2897      2.00000
     31      -1.8633      2.00000
     32      -0.8504      1.47795
     33       0.4348     -0.12635
     34       0.9144      0.00000
     35       1.8810      0.00000
     36       2.7842      0.00000
     37       3.5934      0.00000
     38       4.5273      0.00000
     39       4.7872      0.00000
     40       5.3902      0.00000

 k-point  16 :       0.4286    0.4286    0.0000
  band No.  band energies     occupation 
      1      -5.6028      2.00000
      2      -5.4338      2.00000
      3      -4.8940      2.00000
      4      -4.8024      2.00000
      5      -4.7018      2.00000
      6      -4.6663      2.00000
      7      -4.2901      2.00000
      8      -4.2056      2.00000
      9      -4.1406      2.00000
     10      -4.1272      2.00000
     11      -3.9948      2.00000
     12      -3.9240      2.00000
     13      -3.8066      2.00000
     14      -3.7665      2.00000
     15      -3.6376      2.00000
     16      -3.6289      2.00000
     17      -3.5273      2.00000
     18      -3.5034      2.00000
     19      -3.1544      2.00000
     20      -3.1251      2.00000
     21      -2.8768      2.00000
     22      -2.8226      2.00000
     23      -2.7337      2.00000
     24      -2.6987      2.00000
     25      -2.5563      2.00000
     26      -2.4736      2.00000
     27      -2.4156      2.00000
     28      -2.3999      2.00000
     29      -2.2984      2.00000
     30      -2.2725      2.00000
     31      -1.5227      2.00000
     32      -0.4654      0.20453
     33       0.1208     -0.10629
     34       1.2713      0.00000
     35       2.2486      0.00000
     36       3.2903      0.00000
     37       3.5435      0.00000
     38       4.1467      0.00000
     39       4.5232      0.00000
     40       4.7451      0.00000


--------------------------------------------------------------------------------------------------------


 soft charge-density along one line, spin component           1
         0         1         2         3         4         5         6         7         8         9
 total charge-density along one line
 
 pseudopotential strength for first ion, spin component:           1
 -9.520   0.000   0.000   0.000   0.000   1.134   0.000   0.000
  0.000  -9.492   0.000   0.000   0.000   0.000   1.121   0.000
  0.000   0.000  -9.487   0.000  -0.015   0.000   0.000   1.118
  0.000   0.000   0.000  -9.480   0.000   0.000   0.000   0.000
  0.000   0.000  -0.015   0.000  -9.514   0.000   0.000   0.007
  1.134   0.000   0.000   0.000   0.000   1.055   0.000   0.000
  0.000   1.121   0.000   0.000   0.000   0.000   1.062   0.000
  0.000   0.000   1.118   0.000   0.007   0.000   0.000   1.063
  0.000   0.000   0.000   1.115   0.000   0.000   0.000   0.000
  0.000   0.000   0.007   0.000   1.132   0.000   0.000  -0.003
  0.000   0.000  -0.006   0.000  -0.003   0.000   0.000   0.002
  0.000   0.000   0.000   0.000   0.000   0.000   0.000   0.000
  0.000  -0.017   0.000   0.000   0.000   0.000   0.009   0.000
  0.000   0.000  -0.018   0.000   0.001   0.000   0.000   0.009
  0.000   0.000   0.000  -0.016   0.000   0.000   0.000   0.000
  0.000   0.010   0.000   0.000   0.000   0.000  -0.005   0.000
  0.000   0.000   0.011   0.000  -0.001   0.000   0.000  -0.005
  0.000   0.000   0.000   0.009   0.000   0.000   0.000   0.000
 total augmentation occupancy for first ion, spin component:           1
  1.915   0.000   0.000   0.000   0.000  -0.015   0.000   0.000   0.000   0.000   0.000   0.000   0.000   0.000   0.000   0.000
  0.000   1.932   0.000   0.000   0.000   0.000  -0.051   0.000   0.000   0.000   0.000   0.000  -0.004   0.000   0.000  -0.009
  0.000   0.000   1.930   0.000  -0.003   0.000   0.000  -0.031   0.000   0.016   0.015   0.028   0.000   0.022   0.000   0.000
  0.000   0.000   0.000   1.930   0.000   0.000   0.000   0.000  -0.045   0.000   0.000   0.000   0.000   0.000   0.038   0.000
  0.000   0.000  -0.003   0.000   1.918   0.000   0.000   0.016   0.000  -0.027  -0.007   0.016   0.000   0.022   0.000   0.000
 -0.015   0.000   0.000   0.000   0.000   0.047   0.000   0.000   0.000   0.000   0.000   0.000   0.000   0.000   0.000   0.000
  0.000  -0.051   0.000   0.000   0.000   0.000   0.044   0.000   0.000   0.000   0.000   0.000   0.043   0.000   0.000  -0.003
  0.000   0.000  -0.031   0.000   0.016   0.000   0.000   0.051   0.000   0.009  -0.052   0.002   0.000   0.040   0.000   0.000
  0.000   0.000   0.000  -0.045   0.000   0.000   0.000   0.000   0.054   0.000   0.000   0.000   0.000   0.000   0.058   0.000
  0.000   0.000   0.016   0.000  -0.027   0.000   0.000   0.009   0.000   0.054  -0.029   0.007   0.000   0.007   0.000   0.000
  0.000   0.000   0.015   0.000  -0.007   0.000   0.000  -0.052   0.000  -0.029   1.242  -0.266   0.000   0.121   0.000   0.000
  0.000   0.000   0.028   0.000   0.016   0.000   0.000   0.002   0.000   0.007  -0.266   0.100   0.000  -0.058   0.000   0.000
  0.000  -0.004   0.000   0.000   0.000   0.000   0.043   0.000   0.000   0.000   0.000   0.000   0.157   0.000   0.000  -0.009
  0.000   0.000   0.022   0.000   0.022   0.000   0.000   0.040   0.000   0.007   0.121  -0.058   0.000   0.085   0.000   0.000
  0.000   0.000   0.000   0.038   0.000   0.000   0.000   0.000   0.058   0.000   0.000   0.000   0.000   0.000   0.123   0.000
  0.000  -0.009   0.000   0.000   0.000   0.000  -0.003   0.000   0.000   0.000   0.000   0.000  -0.009   0.000   0.000   0.001
  0.000   0.000  -0.011   0.000  -0.001   0.000   0.000  -0.002   0.000   0.000  -0.020   0.007   0.000  -0.007   0.000   0.000
  0.000   0.000   0.000  -0.012   0.000   0.000   0.000   0.000  -0.004   0.000   0.000   0.000   0.000   0.000  -0.008   0.000


------------------------ aborting loop because EDIFF is reached ----------------------------------------


    CHARGE:  cpu time    0.63: real time    0.63
    FORLOC:  cpu time    0.02: real time    0.02
    FORNL :  cpu time    5.54: real time    5.54
    STRESS:  cpu time    8.62: real time    8.63
    FORCOR:  cpu time    0.30: real time    0.30
    FORHAR:  cpu time    0.09: real time    0.09
    MIXING:  cpu time    0.01: real time    0.01

  FORCE on cell =-STRESS in cart. coord.  units (eV):
  Direction    XX          YY          ZZ          XY          YZ          ZX
  --------------------------------------------------------------------------------------
  Alpha Z   278.63144   278.63144   278.63144
  Ewald   18438.58666 18602.26500-22812.27097     0.00000     0.00000     0.00000
  Hartree 20664.50226 20775.04576-19417.11765     0.00000     0.00000     0.00000
  E(xc)    -375.28944  -375.10949  -375.86101     0.00000     0.00000     0.00000
  Local  -39591.25297-39865.24388 41739.45479     0.00000     0.00000     0.00000
  n-local  -223.41104  -222.62235  -223.93943     3.07944     0.00000     0.00000
  augment   336.70823   336.59226   338.02374     0.00000    -0.00001    -0.00001
  Kinetic   470.14935   469.16798   472.88995     4.68647     0.00000     0.00000
  Fock        0.00000     0.00000     0.00000     0.00000     0.00000     0.00000
  -------------------------------------------------------------------------------------
  Total      -1.37552    -1.27328    -0.18914     0.00000     0.00000     0.00000
  in kB     -13.35060   -12.35833    -1.83576     0.00000     0.00000     0.00000
  external pressure =       -9.18 kB  Pullay stress =        0.00 kB


 VOLUME and BASIS-vectors are now :
 -----------------------------------------------------------------------------
  energy-cutoff  :      415.00
  volume of cell :      165.07
      direct lattice vectors                 reciprocal lattice vectors
     3.631354857  0.000000000  0.000000000     0.275379311  0.000000000  0.000000000
     0.000000000  2.567755644  0.000000000     0.000000000  0.389445157  0.000000000
     0.000000000  0.000000000 17.703266931     0.000000000  0.000000000  0.056486749

  length of vectors
     3.631354857  2.567755644 17.703266931     0.275379311  0.389445157  0.056486749


 FORCES acting on ions
    electron-ion (+dipol)            ewald-force                    non-local-force                 convergence-correction
 -----------------------------------------------------------------------------------------------
   -.373E-13 0.553E-15 0.312E+04   0.273E-13 0.456E-14 -.312E+04   0.000E+00 0.000E+00 -.394E+01   0.115E-13 -.349E-13 -.155E-02
   -.685E-13 -.746E-14 0.632E+03   -.557E-13 0.168E-13 -.632E+03   0.000E+00 0.000E+00 -.609E+00   0.676E-13 -.215E-13 0.138E-02
   -.981E-14 -.630E-14 -.206E+04   -.153E-13 0.142E-13 0.206E+04   0.000E+00 0.000E+00 -.938E+00   -.129E-13 -.254E-13 -.120E-03
   0.565E-12 0.218E-11 0.206E+04   0.684E-14 0.164E-13 -.206E+04   0.000E+00 0.000E+00 0.938E+00   0.100E-12 0.116E-13 0.195E-03
   0.635E-12 0.469E-12 -.632E+03   0.473E-13 0.139E-13 0.632E+03   0.000E+00 0.000E+00 0.609E+00   -.228E-13 -.175E-13 -.128E-02
   0.650E-12 -.529E-12 -.312E+04   -.355E-13 0.260E-13 0.312E+04   0.000E+00 0.000E+00 0.394E+01   -.278E-13 0.490E-14 0.159E-02
 -----------------------------------------------------------------------------------------------
   0.173E-11 0.211E-11 -.205E-02   -.251E-13 0.918E-13 0.000E+00   0.000E+00 0.000E+00 -.178E-14   0.116E-12 -.828E-13 0.214E-03
 
 
 POSITION                                       TOTAL-FORCE (eV/Angst)
 -----------------------------------------------------------------------------------
      0.00000      0.00000      0.08760         0.000000      0.000000      0.000006
      0.00000      0.00000      2.58218         0.000000      0.000000     -0.020337
      0.00000      0.00000      5.17880         0.000000      0.000000      0.009513
      1.81568      1.28388      1.24059         0.000000      0.000000     -0.009513
      1.81568      1.28388      3.83721         0.000000      0.000000      0.020337
      1.81568      1.28388      6.33179         0.000000      0.000000     -0.000006
 -----------------------------------------------------------------------------------
    total drift:                                0.000000      0.000000     -0.001833


--------------------------------------------------------------------------------------------------------



  FREE ENERGIE OF THE ION-ELECTRON SYSTEM (eV)
  ---------------------------------------------------
  free  energy   TOTEN  =       -20.559730 eV

  energy  without entropy=      -20.559730  energy(sigma->0) =      -20.559730
 
 d Force = 0.1749752E-03[-0.162E-03, 0.511E-03]  d Energy = 0.7746721E-03-0.600E-03
 d Force = 0.2506408E+02[ 0.251E+02, 0.251E+02]  d Ewald  = 0.2506406E+02 0.190E-04


--------------------------------------------------------------------------------------------------------


    POTLOK:  cpu time    0.33: real time    0.33


--------------------------------------------------------------------------------------------------------


 Steepest descent step on ions:
 trial-energy change:   -0.000775  1 .order   -0.000175   -0.000511    0.000162
  (g-gl).g = 0.282E-04      g.g   = 0.159E-04  gl.gl    = 0.215E-04
 g(Force)  = 0.159E-04   g(Stress)= 0.000E+00 ortho     =-0.116E-04
 gamma     =   0.00000
 trial     =  32.08072
 opt step  =  30.82624  (harmonic =  24.38130) maximal distance =0.00478068
 next E    =   -20.559733   (d E  =  -0.00078)


--------------------------------------------------------------------------------------------------------


    WAVPRE:  cpu time    0.06: real time    0.06
    FEWALD:  cpu time    0.00: real time    0.00
    ORTHCH:  cpu time    1.17: real time    1.17
     LOOP+:  cpu time  136.84: real time  136.85


----------------------------------------- Iteration   14(   1)  ---------------------------------------


    POTLOK:  cpu time    0.30: real time    0.30
    SETDIJ:  cpu time    0.03: real time    0.03
     EDDAV:  cpu time   13.07: real time   13.07
 BZINTS: Fermi energy: -0.840889; 66.000000 electrons
         Band energy:-239.173858;  BLOECHL correction: -0.188680
       DOS:  cpu time    0.04: real time    0.04
    CHARGE:  cpu time    0.64: real time    0.64
    MIXING:  cpu time    0.01: real time    0.01
    --------------------------------------------
      LOOP:  cpu time   14.10: real time   14.09

 eigenvalue-minimisations  :  1288
 total energy-change (2. order) : 0.1927211E-04  (-0.6388912E-04)
 number of electron      65.9999752 magnetization 
 augmentation part       43.2469691 magnetization 

 Broyden mixing:
  rms(total) = 0.19014E-03    rms(broyden)= 0.18998E-03
  rms(prec ) = 0.20625E-03
  weight for this iteration     100.00

 Free energy of the ion-electron system (eV)
  ---------------------------------------------------
  alpha Z        PSCENC =       278.63143507
  Ewald energy   TEWEN  =     14229.56368779
  -1/2 Hartree   DENC   =    -22023.41152162
  -exchange  EXHF       =         0.00000000
  -V(xc)+E(xc)   XCENC  =       255.80597791
  PAW double counting   =      6559.46065804    -7427.26459430
  entropy T*S    EENTRO =         0.00000000
  eigenvalues    EBANDS =      -239.17385811
  atomic energy  EATOM  =      8345.82850422
  ---------------------------------------------------
  free energy    TOTEN  =       -20.55971101 eV

  energy without entropy =      -20.55971101  energy(sigma->0) =      -20.55971101


--------------------------------------------------------------------------------------------------------




----------------------------------------- Iteration   14(   2)  ---------------------------------------


    POTLOK:  cpu time    0.30: real time    0.30
    SETDIJ:  cpu time    0.03: real time    0.03
     EDDAV:  cpu time   10.30: real time   10.30
 BZINTS: Fermi energy: -0.840925; 66.000000 electrons
         Band energy:-239.178258;  BLOECHL correction: -0.188684
       DOS:  cpu time    0.04: real time    0.04
    CHARGE:  cpu time    0.62: real time    0.62
    MIXING:  cpu time    0.01: real time    0.01
    --------------------------------------------
      LOOP:  cpu time   11.30: real time   11.30

 eigenvalue-minimisations  :   888
 total energy-change (2. order) :-0.2087241E-05  (-0.1853106E-06)
 number of electron      65.9999752 magnetization 
 augmentation part       43.2470660 magnetization 

 Broyden mixing:
  rms(total) = 0.18433E-03    rms(broyden)= 0.18432E-03
  rms(prec ) = 0.20317E-03
  weight for this iteration     100.00

 eigenvalues of (default mixing * dielectric matrix)
  average eigenvalue GAMMA=   0.5179
  0.5179

 Free energy of the ion-electron system (eV)
  ---------------------------------------------------
  alpha Z        PSCENC =       278.63143507
  Ewald energy   TEWEN  =     14229.56368779
  -1/2 Hartree   DENC   =    -22023.40784426
  -exchange  EXHF       =         0.00000000
  -V(xc)+E(xc)   XCENC  =       255.80573732
  PAW double counting   =      6559.47096384    -7427.27393886
  entropy T*S    EENTRO =         0.00000000
  eigenvalues    EBANDS =      -239.17825823
  atomic energy  EATOM  =      8345.82850422
  ---------------------------------------------------
  free energy    TOTEN  =       -20.55971310 eV

  energy without entropy =      -20.55971310  energy(sigma->0) =      -20.55971310


--------------------------------------------------------------------------------------------------------




----------------------------------------- Iteration   14(   3)  ---------------------------------------


    POTLOK:  cpu time    0.30: real time    0.30
    SETDIJ:  cpu time    0.03: real time    0.03
     EDDAV:  cpu time    9.46: real time    9.46
 BZINTS: Fermi energy: -0.840941; 66.000000 electrons
         Band energy:-239.179343;  BLOECHL correction: -0.188682
       DOS:  cpu time    0.04: real time    0.04
    CHARGE:  cpu time    0.62: real time    0.61
    MIXING:  cpu time    0.01: real time    0.01
    --------------------------------------------
      LOOP:  cpu time   10.45: real time   10.45

 eigenvalue-minimisations  :   784
 total energy-change (2. order) : 0.1851035E-05  (-0.8903742E-07)
 number of electron      65.9999752 magnetization 
 augmentation part       43.2470714 magnetization 

 Broyden mixing:
  rms(total) = 0.99960E-04    rms(broyden)= 0.99949E-04
  rms(prec ) = 0.10884E-03
  weight for this iteration     100.00

 eigenvalues of (default mixing * dielectric matrix)
  average eigenvalue GAMMA=   1.2295
  0.3771  2.0819

 Free energy of the ion-electron system (eV)
  ---------------------------------------------------
  alpha Z        PSCENC =       278.63143507
  Ewald energy   TEWEN  =     14229.56368779
  -1/2 Hartree   DENC   =    -22023.40618606
  -exchange  EXHF       =         0.00000000
  -V(xc)+E(xc)   XCENC  =       255.80575825
  PAW double counting   =      6559.47694826    -7427.28051536
  entropy T*S    EENTRO =         0.00000000
  eigenvalues    EBANDS =      -239.17934342
  atomic energy  EATOM  =      8345.82850422
  ---------------------------------------------------
  free energy    TOTEN  =       -20.55971125 eV

  energy without entropy =      -20.55971125  energy(sigma->0) =      -20.55971125


--------------------------------------------------------------------------------------------------------




----------------------------------------- Iteration   14(   4)  ---------------------------------------


    POTLOK:  cpu time    0.30: real time    0.30
    SETDIJ:  cpu time    0.04: real time    0.03
     EDDAV:  cpu time    9.68: real time    9.69
 BZINTS: Fermi energy: -0.840908; 66.000000 electrons
         Band energy:-239.175835;  BLOECHL correction: -0.188682
       DOS:  cpu time    0.04: real time    0.04
    CHARGE:  cpu time    0.62: real time    0.61
    MIXING:  cpu time    0.01: real time    0.01
    --------------------------------------------
      LOOP:  cpu time   10.68: real time   10.68

 eigenvalue-minimisations  :   808
 total energy-change (2. order) :-0.1988314E-05  (-0.1612297E-07)
 number of electron      65.9999752 magnetization 
 augmentation part       43.2470059 magnetization 

 Broyden mixing:
  rms(total) = 0.38397E-04    rms(broyden)= 0.38393E-04
  rms(prec ) = 0.42037E-04
  weight for this iteration     100.00

 eigenvalues of (default mixing * dielectric matrix)
  average eigenvalue GAMMA=   1.1976
  2.5718  0.6552  0.3656

 Free energy of the ion-electron system (eV)
  ---------------------------------------------------
  alpha Z        PSCENC =       278.63143507
  Ewald energy   TEWEN  =     14229.56368779
  -1/2 Hartree   DENC   =    -22023.40765649
  -exchange  EXHF       =         0.00000000
  -V(xc)+E(xc)   XCENC  =       255.80580768
  PAW double counting   =      6559.49734586    -7427.30300237
  entropy T*S    EENTRO =         0.00000000
  eigenvalues    EBANDS =      -239.17583500
  atomic energy  EATOM  =      8345.82850422
  ---------------------------------------------------
  free energy    TOTEN  =       -20.55971323 eV

  energy without entropy =      -20.55971323  energy(sigma->0) =      -20.55971323


--------------------------------------------------------------------------------------------------------




----------------------------------------- Iteration   14(   5)  ---------------------------------------


    POTLOK:  cpu time    0.30: real time    0.30
    SETDIJ:  cpu time    0.04: real time    0.03
     EDDAV:  cpu time    9.38: real time    9.39
 BZINTS: Fermi energy: -0.840932; 66.000000 electrons
         Band energy:-239.178186;  BLOECHL correction: -0.188683
       DOS:  cpu time    0.04: real time    0.04
    --------------------------------------------
      LOOP:  cpu time    9.76: real time    9.76

 eigenvalue-minimisations  :   776
 total energy-change (2. order) : 0.1982917E-06  (-0.7633054E-08)
 number of electron      65.9999752 magnetization 
 augmentation part       43.2470059 magnetization 

 Free energy of the ion-electron system (eV)
  ---------------------------------------------------
  alpha Z        PSCENC =       278.63143507
  Ewald energy   TEWEN  =     14229.56368779
  -1/2 Hartree   DENC   =    -22023.40559390
  -exchange  EXHF       =         0.00000000
  -V(xc)+E(xc)   XCENC  =       255.80573522
  PAW double counting   =      6559.49980556    -7427.30510128
  entropy T*S    EENTRO =         0.00000000
  eigenvalues    EBANDS =      -239.17818573
  atomic energy  EATOM  =      8345.82850422
  ---------------------------------------------------
  free energy    TOTEN  =       -20.55971304 eV

  energy without entropy =      -20.55971304  energy(sigma->0) =      -20.55971304


--------------------------------------------------------------------------------------------------------




 average (electrostatic) potential at core
  the test charge radii are     1.0053
  (the norm of the test charge is              1.0000)
       1 -44.0963       2 -44.5180       3 -44.4448       4 -44.4447       5 -44.5180
       6 -44.0966
 
 
 
 E-fermi :  -0.8409     XC(G=0):  -6.6019     alpha+bet : -4.1343


 k-point   1 :       0.0000    0.0000    0.0000
  band No.  band energies     occupation 
      1      -9.5368      2.00000
      2      -8.0720      2.00000
      3      -6.1006      2.00000
      4      -5.3841      2.00000
      5      -5.0346      2.00000
      6      -4.8826      2.00000
      7      -4.5792      2.00000
      8      -4.3862      2.00000
      9      -4.1665      2.00000
     10      -4.1377      2.00000
     11      -4.0994      2.00000
     12      -3.8171      2.00000
     13      -3.7650      2.00000
     14      -3.7111      2.00000
     15      -3.6176      2.00000
     16      -3.5165      2.00000
     17      -3.4324      2.00000
     18      -3.4038      2.00000
     19      -3.2270      2.00000
     20      -3.2161      2.00000
     21      -3.1046      2.00000
     22      -3.0838      2.00000
     23      -2.9940      2.00000
     24      -2.9484      2.00000
     25      -2.8559      2.00000
     26      -2.7977      2.00000
     27      -2.6297      2.00000
     28      -2.5282      2.00000
     29      -2.4976      2.00000
     30      -2.4140      2.00000
     31      -2.3355      2.00000
     32      -2.2492      2.00000
     33      -2.2071      2.00000
     34      -1.3065      2.16252
     35       0.8664      0.00000
     36       1.6084      0.00000
     37       3.0245      0.00000
     38       3.3803      0.00000
     39       3.6794      0.00000
     40       5.5463      0.00000

 k-point   2 :       0.1429    0.0000    0.0000
  band No.  band energies     occupation 
      1      -9.2971      2.00000
      2      -7.8591      2.00000
      3      -6.0058      2.00000
      4      -5.3803      2.00000
      5      -5.0184      2.00000
      6      -4.9156      2.00000
      7      -4.7376      2.00000
      8      -4.3565      2.00000
      9      -4.0914      2.00000
     10      -4.0386      2.00000
     11      -3.9951      2.00000
     12      -3.8279      2.00000
     13      -3.6799      2.00000
     14      -3.6192      2.00000
     15      -3.5909      2.00000
     16      -3.5250      2.00000
     17      -3.4660      2.00000
     18      -3.4290      2.00000
     19      -3.4018      2.00000
     20      -3.1817      2.00000
     21      -3.1774      2.00000
     22      -3.0106      2.00000
     23      -2.9995      2.00000
     24      -2.9282      2.00000
     25      -2.8692      2.00000
     26      -2.7758      2.00000
     27      -2.6487      2.00000
     28      -2.5688      2.00000
     29      -2.4595      2.00000
     30      -2.4191      2.00000
     31      -2.3169      2.00000
     32      -2.2442      2.00000
     33      -2.2440      2.00000
     34      -1.2070      2.16216
     35       0.2712     -0.00393
     36       0.9794      0.00000
     37       2.0600      0.00000
     38       3.0931      0.00000
     39       3.6001      0.00000
     40       4.4330      0.00000

 k-point   3 :       0.2857    0.0000    0.0000
  band No.  band energies     occupation 
      1      -8.5969      2.00000
      2      -7.2584      2.00000
      3      -5.8133      2.00000
      4      -5.5305      2.00000
      5      -5.1426      2.00000
      6      -5.0577      2.00000
      7      -4.7156      2.00000
      8      -4.2190      2.00000
      9      -3.9932      2.00000
     10      -3.9805      2.00000
     11      -3.8838      2.00000
     12      -3.8227      2.00000
     13      -3.6482      2.00000
     14      -3.6359      2.00000
     15      -3.6018      2.00000
     16      -3.5075      2.00000
     17      -3.4834      2.00000
     18      -3.4080      2.00000
     19      -3.2838      2.00000
     20      -3.1959      2.00000
     21      -3.1093      2.00000
     22      -3.0825      2.00000
     23      -3.0191      2.00000
     24      -2.8648      2.00000
     25      -2.7855      2.00000
     26      -2.7366      2.00000
     27      -2.7193      2.00000
     28      -2.6617      2.00000
     29      -2.4104      2.00000
     30      -2.3664      2.00000
     31      -2.3067      2.00000
     32      -2.2956      2.00000
     33      -2.2618      2.00000
     34      -1.5654      2.12345
     35      -0.8600      0.65874
     36      -0.2163     -0.00357
     37       1.3375      0.00000
     38       1.6677      0.00000
     39       4.1581      0.00000
     40       4.1770      0.00000

 k-point   4 :       0.4286    0.0000    0.0000
  band No.  band energies     occupation 
      1      -7.5149      2.00000
      2      -6.4452      2.00000
      3      -6.2744      2.00000
      4      -5.7914      2.00000
      5      -5.3155      2.00000
      6      -5.3013      2.00000
      7      -4.4913      2.00000
      8      -4.2270      2.00000
      9      -3.9809      2.00000
     10      -3.9111      2.00000
     11      -3.8202      2.00000
     12      -3.8192      2.00000
     13      -3.7044      2.00000
     14      -3.7019      2.00000
     15      -3.6274      2.00000
     16      -3.6040      2.00000
     17      -3.4229      2.00000
     18      -3.3998      2.00000
     19      -3.3645      2.00000
     20      -3.2878      2.00000
     21      -3.0690      2.00000
     22      -2.9579      2.00000
     23      -2.8082      2.00000
     24      -2.7968      2.00000
     25      -2.6621      2.00000
     26      -2.6447      2.00000
     27      -2.5684      2.00000
     28      -2.4539      2.00000
     29      -2.3908      2.00000
     30      -2.3575      2.00000
     31      -2.3533      2.00000
     32      -2.3143      2.00000
     33      -2.2992      2.00000
     34      -2.2087      2.00000
     35      -1.7666      2.11496
     36      -0.8725      0.24074
     37       0.4468      0.00000
     38       1.1366      0.00000
     39       4.2346      0.00000
     40       5.1997      0.00000

 k-point   5 :       0.0000    0.1429    0.0000
  band No.  band energies     occupation 
      1      -9.0567      2.00000
      2      -7.6252      2.00000
      3      -5.7740      2.00000
      4      -5.1977      2.00000
      5      -4.8786      2.00000
      6      -4.7047      2.00000
      7      -4.3829      2.00000
      8      -4.3468      2.00000
      9      -4.3311      2.00000
     10      -4.2702      2.00000
     11      -4.2242      2.00000
     12      -3.9674      2.00000
     13      -3.9323      2.00000
     14      -3.7375      2.00000
     15      -3.6106      2.00000
     16      -3.5211      2.00000
     17      -3.4817      2.00000
     18      -3.3551      2.00000
     19      -3.1976      2.00000
     20      -3.1788      2.00000
     21      -3.0930      2.00000
     22      -2.9627      2.00000
     23      -2.9433      2.00000
     24      -2.8865      2.00000
     25      -2.8809      2.00000
     26      -2.8543      2.00000
     27      -2.5648      2.00000
     28      -2.5571      2.00000
     29      -2.5396      2.00000
     30      -2.4409      2.00000
     31      -2.4368      2.00000
     32      -2.2278      2.00000
     33      -2.1992      2.00000
     34      -0.9311      1.14319
     35       1.3218      0.00000
     36       2.5336      0.00000
     37       3.4688      0.00000
     38       3.8443      0.00000
     39       4.3735      0.00000
     40       6.0168      0.00000

 k-point   6 :       0.1429    0.1429    0.0000
  band No.  band energies     occupation 
      1      -8.8235      2.00000
      2      -7.4176      2.00000
      3      -5.6743      2.00000
      4      -5.1720      2.00000
      5      -4.8506      2.00000
      6      -4.7265      2.00000
      7      -4.5830      2.00000
      8      -4.3009      2.00000
      9      -4.2453      2.00000
     10      -4.2312      2.00000
     11      -4.1071      2.00000
     12      -3.9735      2.00000
     13      -3.7813      2.00000
     14      -3.7516      2.00000
     15      -3.5956      2.00000
     16      -3.5697      2.00000
     17      -3.5050      2.00000
     18      -3.3776      2.00000
     19      -3.3094      2.00000
     20      -3.2273      2.00000
     21      -3.0722      2.00000
     22      -3.0526      2.00000
     23      -2.9743      2.00000
     24      -2.9710      2.00000
     25      -2.8317      2.00000
     26      -2.6906      2.00000
     27      -2.6309      2.00000
     28      -2.5533      2.00000
     29      -2.5112      2.00000
     30      -2.4427      2.00000
     31      -2.4034      2.00000
     32      -2.3208      2.00000
     33      -2.1498      2.00000
     34      -0.7500      0.69655
     35       1.0786     -0.00285
     36       1.4893      0.00000
     37       2.6407      0.00000
     38       3.5898      0.00000
     39       4.0654      0.00000
     40       4.8800      0.00000

 k-point   7 :       0.2857    0.1429    0.0000
  band No.  band energies     occupation 
      1      -8.1450      2.00000
      2      -6.8362      2.00000
      3      -5.4826      2.00000
      4      -5.2585      2.00000
      5      -4.9186      2.00000
      6      -4.8142      2.00000
      7      -4.6184      2.00000
      8      -4.2350      2.00000
      9      -4.1296      2.00000
     10      -4.0650      2.00000
     11      -4.0159      2.00000
     12      -3.9892      2.00000
     13      -3.7588      2.00000
     14      -3.7288      2.00000
     15      -3.5755      2.00000
     16      -3.5029      2.00000
     17      -3.4743      2.00000
     18      -3.4116      2.00000
     19      -3.3947      2.00000
     20      -3.3161      2.00000
     21      -3.1725      2.00000
     22      -3.1282      2.00000
     23      -3.1184      2.00000
     24      -3.0040      2.00000
     25      -2.7820      2.00000
     26      -2.6833      2.00000
     27      -2.6747      2.00000
     28      -2.5536      2.00000
     29      -2.4711      2.00000
     30      -2.4379      2.00000
     31      -2.3849      2.00000
     32      -2.3680      2.00000
     33      -1.9269      2.00000
     34      -0.8749      1.16150
     35      -0.1717     -0.05392
     36       0.4029     -0.00476
     37       1.8986      0.00000
     38       2.2018      0.00000
     39       4.5747      0.00000
     40       4.6228      0.00000

 k-point   8 :       0.4286    0.1429    0.0000
  band No.  band energies     occupation 
      1      -7.1071      2.00000
      2      -6.0804      2.00000
      3      -5.9237      2.00000
      4      -5.4782      2.00000
      5      -5.0300      2.00000
      6      -5.0064      2.00000
      7      -4.4314      2.00000
      8      -4.2179      2.00000
      9      -4.0255      2.00000
     10      -4.0085      2.00000
     11      -3.9729      2.00000
     12      -3.9252      2.00000
     13      -3.7612      2.00000
     14      -3.7449      2.00000
     15      -3.7045      2.00000
     16      -3.6117      2.00000
     17      -3.4773      2.00000
     18      -3.4006      2.00000
     19      -3.2438      2.00000
     20      -3.2110      2.00000
     21      -3.1643      2.00000
     22      -3.1307      2.00000
     23      -3.1127      2.00000
     24      -3.0678      2.00000
     25      -2.8258      2.00000
     26      -2.7835      2.00000
     27      -2.6505      2.00000
     28      -2.6353      2.00000
     29      -2.4832      2.00000
     30      -2.4614      2.00000
     31      -2.3972      2.00000
     32      -2.1273      2.00000
     33      -1.9772      2.00000
     34      -1.4277      1.90737
     35      -0.9658      1.08984
     36       0.1084     -0.07986
     37       0.8907      0.00000
     38       1.7827      0.00000
     39       4.5755      0.00000
     40       5.5683      0.00000

 k-point   9 :       0.0000    0.2857    0.0000
  band No.  band energies     occupation 
      1      -7.7109      2.00000
      2      -6.4949      2.00000
      3      -5.3692      2.00000
      4      -4.9229      2.00000
      5      -4.7546      2.00000
      6      -4.7232      2.00000
      7      -4.5601      2.00000
      8      -4.4808      2.00000
      9      -4.4760      2.00000
     10      -4.3442      2.00000
     11      -4.2929      2.00000
     12      -3.8828      2.00000
     13      -3.8236      2.00000
     14      -3.7496      2.00000
     15      -3.5345      2.00000
     16      -3.4364      2.00000
     17      -3.3378      2.00000
     18      -3.1499      2.00000
     19      -3.1243      2.00000
     20      -3.0685      2.00000
     21      -2.9899      2.00000
     22      -2.9484      2.00000
     23      -2.8713      2.00000
     24      -2.7886      2.00000
     25      -2.6577      2.00000
     26      -2.6526      2.00000
     27      -2.5009      2.00000
     28      -2.4963      2.00000
     29      -2.4878      2.00000
     30      -2.4600      2.00000
     31      -2.3102      2.00000
     32      -2.2806      2.00000
     33      -1.9305      2.06452
     34       0.1429     -0.07447
     35       2.4954      0.00000
     36       4.1015      0.00000
     37       4.6952      0.00000
     38       4.8145      0.00000
     39       5.0533      0.00000
     40       5.8662      0.00000

 k-point  10 :       0.1429    0.2857    0.0000
  band No.  band energies     occupation 
      1      -7.5109      2.00000
      2      -6.3160      2.00000
      3      -5.2467      2.00000
      4      -4.8631      2.00000
      5      -4.7383      2.00000
      6      -4.7143      2.00000
      7      -4.5951      2.00000
      8      -4.4388      2.00000
      9      -4.4098      2.00000
     10      -4.2859      2.00000
     11      -4.2521      2.00000
     12      -3.9144      2.00000
     13      -3.8159      2.00000
     14      -3.7603      2.00000
     15      -3.5887      2.00000
     16      -3.5137      2.00000
     17      -3.3954      2.00000
     18      -3.3146      2.00000
     19      -3.1279      2.00000
     20      -3.0509      2.00000
     21      -2.9773      2.00000
     22      -2.9140      2.00000
     23      -2.8976      2.00000
     24      -2.8383      2.00000
     25      -2.8050      2.00000
     26      -2.6388      2.00000
     27      -2.5352      2.00000
     28      -2.5236      2.00000
     29      -2.4441      2.00000
     30      -2.3801      2.00000
     31      -2.3452      2.00000
     32      -2.3384      2.00000
     33      -1.6529      1.94338
     34       0.4384     -0.06085
     35       2.6982      0.00000
     36       2.7312      0.00000
     37       4.1384      0.00000
     38       4.5062      0.00000
     39       5.0918      0.00000
     40       5.3360      0.00000

 k-point  11 :       0.2857    0.2857    0.0000
  band No.  band energies     occupation 
      1      -6.9504      2.00000
      2      -5.8359      2.00000
      3      -4.9532      2.00000
      4      -4.9413      2.00000
      5      -4.7190      2.00000
      6      -4.7009      2.00000
      7      -4.4809      2.00000
      8      -4.3859      2.00000
      9      -4.2551      2.00000
     10      -4.1712      2.00000
     11      -4.1198      2.00000
     12      -3.9751      2.00000
     13      -3.7928      2.00000
     14      -3.7851      2.00000
     15      -3.7175      2.00000
     16      -3.6287      2.00000
     17      -3.4957      2.00000
     18      -3.4936      2.00000
     19      -3.1655      2.00000
     20      -3.0805      2.00000
     21      -3.0423      2.00000
     22      -3.0379      2.00000
     23      -2.9922      2.00000
     24      -2.9549      2.00000
     25      -2.7504      2.00000
     26      -2.7010      2.00000
     27      -2.6300      2.00000
     28      -2.5331      2.00000
     29      -2.4668      2.00000
     30      -2.4330      2.00000
     31      -2.3892      2.00000
     32      -2.1236      2.07697
     33      -0.9295      1.37769
     34       0.4004     -0.09314
     35       1.2586     -0.01570
     36       1.7547      0.00000
     37       3.3811      0.00000
     38       3.6817      0.00000
     39       5.3970      0.00000
     40       5.8211      0.00000

 k-point  12 :       0.4286    0.2857    0.0000
  band No.  band energies     occupation 
      1      -6.1730      2.00000
      2      -5.4652      2.00000
      3      -5.2035      2.00000
      4      -4.8568      2.00000
      5      -4.6181      2.00000
      6      -4.6070      2.00000
      7      -4.3277      2.00000
      8      -4.2928      2.00000
      9      -4.1614      2.00000
     10      -4.1387      2.00000
     11      -4.0935      2.00000
     12      -3.9346      2.00000
     13      -3.7806      2.00000
     14      -3.7740      2.00000
     15      -3.7382      2.00000
     16      -3.7120      2.00000
     17      -3.5983      2.00000
     18      -3.5718      2.00000
     19      -3.2483      2.00000
     20      -3.2048      2.00000
     21      -3.1123      2.00000
     22      -3.0746      2.00000
     23      -3.0319      2.00000
     24      -3.0221      2.00000
     25      -2.7758      2.00000
     26      -2.7700      2.00000
     27      -2.7009      2.00000
     28      -2.5936      2.00000
     29      -2.4832      2.00000
     30      -2.4734      2.00000
     31      -2.2178      2.00000
     32      -1.4714      2.05712
     33      -1.1972      1.60991
     34      -0.3248      0.05507
     35       0.3862     -0.08579
     36       1.6864      0.00000
     37       2.3868      0.00000
     38       3.4812      0.00000
     39       5.6512      0.00000
     40       6.5375      0.00000

 k-point  13 :       0.0000    0.4286    0.0000
  band No.  band energies     occupation 
      1      -5.9602      2.00000
      2      -5.6234      2.00000
      3      -5.4074      2.00000
      4      -4.9948      2.00000
      5      -4.9834      2.00000
      6      -4.9822      2.00000
      7      -4.5916      2.00000
      8      -4.5789      2.00000
      9      -4.4942      2.00000
     10      -4.4836      2.00000
     11      -4.1346      2.00000
     12      -4.0350      2.00000
     13      -4.0157      2.00000
     14      -3.7986      2.00000
     15      -3.4417      2.00000
     16      -3.2835      2.00000
     17      -3.0913      2.00000
     18      -3.0293      2.00000
     19      -2.9113      2.00000
     20      -2.7721      2.00000
     21      -2.6967      2.00000
     22      -2.6705      2.00000
     23      -2.5724      2.00000
     24      -2.4738      2.00000
     25      -2.4387      2.00000
     26      -2.4171      2.00000
     27      -2.4165      2.00000
     28      -2.3454      2.00000
     29      -2.3284      2.00000
     30      -2.2802      2.00000
     31      -1.8214      2.00000
     32      -1.5629      2.00000
     33      -0.4865      0.34898
     34       0.4041      0.00000
     35       1.2162      0.00000
     36       1.3735      0.00000
     37       4.0361      0.00000
     38       4.4592      0.00000
     39       6.9977      0.00000
     40       7.4563      0.00000

 k-point  14 :       0.1429    0.4286    0.0000
  band No.  band energies     occupation 
      1      -5.8896      2.00000
      2      -5.5048      2.00000
      3      -5.2977      2.00000
      4      -5.0146      2.00000
      5      -4.9578      2.00000
      6      -4.9141      2.00000
      7      -4.7320      2.00000
      8      -4.6280      2.00000
      9      -4.3008      2.00000
     10      -4.3004      2.00000
     11      -4.0863      2.00000
     12      -4.0139      2.00000
     13      -3.8924      2.00000
     14      -3.7575      2.00000
     15      -3.4631      2.00000
     16      -3.4592      2.00000
     17      -3.1510      2.00000
     18      -3.0953      2.00000
     19      -2.8872      2.00000
     20      -2.8827      2.00000
     21      -2.7989      2.00000
     22      -2.7570      2.00000
     23      -2.6351      2.00000
     24      -2.5356      2.00000
     25      -2.4931      2.00000
     26      -2.4365      2.00000
     27      -2.3854      2.00000
     28      -2.3790      2.00000
     29      -2.3393      2.00000
     30      -2.3164      2.00000
     31      -1.8320      2.00000
     32      -1.3997      2.00000
     33      -0.0438      0.04238
     34       0.4779      0.00000
     35       1.4432      0.00000
     36       1.7910      0.00000
     37       4.2278      0.00000
     38       4.7043      0.00000
     39       5.4573      0.00000
     40       6.6089      0.00000

 k-point  15 :       0.2857    0.4286    0.0000
  band No.  band energies     occupation 
      1      -5.7460      2.00000
      2      -5.2498      2.00000
      3      -5.1518      2.00000
      4      -5.0151      2.00000
      5      -4.8700      2.00000
      6      -4.8598      2.00000
      7      -4.4989      2.00000
      8      -4.4721      2.00000
      9      -4.2183      2.00000
     10      -4.1719      2.00000
     11      -3.8541      2.00000
     12      -3.8232      2.00000
     13      -3.7872      2.00000
     14      -3.7615      2.00000
     15      -3.6460      2.00000
     16      -3.5962      2.00000
     17      -3.3849      2.00000
     18      -3.3149      2.00000
     19      -3.0851      2.00000
     20      -2.9936      2.00000
     21      -2.9058      2.00000
     22      -2.8076      2.00000
     23      -2.7270      2.00000
     24      -2.6160      2.00000
     25      -2.5657      2.00000
     26      -2.5071      2.00000
     27      -2.3933      2.00000
     28      -2.3662      2.00000
     29      -2.3244      2.00000
     30      -2.2898      2.00000
     31      -1.8634      2.00000
     32      -0.8507      1.47888
     33       0.4347     -0.12635
     34       0.9146      0.00000
     35       1.8807      0.00000
     36       2.7845      0.00000
     37       3.5933      0.00000
     38       4.5272      0.00000
     39       4.7873      0.00000
     40       5.3903      0.00000

 k-point  16 :       0.4286    0.4286    0.0000
  band No.  band energies     occupation 
      1      -5.6030      2.00000
      2      -5.4339      2.00000
      3      -4.8943      2.00000
      4      -4.8027      2.00000
      5      -4.7020      2.00000
      6      -4.6665      2.00000
      7      -4.2903      2.00000
      8      -4.2057      2.00000
      9      -4.1409      2.00000
     10      -4.1275      2.00000
     11      -3.9951      2.00000
     12      -3.9242      2.00000
     13      -3.8067      2.00000
     14      -3.7666      2.00000
     15      -3.6377      2.00000
     16      -3.6291      2.00000
     17      -3.5275      2.00000
     18      -3.5036      2.00000
     19      -3.1547      2.00000
     20      -3.1254      2.00000
     21      -2.8769      2.00000
     22      -2.8228      2.00000
     23      -2.7338      2.00000
     24      -2.6989      2.00000
     25      -2.5564      2.00000
     26      -2.4737      2.00000
     27      -2.4157      2.00000
     28      -2.4000      2.00000
     29      -2.2985      2.00000
     30      -2.2726      2.00000
     31      -1.5228      2.00000
     32      -0.4656      0.20481
     33       0.1206     -0.10626
     34       1.2710      0.00000
     35       2.2487      0.00000
     36       3.2902      0.00000
     37       3.5438      0.00000
     38       4.1466      0.00000
     39       4.5233      0.00000
     40       4.7451      0.00000


--------------------------------------------------------------------------------------------------------


 soft charge-density along one line, spin component           1
         0         1         2         3         4         5         6         7         8         9
 total charge-density along one line
 
 pseudopotential strength for first ion, spin component:           1
 -9.520   0.000   0.000   0.000   0.000   1.134   0.000   0.000
  0.000  -9.492   0.000   0.000   0.000   0.000   1.121   0.000
  0.000   0.000  -9.487   0.000  -0.015   0.000   0.000   1.118
  0.000   0.000   0.000  -9.480   0.000   0.000   0.000   0.000
  0.000   0.000  -0.015   0.000  -9.514   0.000   0.000   0.007
  1.134   0.000   0.000   0.000   0.000   1.055   0.000   0.000
  0.000   1.121   0.000   0.000   0.000   0.000   1.062   0.000
  0.000   0.000   1.118   0.000   0.007   0.000   0.000   1.063
  0.000   0.000   0.000   1.115   0.000   0.000   0.000   0.000
  0.000   0.000   0.007   0.000   1.132   0.000   0.000  -0.003
  0.000   0.000  -0.006   0.000  -0.003   0.000   0.000   0.002
  0.000   0.000   0.000   0.000   0.000   0.000   0.000   0.000
  0.000  -0.017   0.000   0.000   0.000   0.000   0.009   0.000
  0.000   0.000  -0.018   0.000   0.001   0.000   0.000   0.009
  0.000   0.000   0.000  -0.016   0.000   0.000   0.000   0.000
  0.000   0.010   0.000   0.000   0.000   0.000  -0.005   0.000
  0.000   0.000   0.011   0.000  -0.001   0.000   0.000  -0.005
  0.000   0.000   0.000   0.009   0.000   0.000   0.000   0.000
 total augmentation occupancy for first ion, spin component:           1
  1.915   0.000   0.000   0.000   0.000  -0.015   0.000   0.000   0.000   0.000   0.000   0.000   0.000   0.000   0.000   0.000
  0.000   1.932   0.000   0.000   0.000   0.000  -0.051   0.000   0.000   0.000   0.000   0.000  -0.004   0.000   0.000  -0.009
  0.000   0.000   1.930   0.000  -0.003   0.000   0.000  -0.031   0.000   0.016   0.015   0.028   0.000   0.023   0.000   0.000
  0.000   0.000   0.000   1.930   0.000   0.000   0.000   0.000  -0.045   0.000   0.000   0.000   0.000   0.000   0.038   0.000
  0.000   0.000  -0.003   0.000   1.918   0.000   0.000   0.016   0.000  -0.027  -0.007   0.016   0.000   0.022   0.000   0.000
 -0.015   0.000   0.000   0.000   0.000   0.047   0.000   0.000   0.000   0.000   0.000   0.000   0.000   0.000   0.000   0.000
  0.000  -0.051   0.000   0.000   0.000   0.000   0.044   0.000   0.000   0.000   0.000   0.000   0.043   0.000   0.000  -0.003
  0.000   0.000  -0.031   0.000   0.016   0.000   0.000   0.051   0.000   0.009  -0.052   0.002   0.000   0.040   0.000   0.000
  0.000   0.000   0.000  -0.045   0.000   0.000   0.000   0.000   0.054   0.000   0.000   0.000   0.000   0.000   0.058   0.000
  0.000   0.000   0.016   0.000  -0.027   0.000   0.000   0.009   0.000   0.054  -0.029   0.007   0.000   0.007   0.000   0.000
  0.000   0.000   0.015   0.000  -0.007   0.000   0.000  -0.052   0.000  -0.029   1.242  -0.266   0.000   0.121   0.000   0.000
  0.000   0.000   0.028   0.000   0.016   0.000   0.000   0.002   0.000   0.007  -0.266   0.100   0.000  -0.058   0.000   0.000
  0.000  -0.004   0.000   0.000   0.000   0.000   0.043   0.000   0.000   0.000   0.000   0.000   0.157   0.000   0.000  -0.009
  0.000   0.000   0.023   0.000   0.022   0.000   0.000   0.040   0.000   0.007   0.121  -0.058   0.000   0.085   0.000   0.000
  0.000   0.000   0.000   0.038   0.000   0.000   0.000   0.000   0.058   0.000   0.000   0.000   0.000   0.000   0.123   0.000
  0.000  -0.009   0.000   0.000   0.000   0.000  -0.003   0.000   0.000   0.000   0.000   0.000  -0.009   0.000   0.000   0.001
  0.000   0.000  -0.011   0.000  -0.001   0.000   0.000  -0.002   0.000   0.000  -0.020   0.007   0.000  -0.007   0.000   0.000
  0.000   0.000   0.000  -0.012   0.000   0.000   0.000   0.000  -0.004   0.000   0.000   0.000   0.000   0.000  -0.008   0.000


------------------------ aborting loop because EDIFF is reached ----------------------------------------


    CHARGE:  cpu time    0.63: real time    0.63
    FORLOC:  cpu time    0.02: real time    0.02
    FORNL :  cpu time    5.54: real time    5.54
    STRESS:  cpu time    8.62: real time    8.62
    FORCOR:  cpu time    0.30: real time    0.30
    FORHAR:  cpu time    0.09: real time    0.09
    MIXING:  cpu time    0.01: real time    0.01

  FORCE on cell =-STRESS in cart. coord.  units (eV):
  Direction    XX          YY          ZZ          XY          YZ          ZX
  --------------------------------------------------------------------------------------
  Alpha Z   278.63144   278.63144   278.63144
  Ewald   18439.66275 18603.26308-22813.36543     0.00000     0.00000     0.00000
  Hartree 20665.53342 20776.03302-19418.16118     0.00000     0.00000     0.00000
  E(xc)    -375.28987  -375.10999  -375.86156     0.00000     0.00000     0.00000
  Local  -39593.36187-39867.23309 41741.59270     0.00000     0.00000     0.00000
  n-local  -223.40805  -222.61975  -223.93652     3.07963     0.00000     0.00000
  augment   336.70843   336.59318   338.02310    -0.00003    -0.00002    -0.00003
  Kinetic   470.15079   469.17023   472.89124     4.68643     0.00000     0.00000
  Fock        0.00000     0.00000     0.00000     0.00000     0.00000     0.00000
  -------------------------------------------------------------------------------------
  Total      -1.37295    -1.27186    -0.18621     0.00000     0.00000     0.00000
  in kB     -13.32567   -12.34453    -1.80730     0.00000     0.00000     0.00000
  external pressure =       -9.16 kB  Pullay stress =        0.00 kB


 VOLUME and BASIS-vectors are now :
 -----------------------------------------------------------------------------
  energy-cutoff  :      415.00
  volume of cell :      165.07
      direct lattice vectors                 reciprocal lattice vectors
     3.631354857  0.000000000  0.000000000     0.275379311  0.000000000  0.000000000
     0.000000000  2.567755644  0.000000000     0.000000000  0.389445157  0.000000000
     0.000000000  0.000000000 17.703266931     0.000000000  0.000000000  0.056486749

  length of vectors
     3.631354857  2.567755644 17.703266931     0.275379311  0.389445157  0.056486749


 FORCES acting on ions
    electron-ion (+dipol)            ewald-force                    non-local-force                 convergence-correction
 -----------------------------------------------------------------------------------------------
   -.138E-14 -.155E-13 0.312E+04   0.804E-14 0.164E-13 -.312E+04   0.000E+00 0.000E+00 -.394E+01   0.101E-13 0.562E-14 -.999E-04
   -.314E-13 0.494E-14 0.632E+03   -.596E-13 0.279E-13 -.632E+03   0.000E+00 0.000E+00 -.608E+00   -.231E-13 0.142E-13 -.977E-03
   -.472E-13 -.972E-14 -.206E+04   -.215E-13 0.149E-13 0.206E+04   0.000E+00 0.000E+00 -.938E+00   -.792E-13 0.452E-13 0.124E-02
   0.608E-12 0.118E-12 0.206E+04   -.138E-13 0.172E-13 -.206E+04   0.000E+00 0.000E+00 0.938E+00   0.130E-12 -.412E-13 -.121E-02
   0.605E-12 0.879E-12 -.632E+03   0.505E-13 0.678E-14 0.632E+03   0.000E+00 0.000E+00 0.608E+00   0.957E-13 -.423E-13 0.102E-02
   0.630E-12 -.415E-12 -.312E+04   0.113E-13 0.862E-14 0.312E+04   0.000E+00 0.000E+00 0.394E+01   0.817E-13 0.138E-13 0.116E-03
 -----------------------------------------------------------------------------------------------
   0.176E-11 0.561E-12 -.203E-02   -.251E-13 0.918E-13 -.455E-12   0.000E+00 0.000E+00 0.133E-14   0.215E-12 -.475E-14 0.984E-04
 
 
 POSITION                                       TOTAL-FORCE (eV/Angst)
 -----------------------------------------------------------------------------------
      0.00000      0.00000      0.08779         0.000000      0.000000     -0.001284
      0.00000      0.00000      2.58203         0.000000      0.000000     -0.018560
      0.00000      0.00000      5.17881         0.000000      0.000000      0.009079
      1.81568      1.28388      1.24058         0.000000      0.000000     -0.009079
      1.81568      1.28388      3.83736         0.000000      0.000000      0.018560
      1.81568      1.28388      6.33160         0.000000      0.000000      0.001284
 -----------------------------------------------------------------------------------
    total drift:                                0.000000      0.000000     -0.001930


--------------------------------------------------------------------------------------------------------



  FREE ENERGIE OF THE ION-ELECTRON SYSTEM (eV)
  ---------------------------------------------------
  free  energy   TOTEN  =       -20.559713 eV

  energy  without entropy=      -20.559713  energy(sigma->0) =      -20.559713
 
 d Force = 0.5793333E-05[ 0.527E-05, 0.632E-05]  d Energy =-0.1719040E-04 0.230E-04
 d Force =-0.9797166E+00[-0.980E+00,-0.980E+00]  d Ewald  =-0.9797166E+00-0.100E-08


--------------------------------------------------------------------------------------------------------


    POTLOK:  cpu time    0.33: real time    0.33


--------------------------------------------------------------------------------------------------------




--------------------------------------------------------------------------------------------------------


  
 reached required accuracy - stopping structural energy minimisation
 writing wavefunctions
     LOOP+:  cpu time   72.28: real time   72.29
    4ORBIT:  cpu time    0.00: real time    0.00
 BZINTS: Fermi energy: -0.840932; 66.000000 electrons
         Band energy:-239.178186;  BLOECHL correction: -0.188683

 total amount of memory used by VASP on root node    63150. kBytes
========================================================================

   base      :      30000. kBytes
   nonl-proj :       7675. kBytes
   fftplans  :       3158. kBytes
   grid      :       5298. kBytes
   one-center:         93. kBytes
   wavefun   :      16926. kBytes
 
  
  
 General timing and accounting informations for this job:
 ========================================================
  
                  Total CPU time used (sec):     2130.897
                            User time (sec):     2122.125
                          System time (sec):        8.773
                         Elapsed time (sec):     2131.218
  
                   Maximum memory used (kb):           0.
                   Average memory used (kb):           0.
  
                          Minor page faults:       745222
                          Major page faults:            5
                 Voluntary context switches:        10637
