Cu Suf2                                 
 1.00000000000
 3.63135485700 0.00000000000 0.00000000000
 0.00000000000 2.56775564360 0.00000000000
 0.00000000000 0.00000000000 17.70326693081
 6 
Selective dynamics
Direct
0.00000000000 0.00000000000 0.00000000000  T  T  T
0.00000000000 0.00000000000 0.14504416917  T  T  T
0.00000000000 0.00000000000 0.29008833834  T  T  T
0.50000000000 0.50000000000 0.07252208459  T  T  T
0.50000000000 0.50000000000 0.21756625376  T  T  T
0.50000000000 0.50000000000 0.36261042293  T  T  T
