Pd Bulk                                 
   1.00000000000000     
     3.9510203982099998    0.0000000000000000    0.0000000000000000
     0.0000000000000000    3.9510203982099998    0.0000000000000000
     0.0000000000000000    0.0000000000000000   21.8530611946200004
   Pd
    12
Selective dynamics
Direct
  0.0000000000000000  0.0000000000000000  0.0009224798604297   T   T   T
  0.0000000000000000  0.0000000000000000  0.1808167646548518   T   T   T
  0.0000000000000000  0.0000000000000000  0.3617278391548541   T   T   T
  0.5000000000000000  0.5000000000000000  0.0009224798604297   T   T   T
  0.5000000000000000  0.5000000000000000  0.1808167646548518   T   T   T
  0.5000000000000000  0.5000000000000000  0.3617278391548541   T   T   T
  0.5000000000000000  0.0000000000000000  0.0902706661151510   T   T   T
  0.5000000000000000  0.0000000000000000  0.2711817406151462   T   T   T
  0.5000000000000000  0.0000000000000000  0.4510760254095683   T   T   T
  0.0000000000000000  0.5000000000000000  0.0902706661151510   T   T   T
  0.0000000000000000  0.5000000000000000  0.2711817406151462   T   T   T
  0.0000000000000000  0.5000000000000000  0.4510760254095683   T   T   T
 
  0.00000000E+00  0.00000000E+00  0.00000000E+00
  0.00000000E+00  0.00000000E+00  0.00000000E+00
  0.00000000E+00  0.00000000E+00  0.00000000E+00
  0.00000000E+00  0.00000000E+00  0.00000000E+00
  0.00000000E+00  0.00000000E+00  0.00000000E+00
  0.00000000E+00  0.00000000E+00  0.00000000E+00
  0.00000000E+00  0.00000000E+00  0.00000000E+00
  0.00000000E+00  0.00000000E+00  0.00000000E+00
  0.00000000E+00  0.00000000E+00  0.00000000E+00
  0.00000000E+00  0.00000000E+00  0.00000000E+00
  0.00000000E+00  0.00000000E+00  0.00000000E+00
  0.00000000E+00  0.00000000E+00  0.00000000E+00
