 vasp.5.2.12 11Nov11 complex                                                    
  
 executed on             LinuxIFC date 2016.03.01  23:02:17
 running on    2 nodes
 distr:  one band on    1 nodes,    2 groups


--------------------------------------------------------------------------------------------------------


 INCAR:
 POTCAR:   PAW_PBE Pd 05Jan2001                   
 POTCAR:   PAW_PBE Pd 05Jan2001                   
   VRHFIN =Pd : s1 d9                                                           
   LEXCH  = PE                                                                  
   EATOM  =   809.7532 eV,   59.5152 Ry                                         
                                                                                
   TITEL  = PAW_PBE Pd 05Jan2001                                                
   LULTRA =        F    use ultrasoft PP ?                                      
   IUNSCR =        1    unscreen: 0-lin 1-nonlin 2-no                           
   RPACOR =    2.000    partial core radius                                     
   POMASS =  106.420; ZVAL   =   10.000    mass and valenz                      
   RCORE  =    2.400    outmost cutoff radius                                   
   RWIGS  =    2.710; RWIGS  =    1.434    wigner-seitz radius (au A)           
   ENMAX  =  250.925; ENMIN  =  188.194 eV                                      
   RCLOC  =    1.862    cutoff for local pot                                    
   LCOR   =        T    correct aug charges                                     
   LPAW   =        T    paw PP                                                  
   EAUG   =  416.230                                                            
   DEXC   =    -.079                                                            
   RMAX   =    2.911    core radius for proj-oper                               
   RAUG   =    1.300    factor for augmentation sphere                          
   RDEP   =    2.405    radius for radial grids                                 
   QCUT   =   -4.294; QGAM   =    8.589    optimization parameters              
                                                                                
   Description                                                                  
     l     E      TYP  RCUT    TYP  RCUT                                        
     2   .000     23  2.400                                                     
     2   .000     23  2.400                                                     
     0   .000     23  2.400                                                     
     0   .000     23  2.400                                                     
     1  -.200     23  2.400                                                     
     1   .000     23  2.400                                                     
     3   .000      7   .000                                                     
  local pseudopotential read in
  partial core-charges read in
  atomic valenz-charges read in
  non local Contribution for L=           2  read in
    real space projection operators read in
  non local Contribution for L=           2  read in
    real space projection operators read in
  non local Contribution for L=           0  read in
    real space projection operators read in
  non local Contribution for L=           0  read in
    real space projection operators read in
  non local Contribution for L=           1  read in
    real space projection operators read in
  non local Contribution for L=           1  read in
    real space projection operators read in
    PAW grid and wavefunctions read in
 
   number of l-projection  operators is LMAX  =           6
   number of lm-projection operators is LMMAX =          18
 
 PAW_PBE Pd 05Jan2001                   :
 energy of atom  1       EATOM= -809.7532
 kinetic energy error for atom=    0.0069 (will be added to EATOM!!)
 
 
 POSCAR: Pd Bulk                                 
  positions in direct lattice
  No initial velocities read in
 exchange correlation table for  LEXCH =        8
   RHO(1)=    0.500       N(1)  =     2000
   RHO(2)=  100.500       N(2)  =     4000
 


--------------------------------------------------------------------------------------------------------


 ion  position               nearest neighbor table
   1  0.000  0.000  0.000-   7 2.79  10 2.79  10 2.79   7 2.79   4 2.79   4 2.79   4 2.79   4 2.79

   2  0.000  0.000  0.181-   8 2.79  11 2.79  11 2.79   8 2.79   5 2.79   5 2.79   5 2.79   5 2.79
                            10 2.79   7 2.79  10 2.79   7 2.79
   3  0.000  0.000  0.362-   9 2.79  12 2.79  12 2.79   9 2.79   6 2.79   6 2.79   6 2.79   6 2.79
                            11 2.79   8 2.79  11 2.79   8 2.79
   4  0.500  0.500  0.000-   7 2.79  10 2.79   7 2.79  10 2.79   1 2.79   1 2.79   1 2.79   1 2.79

   5  0.500  0.500  0.181-   8 2.79  11 2.79   8 2.79  11 2.79   2 2.79   2 2.79   2 2.79   2 2.79
                            10 2.79  10 2.79   7 2.79   7 2.79
   6  0.500  0.500  0.362-   9 2.79  12 2.79   9 2.79  12 2.79   3 2.79   3 2.79   3 2.79   3 2.79
                            11 2.79  11 2.79   8 2.79   8 2.79
   7  0.500  0.000  0.090-   1 2.79   4 2.79   4 2.79   1 2.79  10 2.79  10 2.79  10 2.79  10 2.79
                             5 2.79   2 2.79   5 2.79   2 2.79
   8  0.500  0.000  0.271-   2 2.79   5 2.79   5 2.79   2 2.79  11 2.79  11 2.79  11 2.79  11 2.79
                             6 2.79   3 2.79   6 2.79   3 2.79
   9  0.500  0.000  0.452-   3 2.79   6 2.79   6 2.79   3 2.79  12 2.79  12 2.79  12 2.79  12 2.79

  10  0.000  0.500  0.090-   1 2.79   4 2.79   1 2.79   4 2.79   7 2.79   7 2.79   7 2.79   7 2.79
                             5 2.79   5 2.79   2 2.79   2 2.79
  11  0.000  0.500  0.271-   2 2.79   5 2.79   2 2.79   5 2.79   8 2.79   8 2.79   8 2.79   8 2.79
                             6 2.79   6 2.79   3 2.79   3 2.79
  12  0.000  0.500  0.452-   3 2.79   6 2.79   3 2.79   6 2.79   9 2.79   9 2.79   9 2.79   9 2.79

 
  LATTYP: Found a simple tetragonal cell.
 ALAT       =     3.9510203982
 C/A-ratio  =     5.5309917419
  
  Lattice vectors:
  
 A1 = (   3.9510203982,   0.0000000000,   0.0000000000)
 A2 = (   0.0000000000,   3.9510203982,   0.0000000000)
 A3 = (   0.0000000000,   0.0000000000,  21.8530611946)
 Subroutine PRICEL returns following result:
 
  LATTYP: Found a simple tetragonal cell.
 ALAT       =     2.7937933162
 C/A-ratio  =     7.8220035348
  
  Lattice vectors:
  
 A1 = (   1.9755101991,  -1.9755101991,   0.0000000000)
 A2 = (  -1.9755101991,  -1.9755101991,   0.0000000000)
 A3 = (   0.0000000000,   0.0000000000, -21.8530611946)
 
   2 primitive cells build up your supercell.
 

Analysis of symmetry for initial positions (statically):

 Routine SETGRP: Setting up the symmetry group for a 
 simple tetragonal supercell.


 Subroutine GETGRP returns: Found 16 space group operations
 (whereof  8 operations were pure point group operations)
 out of a pool of 16 trial point group operations.


The static configuration has the point symmetry C_4v.
 The point group associated with its full space group is D_4h.

Analysis of symmetry for dynamics (positions and initial velocities):

 Subroutine DYNSYM returns: Found 16 space group operations
 (whereof  8 operations were pure point group operations)
 out of a pool of 16 trial space group operations
 (whereof  8 operations were pure point group operations)
 and found also     2 'primitive' translations


The dynamic configuration has the point symmetry C_4v.
 The point group associated with its full space group is D_4h.

Analysis of constrained symmetry for selective dynamics:

 Subroutine DYNSYM returns: Found 16 space group operations
 (whereof  8 operations were pure point group operations)
 out of a pool of 16 trial space group operations
 (whereof  8 operations were pure point group operations)
 and found also     2 'primitive' translations


The constrained configuration has the point symmetry C_4v.
 The point group associated with its full space group is D_4h.
 
 
 KPOINTS: K-Points                                

Automatic generation of k-mesh.
 
 Subroutine IBZKPT returns following result:
 ===========================================
 
 Found     10 irreducible k-points:
 
 Following reciprocal coordinates:
            Coordinates               Weight
  0.000000  0.000000  0.000000      1.000000
  0.142857  0.000000  0.000000      4.000000
  0.285714  0.000000  0.000000      4.000000
  0.428571  0.000000  0.000000      4.000000
  0.142857  0.142857  0.000000      4.000000
  0.285714  0.142857  0.000000      8.000000
  0.428571  0.142857  0.000000      8.000000
  0.285714  0.285714  0.000000      4.000000
  0.428571  0.285714  0.000000      8.000000
  0.428571  0.428571  0.000000      4.000000
 
 Following cartesian coordinates:
            Coordinates               Weight
  0.000000  0.000000  0.000000      1.000000
  0.036157  0.000000  0.000000      4.000000
  0.072314  0.000000  0.000000      4.000000
  0.108471  0.000000  0.000000      4.000000
  0.036157  0.036157  0.000000      4.000000
  0.072314  0.036157  0.000000      8.000000
  0.108471  0.036157  0.000000      8.000000
  0.072314  0.072314  0.000000      4.000000
  0.108471  0.072314  0.000000      8.000000
  0.108471  0.108471  0.000000      4.000000
 
 TETIRR: Found     65 inequivalent tetrahedra from      294


--------------------------------------------------------------------------------------------------------




 Dimension of arrays:
   k-points           NKPTS =     10   k-points in BZ     NKDIM =     10   number of bands    NBANDS=     72
   number of dos      NEDOS =    301   number of ions     NIONS =     12
   non local maximal  LDIM  =      6   non local SUM 2l+1 LMDIM =     18
   total plane-waves  NPLWV =  44800
   max r-space proj   IRMAX =      1   max aug-charges    IRDMAX=   6569
   dimension x,y,z NGX =    20 NGY =   20 NGZ =  112
   dimension x,y,z NGXF=    40 NGYF=   40 NGZF=  224
   support grid    NGXF=    40 NGYF=   40 NGZF=  224
   ions per type =              12
 NGX,Y,Z   is equivalent  to a cutoff of   8.42,  8.42,  8.52 a.u.
 NGXF,Y,Z  is equivalent  to a cutoff of  16.83, 16.83, 17.04 a.u.


 I would recommend the setting:
   dimension x,y,z NGX =    20 NGY =   20 NGZ =  109
 SYSTEM =  unknown system                          
 POSCAR =  Pd Bulk                                 

 Startparameter for this run:
   NWRITE =      2    write-flag & timer
   PREC   = normal    normal or accurate (medium, high low for compatibility)
   ISTART =      0    job   : 0-new  1-cont  2-samecut
   ICHARG =      2    charge: 1-file 2-atom 10-const
   ISPIN  =      1    spin polarized calculation?
   LNONCOLLINEAR =      F non collinear calculations
   LSORBIT =      F    spin-orbit coupling
   INIWAV =      1    electr: 0-lowe 1-rand  2-diag
   LASPH  =      F    aspherical Exc in radial PAW
   METAGGA=      F    non-selfconsistent MetaGGA calc.

 Electronic Relaxation 1
   ENCUT  =  415.0 eV  30.50 Ry    5.52 a.u.   6.56  6.56 36.30*2*pi/ulx,y,z
   ENINI  =  415.0     initial cutoff
   ENAUG  =  416.2 eV  augmentation charge cutoff
   NELM   =    101;   NELMIN=  2; NELMDL= -5     # of ELM steps 
   EDIFF  = 0.1E-05   stopping-criterion for ELM
   LREAL  =      F    real-space projection
   NLSPLINE    = F    spline interpolate recip. space projectors
   LCOMPAT=      F    compatible to vasp.4.4
   GGA_COMPAT  = T    GGA compatible to vasp.4.4-vasp.4.6
   LMAXPAW     = -100 max onsite density
   LMAXMIX     =    2 max onsite mixed and CHGCAR
   VOSKOWN=      0    Vosko Wilk Nusair interpolation
   ROPT   =    0.00000
 Ionic relaxation
   EDIFFG = 0.1E-03   stopping-criterion for IOM
   NSW    =    101    number of steps for IOM
   NBLOCK =      1;   KBLOCK =    101    inner block; outer block 
   IBRION =      2    ionic relax: 0-MD 1-quasi-New 2-CG
   NFREE  =      1    steps in history (QN), initial steepest desc. (CG)
   ISIF   =      2    stress and relaxation
   IWAVPR =     11    prediction:  0-non 1-charg 2-wave 3-comb
   ISYM   =      2    0-nonsym 1-usesym 2-fastsym
   LCORR  =      T    Harris-Foulkes like correction to forces

   POTIM  = 0.0500    time-step for ionic-motion
   TEIN   =    0.0    initial temperature
   TEBEG  =    0.0;   TEEND  =   0.0 temperature during run
   SMASS  =  -3.00    Nose mass-parameter (am)
   estimated Nose-frequenzy (Omega)   =  0.10E-29 period in steps =****** mass=  -0.357E-27a.u.
   SCALEE = 1.0000    scale energy and forces
   NPACO  =    256;   APACO  = 16.0  distance and # of slots for P.C.
   PSTRESS=    0.0 pullay stress

  Mass of Ions in am
   POMASS = 106.42
  Ionic Valenz
   ZVAL   =  10.00
  Atomic Wigner-Seitz radii
   RWIGS  =  -1.00
  virtual crystal weights 
   VCA    =   1.00
   NELECT =     120.0000    total number of electrons
   NUPDOWN=      -1.0000    fix difference up-down

 DOS related values:
   EMIN   =  10.00;   EMAX   =-10.00  energy-range for DOS
   EFERMI =   0.00
   ISMEAR =    -5;   SIGMA  =   0.20  broadening in eV -4-tet -1-fermi 0-gaus

 Electronic relaxation 2 (details)
   IALGO  =     38    algorithm
   LDIAG  =      T    sub-space diagonalisation (order eigenvalues)
   LSUBROT=      T    optimize rotation matrix (better conditioning)
   TURBO    =      0    0=normal 1=particle mesh
   IRESTART =      0    0=no restart 2=restart with 2 vectors
   NREBOOT  =      0    no. of reboots
   NMIN     =      0    reboot dimension
   EREF     =   0.00    reference energy to select bands
   IMIX   =      4    mixing-type and parameters
     AMIX     =   0.40;   BMIX     =  1.00
     AMIX_MAG =   1.60;   BMIX_MAG =  1.00
     AMIN     =   0.10
     WC   =   100.;   INIMIX=   1;  MIXPRE=   1

 Intra band minimization:
   WEIMIN = 0.0010     energy-eigenvalue tresh-hold
   EBREAK =  0.35E-08  absolut break condition
   DEPER  =   0.30     relativ break condition  

   TIME   =   0.40     timestep for ELM

  volume/ion in A,a.u.               =      28.43       191.84
  Fermi-wavevector in a.u.,A,eV,Ry     =   1.155646  2.183855 18.170834  1.335519
  Thomas-Fermi vector in A             =   2.292273
 
 Write flags
   LWAVE  =      T    write WAVECAR
   LCHARG =      T    write CHGCAR
   LVTOT  =      F    write LOCPOT, total local potential
   LVHAR  =      F    write LOCPOT, Hartree potential only
   LELF   =      F    write electronic localiz. function (ELF)
   LORBIT =      0    0 simple, 1 ext, 2 COOP (PROOUT)


 Dipole corrections
   LMONO  =      F    monopole corrections only (constant potential shift)
   LDIPOL =      F    correct potential (dipole corrections)
   IDIPOL =      0    1-x, 2-y, 3-z, 4-all directions 
   EPSILON=  1.0000000 bulk dielectric constant

 Exchange correlation treatment:
   GGA     =    PE    GGA type
   LEXCH   =     8    internal setting for exchange type
   VOSKOWN=      0    Vosko Wilk Nusair interpolation
   LHFCALC =     F    Hartree Fock is set to
   LHFONE  =     F    Hartree Fock one center treatment
   AEXX    =    0.0000 exact exchange contribution

 Linear response parameters
   LEPSILON=     F    determine dielectric tensor
   LRPA    =     F    only Hartree local field effects (RPA)
   LNABLA  =     F    use nabla operator in PAW spheres
   LVEL    =     F    velocity operator in full k-point grid
   LINTERFAST=   F  fast interpolation
   KINTER  =     0    interpolate to denser k-point grid
   CSHIFT  =0.1000    complex shift for real part using Kramers Kronig
   OMEGAMAX=  -1.0    maximum frequency
   RTIME   =    0.100 relaxation time in fs

 Orbital magnetization related:
   ORBITALMAG=     F  switch on orbital magnetization
   LCHIMAG   =     F  perturbation theory with respect to B field
   DQ        =  0.001000  dq finite difference perturbation B field



--------------------------------------------------------------------------------------------------------


 conjugate gradient relaxation of ions
   using selective dynamics as specified on POSCAR
 charge density and potential will be updated during run
 non-spin polarized calculation
 Variant of blocked Davidson
 Davidson routine will perform the subspace rotation
 perform sub-space diagonalisation
    after iterative eigenvector-optimisation
 modified Broyden-mixing scheme, WC =      100.0
 initial mixing is a Kerker type mixing with AMIX =  0.4000 and BMIX =      1.0000
 Hartree-type preconditioning will be used
 using additional bands           12
 reciprocal scheme for non local part
 use partial core corrections
 calculate Harris-corrections to forces 
   (improved forces if not selfconsistent)
 use gradient corrections 
 use of overlap-Matrix (Vanderbilt PP)
 Fermi weights with tetrahedron method with Bloechl corrections


--------------------------------------------------------------------------------------------------------


  energy-cutoff  :      415.00
  volume of cell :      341.14
      direct lattice vectors                 reciprocal lattice vectors
     3.951020398  0.000000000  0.000000000     0.253099174  0.000000000  0.000000000
     0.000000000  3.951020398  0.000000000     0.000000000  0.253099174  0.000000000
     0.000000000  0.000000000 21.853061195     0.000000000  0.000000000  0.045760179

  length of vectors
     3.951020398  3.951020398 21.853061195     0.253099174  0.253099174  0.045760179


 
 k-points in units of 2pi/SCALE and weight: K-Points                                
   0.00000000  0.00000000  0.00000000       0.020
   0.03615702  0.00000000  0.00000000       0.082
   0.07231405  0.00000000  0.00000000       0.082
   0.10847107  0.00000000  0.00000000       0.082
   0.03615702  0.03615702  0.00000000       0.082
   0.07231405  0.03615702  0.00000000       0.163
   0.10847107  0.03615702  0.00000000       0.163
   0.07231405  0.07231405  0.00000000       0.082
   0.10847107  0.07231405  0.00000000       0.163
   0.10847107  0.10847107  0.00000000       0.082
 
 k-points in reciprocal lattice and weights: K-Points                                
   0.00000000  0.00000000  0.00000000       0.020
   0.14285714  0.00000000  0.00000000       0.082
   0.28571429  0.00000000  0.00000000       0.082
   0.42857143  0.00000000  0.00000000       0.082
   0.14285714  0.14285714  0.00000000       0.082
   0.28571429  0.14285714  0.00000000       0.163
   0.42857143  0.14285714  0.00000000       0.163
   0.28571429  0.28571429  0.00000000       0.082
   0.42857143  0.28571429  0.00000000       0.163
   0.42857143  0.42857143  0.00000000       0.082
 
 position of ions in fractional coordinates (direct lattice) 
   0.00000000  0.00000000  0.00000000
   0.00000000  0.00000000  0.18079940
   0.00000000  0.00000000  0.36159880
   0.50000000  0.50000000  0.00000000
   0.50000000  0.50000000  0.18079940
   0.50000000  0.50000000  0.36159880
   0.50000000  0.00000000  0.09039970
   0.50000000  0.00000000  0.27119910
   0.50000000  0.00000000  0.45199851
   0.00000000  0.50000000  0.09039970
   0.00000000  0.50000000  0.27119910
   0.00000000  0.50000000  0.45199851
 
 position of ions in cartesian coordinates  (Angst):
   0.00000000  0.00000000  0.00000000
   0.00000000  0.00000000  3.95102040
   0.00000000  0.00000000  7.90204080
   1.97551020  1.97551020  0.00000000
   1.97551020  1.97551020  3.95102040
   1.97551020  1.97551020  7.90204080
   1.97551020  0.00000000  1.97551020
   1.97551020  0.00000000  5.92653060
   1.97551020  0.00000000  9.87755100
   0.00000000  1.97551020  1.97551020
   0.00000000  1.97551020  5.92653060
   0.00000000  1.97551020  9.87755100
 


--------------------------------------------------------------------------------------------------------


 k-point  1 :  0.00000.00000.0000  plane waves:    6577
 k-point  2 :  0.14290.00000.0000  plane waves:    6581
 k-point  3 :  0.28570.00000.0000  plane waves:    6543
 k-point  4 :  0.42860.00000.0000  plane waves:    6543
 k-point  5 :  0.14290.14290.0000  plane waves:    6587
 k-point  6 :  0.28570.14290.0000  plane waves:    6573
 k-point  7 :  0.42860.14290.0000  plane waves:    6545
 k-point  8 :  0.28570.28570.0000  plane waves:    6553
 k-point  9 :  0.42860.28570.0000  plane waves:    6530
 k-point 10 :  0.42860.42860.0000  plane waves:    6492

 maximum and minimum number of plane-waves per node :      6587     6492

 maximum number of plane-waves:      6587
 maximum index in each direction: 
   IXMAX=    6   IYMAX=    6   IZMAX=   36
   IXMIN=   -6   IYMIN=   -6   IZMIN=  -36

 WARNING: aliasing errors must be expected set NGX to  26 to avoid them
 WARNING: aliasing errors must be expected set NGY to  26 to avoid them
 WARNING: aliasing errors must be expected set NGZ to 146 to avoid them
 aliasing errors are usually negligible using standard VASP settings
 and one can safely disregard these warnings

 serial   3D FFT for wavefunctions
 parallel 3D FFT for charge:
    minimum data exchange during FFTs selected (reduces bandwidth)


 total amount of memory used by VASP on root node    96818. kBytes
========================================================================

   base      :      30000. kBytes
   nonl-proj :      10751. kBytes
   fftplans  :       6239. kBytes
   grid      :      10451. kBytes
   one-center:        186. kBytes
   wavefun   :      39191. kBytes
 
 Broyden mixing: mesh for mixing (old mesh)
   NGX = 13   NGY = 13   NGZ = 73
  (NGX  = 40   NGY  = 40   NGZ  =224)
  gives a total of  12337 points

 initial charge density was supplied:
 charge density of overlapping atoms calculated
 number of electron     120.0000000 magnetization 
 keeping initial charge density in first step


--------------------------------------------------------------------------------------------------------


 Maximum index for augmentation-charges         3114 (set IRDMAX)


--------------------------------------------------------------------------------------------------------


 First call to EWALD:  gamma=   0.254
 Maximum number of real-space cells 4x 4x 1
 Maximum number of reciprocal cells 2x 2x 8

    FEWALD:  cpu time    0.00: real time    0.00


----------------------------------------- Iteration    1(   1)  ---------------------------------------


    POTLOK:  cpu time    0.56: real time    0.56
    SETDIJ:  cpu time    0.08: real time    0.07
     EDDAV:  cpu time   58.85: real time   58.86
 BZINTS: Fermi energy: 12.918387;120.000000 electrons
         Band energy: 788.759630;  BLOECHL correction: -0.031813
       DOS:  cpu time    0.04: real time    0.04
    --------------------------------------------
      LOOP:  cpu time   59.52: real time   59.53

 eigenvalue-minimisations  :  1440
 total energy-change (2. order) : 0.1007003E+04  (-0.4871929E+04)
 number of electron     120.0000000 magnetization 
 augmentation part      120.0000000 magnetization 

 Free energy of the ion-electron system (eV)
  ---------------------------------------------------
  alpha Z        PSCENC =       574.70065014
  Ewald energy   TEWEN  =     22890.08107564
  -1/2 Hartree   DENC   =    -33356.29920073
  -exchange  EXHF       =         0.00000000
  -V(xc)+E(xc)   XCENC  =      -353.85735283
  PAW double counting   =      8124.30334611    -7377.64058038
  entropy T*S    EENTRO =         0.00000000
  eigenvalues    EBANDS =       788.75963003
  atomic energy  EATOM  =      9716.95502315
  ---------------------------------------------------
  free energy    TOTEN  =      1007.00259113 eV

  energy without entropy =     1007.00259113  energy(sigma->0) =     1007.00259113


--------------------------------------------------------------------------------------------------------




----------------------------------------- Iteration    1(   2)  ---------------------------------------


     EDDAV:  cpu time   60.44: real time   60.44
 BZINTS: Fermi energy:  1.458169;120.000000 electrons
         Band energy:-212.536211;  BLOECHL correction: -0.138388
       DOS:  cpu time    0.04: real time    0.04
    --------------------------------------------
      LOOP:  cpu time   60.48: real time   60.48

 eigenvalue-minimisations  :  1496
 total energy-change (2. order) :-0.1001296E+04  (-0.9494712E+03)
 number of electron     120.0000000 magnetization 
 augmentation part      120.0000000 magnetization 

 Free energy of the ion-electron system (eV)
  ---------------------------------------------------
  alpha Z        PSCENC =       574.70065014
  Ewald energy   TEWEN  =     22890.08107564
  -1/2 Hartree   DENC   =    -33356.29920073
  -exchange  EXHF       =         0.00000000
  -V(xc)+E(xc)   XCENC  =      -353.85735283
  PAW double counting   =      8124.30334611    -7377.64058038
  entropy T*S    EENTRO =         0.00000000
  eigenvalues    EBANDS =      -212.53621139
  atomic energy  EATOM  =      9716.95502315
  ---------------------------------------------------
  free energy    TOTEN  =         5.70674971 eV

  energy without entropy =        5.70674971  energy(sigma->0) =        5.70674971


--------------------------------------------------------------------------------------------------------




----------------------------------------- Iteration    1(   3)  ---------------------------------------


     EDDAV:  cpu time   65.84: real time   65.84
 BZINTS: Fermi energy:  0.135411;120.000000 electrons
         Band energy:-277.781260;  BLOECHL correction: -0.039275
       DOS:  cpu time    0.04: real time    0.04
    --------------------------------------------
      LOOP:  cpu time   65.88: real time   65.88

 eigenvalue-minimisations  :  1672
 total energy-change (2. order) :-0.6524505E+02  (-0.5915077E+02)
 number of electron     120.0000000 magnetization 
 augmentation part      120.0000000 magnetization 

 Free energy of the ion-electron system (eV)
  ---------------------------------------------------
  alpha Z        PSCENC =       574.70065014
  Ewald energy   TEWEN  =     22890.08107564
  -1/2 Hartree   DENC   =    -33356.29920073
  -exchange  EXHF       =         0.00000000
  -V(xc)+E(xc)   XCENC  =      -353.85735283
  PAW double counting   =      8124.30334611    -7377.64058038
  entropy T*S    EENTRO =         0.00000000
  eigenvalues    EBANDS =      -277.78126033
  atomic energy  EATOM  =      9716.95502315
  ---------------------------------------------------
  free energy    TOTEN  =       -59.53829924 eV

  energy without entropy =      -59.53829924  energy(sigma->0) =      -59.53829924


--------------------------------------------------------------------------------------------------------




----------------------------------------- Iteration    1(   4)  ---------------------------------------


     EDDAV:  cpu time   62.29: real time   62.30
 BZINTS: Fermi energy:  0.081201;120.000000 electrons
         Band energy:-280.209492;  BLOECHL correction: -0.055911
       DOS:  cpu time    0.04: real time    0.04
    --------------------------------------------
      LOOP:  cpu time   62.34: real time   62.34

 eigenvalue-minimisations  :  1560
 total energy-change (2. order) :-0.2428232E+01  (-0.2383975E+01)
 number of electron     120.0000000 magnetization 
 augmentation part      120.0000000 magnetization 

 Free energy of the ion-electron system (eV)
  ---------------------------------------------------
  alpha Z        PSCENC =       574.70065014
  Ewald energy   TEWEN  =     22890.08107564
  -1/2 Hartree   DENC   =    -33356.29920073
  -exchange  EXHF       =         0.00000000
  -V(xc)+E(xc)   XCENC  =      -353.85735283
  PAW double counting   =      8124.30334611    -7377.64058038
  entropy T*S    EENTRO =         0.00000000
  eigenvalues    EBANDS =      -280.20949225
  atomic energy  EATOM  =      9716.95502315
  ---------------------------------------------------
  free energy    TOTEN  =       -61.96653115 eV

  energy without entropy =      -61.96653115  energy(sigma->0) =      -61.96653115


--------------------------------------------------------------------------------------------------------




----------------------------------------- Iteration    1(   5)  ---------------------------------------


     EDDAV:  cpu time   73.84: real time   73.85
 BZINTS: Fermi energy:  0.080066;120.000000 electrons
         Band energy:-280.292614;  BLOECHL correction: -0.055423
       DOS:  cpu time    0.04: real time    0.04
    CHARGE:  cpu time    1.70: real time    1.70
    MIXING:  cpu time    0.02: real time    0.02
    --------------------------------------------
      LOOP:  cpu time   75.60: real time   75.61

 eigenvalue-minimisations  :  1928
 total energy-change (2. order) :-0.8312207E-01  (-0.8345085E-01)
 number of electron     120.0000426 magnetization 
 augmentation part       48.8241012 magnetization 

 Broyden mixing:
  rms(total) = 0.10210E+01    rms(broyden)= 0.10207E+01
  rms(prec ) = 0.11114E+01
  weight for this iteration     100.00

 Free energy of the ion-electron system (eV)
  ---------------------------------------------------
  alpha Z        PSCENC =       574.70065014
  Ewald energy   TEWEN  =     22890.08107564
  -1/2 Hartree   DENC   =    -33356.29920073
  -exchange  EXHF       =         0.00000000
  -V(xc)+E(xc)   XCENC  =      -353.85735283
  PAW double counting   =      8124.30334611    -7377.64058038
  entropy T*S    EENTRO =         0.00000000
  eigenvalues    EBANDS =      -280.29261431
  atomic energy  EATOM  =      9716.95502315
  ---------------------------------------------------
  free energy    TOTEN  =       -62.04965322 eV

  energy without entropy =      -62.04965322  energy(sigma->0) =      -62.04965322


--------------------------------------------------------------------------------------------------------




----------------------------------------- Iteration    1(   6)  ---------------------------------------


    POTLOK:  cpu time    0.55: real time    0.55
    SETDIJ:  cpu time    0.08: real time    0.07
     EDDAV:  cpu time   62.50: real time   62.51
 BZINTS: Fermi energy: -0.380867;120.000000 electrons
         Band energy:-316.376805;  BLOECHL correction: -0.029909
       DOS:  cpu time    0.04: real time    0.04
    CHARGE:  cpu time    1.69: real time    1.69
    MIXING:  cpu time    0.02: real time    0.02
    --------------------------------------------
      LOOP:  cpu time   64.88: real time   64.88

 eigenvalue-minimisations  :  1568
 total energy-change (2. order) : 0.2564071E+01  (-0.1078173E+01)
 number of electron     120.0000435 magnetization 
 augmentation part       50.8307843 magnetization 

 Broyden mixing:
  rms(total) = 0.41463E+00    rms(broyden)= 0.41458E+00
  rms(prec ) = 0.61852E+00
  weight for this iteration     100.00

 eigenvalues of (default mixing * dielectric matrix)
  average eigenvalue GAMMA=   0.8864
  0.8864

 Free energy of the ion-electron system (eV)
  ---------------------------------------------------
  alpha Z        PSCENC =       574.70065014
  Ewald energy   TEWEN  =     22890.08107564
  -1/2 Hartree   DENC   =    -33305.70316355
  -exchange  EXHF       =         0.00000000
  -V(xc)+E(xc)   XCENC  =      -356.18684568
  PAW double counting   =      8090.46748321    -7353.42299960
  entropy T*S    EENTRO =         0.00000000
  eigenvalues    EBANDS =      -316.37680542
  atomic energy  EATOM  =      9716.95502315
  ---------------------------------------------------
  free energy    TOTEN  =       -59.48558211 eV

  energy without entropy =      -59.48558211  energy(sigma->0) =      -59.48558211


--------------------------------------------------------------------------------------------------------




----------------------------------------- Iteration    1(   7)  ---------------------------------------


    POTLOK:  cpu time    0.54: real time    0.55
    SETDIJ:  cpu time    0.08: real time    0.08
     EDDAV:  cpu time   89.25: real time   89.26
 BZINTS: Fermi energy:  0.496214;120.000000 electrons
         Band energy:-263.968495;  BLOECHL correction: -0.052730
       DOS:  cpu time    0.04: real time    0.04
    CHARGE:  cpu time    1.67: real time    1.67
    MIXING:  cpu time    0.02: real time    0.02
    --------------------------------------------
      LOOP:  cpu time   91.60: real time   91.61

 eigenvalue-minimisations  :  2424
 total energy-change (2. order) :-0.4486882E+01  (-0.1604152E+01)
 number of electron     120.0000422 magnetization 
 augmentation part       50.3757623 magnetization 

 Broyden mixing:
  rms(total) = 0.15922E+01    rms(broyden)= 0.15921E+01
  rms(prec ) = 0.23795E+01
  weight for this iteration     100.00

 eigenvalues of (default mixing * dielectric matrix)
  average eigenvalue GAMMA=   0.6257
  1.0944  0.1570

 Free energy of the ion-electron system (eV)
  ---------------------------------------------------
  alpha Z        PSCENC =       574.70065014
  Ewald energy   TEWEN  =     22890.08107564
  -1/2 Hartree   DENC   =    -33359.94003602
  -exchange  EXHF       =         0.00000000
  -V(xc)+E(xc)   XCENC  =      -356.29857872
  PAW double counting   =      8158.86284354    -7424.36494702
  entropy T*S    EENTRO =         0.00000000
  eigenvalues    EBANDS =      -263.96849513
  atomic energy  EATOM  =      9716.95502315
  ---------------------------------------------------
  free energy    TOTEN  =       -63.97246443 eV

  energy without entropy =      -63.97246443  energy(sigma->0) =      -63.97246443


--------------------------------------------------------------------------------------------------------




----------------------------------------- Iteration    1(   8)  ---------------------------------------


    POTLOK:  cpu time    0.55: real time    0.55
    SETDIJ:  cpu time    0.08: real time    0.08
     EDDAV:  cpu time   88.85: real time   88.86
 BZINTS: Fermi energy: -0.200271;120.000000 electrons
         Band energy:-291.975892;  BLOECHL correction: -0.055521
       DOS:  cpu time    0.04: real time    0.04
    CHARGE:  cpu time    1.70: real time    1.70
    MIXING:  cpu time    0.02: real time    0.02
    --------------------------------------------
      LOOP:  cpu time   91.24: real time   91.25

 eigenvalue-minimisations  :  2416
 total energy-change (2. order) : 0.4698654E+01  (-0.6176654E+00)
 number of electron     120.0000442 magnetization 
 augmentation part       50.8162895 magnetization 

 Broyden mixing:
  rms(total) = 0.24818E+00    rms(broyden)= 0.24791E+00
  rms(prec ) = 0.33470E+00
  weight for this iteration     100.00

 eigenvalues of (default mixing * dielectric matrix)
  average eigenvalue GAMMA=   0.4916
  1.1076  0.1836  0.1836

 Free energy of the ion-electron system (eV)
  ---------------------------------------------------
  alpha Z        PSCENC =       574.70065014
  Ewald energy   TEWEN  =     22890.08107564
  -1/2 Hartree   DENC   =    -33325.55518781
  -exchange  EXHF       =         0.00000000
  -V(xc)+E(xc)   XCENC  =      -356.38058666
  PAW double counting   =      8186.76498412    -7453.86387663
  entropy T*S    EENTRO =         0.00000000
  eigenvalues    EBANDS =      -291.97589200
  atomic energy  EATOM  =      9716.95502315
  ---------------------------------------------------
  free energy    TOTEN  =       -59.27381005 eV

  energy without entropy =      -59.27381005  energy(sigma->0) =      -59.27381005


--------------------------------------------------------------------------------------------------------




----------------------------------------- Iteration    1(   9)  ---------------------------------------


    POTLOK:  cpu time    0.55: real time    0.55
    SETDIJ:  cpu time    0.08: real time    0.07
     EDDAV:  cpu time   73.84: real time   73.85
 BZINTS: Fermi energy: -0.218984;120.000000 electrons
         Band energy:-292.963966;  BLOECHL correction: -0.041776
       DOS:  cpu time    0.04: real time    0.03
    CHARGE:  cpu time    1.69: real time    1.69
    MIXING:  cpu time    0.02: real time    0.02
    --------------------------------------------
      LOOP:  cpu time   76.21: real time   76.22

 eigenvalue-minimisations  :  1928
 total energy-change (2. order) : 0.4282903E-01  (-0.4291936E-01)
 number of electron     120.0000440 magnetization 
 augmentation part       50.8382231 magnetization 

 Broyden mixing:
  rms(total) = 0.13703E+00    rms(broyden)= 0.13700E+00
  rms(prec ) = 0.16421E+00
  weight for this iteration     100.00

 eigenvalues of (default mixing * dielectric matrix)
  average eigenvalue GAMMA=   0.6389
  1.2661  0.9099  0.1898  0.1898

 Free energy of the ion-electron system (eV)
  ---------------------------------------------------
  alpha Z        PSCENC =       574.70065014
  Ewald energy   TEWEN  =     22890.08107564
  -1/2 Hartree   DENC   =    -33324.15616608
  -exchange  EXHF       =         0.00000000
  -V(xc)+E(xc)   XCENC  =      -356.37383112
  PAW double counting   =      8198.72297564    -7466.19674265
  entropy T*S    EENTRO =         0.00000000
  eigenvalues    EBANDS =      -292.96396574
  atomic energy  EATOM  =      9716.95502315
  ---------------------------------------------------
  free energy    TOTEN  =       -59.23098102 eV

  energy without entropy =      -59.23098102  energy(sigma->0) =      -59.23098102


--------------------------------------------------------------------------------------------------------




----------------------------------------- Iteration    1(  10)  ---------------------------------------


    POTLOK:  cpu time    0.55: real time    0.55
    SETDIJ:  cpu time    0.07: real time    0.07
     EDDAV:  cpu time   78.51: real time   78.52
 BZINTS: Fermi energy: -0.173074;120.000000 electrons
         Band energy:-287.585529;  BLOECHL correction: -0.025167
       DOS:  cpu time    0.04: real time    0.04
    CHARGE:  cpu time    1.69: real time    1.70
    MIXING:  cpu time    0.02: real time    0.02
    --------------------------------------------
      LOOP:  cpu time   80.90: real time   80.91

 eigenvalue-minimisations  :  2080
 total energy-change (2. order) : 0.2859494E-01  (-0.1210394E-01)
 number of electron     120.0000440 magnetization 
 augmentation part       50.8253198 magnetization 

 Broyden mixing:
  rms(total) = 0.11750E+00    rms(broyden)= 0.11748E+00
  rms(prec ) = 0.16454E+00
  weight for this iteration     100.00

 eigenvalues of (default mixing * dielectric matrix)
  average eigenvalue GAMMA=   0.9156
  2.4986  0.9718  0.7195  0.1781  0.2101

 Free energy of the ion-electron system (eV)
  ---------------------------------------------------
  alpha Z        PSCENC =       574.70065014
  Ewald energy   TEWEN  =     22890.08107564
  -1/2 Hartree   DENC   =    -33327.97388035
  -exchange  EXHF       =         0.00000000
  -V(xc)+E(xc)   XCENC  =      -356.37441165
  PAW double counting   =      8249.44907619    -7518.45438984
  entropy T*S    EENTRO =         0.00000000
  eigenvalues    EBANDS =      -287.58552937
  atomic energy  EATOM  =      9716.95502315
  ---------------------------------------------------
  free energy    TOTEN  =       -59.20238607 eV

  energy without entropy =      -59.20238607  energy(sigma->0) =      -59.20238607


--------------------------------------------------------------------------------------------------------




----------------------------------------- Iteration    1(  11)  ---------------------------------------


    POTLOK:  cpu time    0.56: real time    0.56
    SETDIJ:  cpu time    0.07: real time    0.07
     EDDAV:  cpu time   68.84: real time   68.89
 BZINTS: Fermi energy: -0.116815;120.000000 electrons
         Band energy:-280.637420;  BLOECHL correction: -0.028730
       DOS:  cpu time    0.04: real time    0.04
    CHARGE:  cpu time    1.74: real time    1.74
    MIXING:  cpu time    0.02: real time    0.02
    --------------------------------------------
      LOOP:  cpu time   71.27: real time   71.32

 eigenvalue-minimisations  :  1768
 total energy-change (2. order) : 0.1372186E-01  (-0.6785343E-02)
 number of electron     120.0000440 magnetization 
 augmentation part       50.8352697 magnetization 

 Broyden mixing:
  rms(total) = 0.54364E-01    rms(broyden)= 0.54347E-01
  rms(prec ) = 0.75867E-01
  weight for this iteration     100.00

 eigenvalues of (default mixing * dielectric matrix)
  average eigenvalue GAMMA=   0.9006
  2.3663  1.0275  1.0275  0.5978  0.1791  0.2056

 Free energy of the ion-electron system (eV)
  ---------------------------------------------------
  alpha Z        PSCENC =       574.70065014
  Ewald energy   TEWEN  =     22890.08107564
  -1/2 Hartree   DENC   =    -33333.18332526
  -exchange  EXHF       =         0.00000000
  -V(xc)+E(xc)   XCENC  =      -356.43350830
  PAW double counting   =      8292.32517289    -7562.99633232
  entropy T*S    EENTRO =         0.00000000
  eigenvalues    EBANDS =      -280.63742016
  atomic energy  EATOM  =      9716.95502315
  ---------------------------------------------------
  free energy    TOTEN  =       -59.18866422 eV

  energy without entropy =      -59.18866422  energy(sigma->0) =      -59.18866422


--------------------------------------------------------------------------------------------------------




----------------------------------------- Iteration    1(  12)  ---------------------------------------


    POTLOK:  cpu time    0.56: real time    0.55
    SETDIJ:  cpu time    0.08: real time    0.07
     EDDAV:  cpu time   68.93: real time   68.94
 BZINTS: Fermi energy: -0.089733;120.000000 electrons
         Band energy:-277.449191;  BLOECHL correction: -0.027428
       DOS:  cpu time    0.04: real time    0.04
    CHARGE:  cpu time    1.74: real time    1.74
    MIXING:  cpu time    0.02: real time    0.02
    --------------------------------------------
      LOOP:  cpu time   71.36: real time   71.37

 eigenvalue-minimisations  :  1768
 total energy-change (2. order) : 0.4356149E-02  (-0.8189264E-03)
 number of electron     120.0000441 magnetization 
 augmentation part       50.8351620 magnetization 

 Broyden mixing:
  rms(total) = 0.99018E-02    rms(broyden)= 0.98917E-02
  rms(prec ) = 0.14608E-01
  weight for this iteration     100.00

 eigenvalues of (default mixing * dielectric matrix)
  average eigenvalue GAMMA=   1.0696
  2.4426  2.0842  0.9773  0.9773  0.6213  0.1791  0.2055

 Free energy of the ion-electron system (eV)
  ---------------------------------------------------
  alpha Z        PSCENC =       574.70065014
  Ewald energy   TEWEN  =     22890.08107564
  -1/2 Hartree   DENC   =    -33336.19703643
  -exchange  EXHF       =         0.00000000
  -V(xc)+E(xc)   XCENC  =      -356.42112643
  PAW double counting   =      8301.71404723    -7572.56775003
  entropy T*S    EENTRO =         0.00000000
  eigenvalues    EBANDS =      -277.44919134
  atomic energy  EATOM  =      9716.95502315
  ---------------------------------------------------
  free energy    TOTEN  =       -59.18430807 eV

  energy without entropy =      -59.18430807  energy(sigma->0) =      -59.18430807


--------------------------------------------------------------------------------------------------------




----------------------------------------- Iteration    1(  13)  ---------------------------------------


    POTLOK:  cpu time    0.56: real time    0.56
    SETDIJ:  cpu time    0.08: real time    0.07
     EDDAV:  cpu time   64.50: real time   64.51
 BZINTS: Fermi energy: -0.047677;120.000000 electrons
         Band energy:-272.453663;  BLOECHL correction: -0.027589
       DOS:  cpu time    0.04: real time    0.04
    CHARGE:  cpu time    1.70: real time    1.70
    MIXING:  cpu time    0.03: real time    0.03
    --------------------------------------------
      LOOP:  cpu time   66.91: real time   66.92

 eigenvalue-minimisations  :  1624
 total energy-change (2. order) : 0.1401370E-02  (-0.1408536E-03)
 number of electron     120.0000441 magnetization 
 augmentation part       50.8256045 magnetization 

 Broyden mixing:
  rms(total) = 0.55341E-02    rms(broyden)= 0.55335E-02
  rms(prec ) = 0.92754E-02
  weight for this iteration     100.00

 eigenvalues of (default mixing * dielectric matrix)
  average eigenvalue GAMMA=   1.1363
  2.6079  2.6079  0.1791  0.2055  0.8969  0.8969  1.0816  0.6145

 Free energy of the ion-electron system (eV)
  ---------------------------------------------------
  alpha Z        PSCENC =       574.70065014
  Ewald energy   TEWEN  =     22890.08107564
  -1/2 Hartree   DENC   =    -33341.31081429
  -exchange  EXHF       =         0.00000000
  -V(xc)+E(xc)   XCENC  =      -356.39488531
  PAW double counting   =      8304.94352719    -7575.70381981
  entropy T*S    EENTRO =         0.00000000
  eigenvalues    EBANDS =      -272.45366341
  atomic energy  EATOM  =      9716.95502315
  ---------------------------------------------------
  free energy    TOTEN  =       -59.18290670 eV

  energy without entropy =      -59.18290670  energy(sigma->0) =      -59.18290670


--------------------------------------------------------------------------------------------------------




----------------------------------------- Iteration    1(  14)  ---------------------------------------


    POTLOK:  cpu time    0.55: real time    0.55
    SETDIJ:  cpu time    0.08: real time    0.07
     EDDAV:  cpu time   65.31: real time   65.32
 BZINTS: Fermi energy: -0.028701;120.000000 electrons
         Band energy:-270.138143;  BLOECHL correction: -0.027518
       DOS:  cpu time    0.04: real time    0.04
    CHARGE:  cpu time    1.69: real time    1.69
    MIXING:  cpu time    0.03: real time    0.03
    --------------------------------------------
      LOOP:  cpu time   67.70: real time   67.71

 eigenvalue-minimisations  :  1656
 total energy-change (2. order) : 0.5564668E-03  (-0.2161903E-04)
 number of electron     120.0000441 magnetization 
 augmentation part       50.8298260 magnetization 

 Broyden mixing:
  rms(total) = 0.29402E-02    rms(broyden)= 0.29395E-02
  rms(prec ) = 0.54616E-02
  weight for this iteration     100.00

 eigenvalues of (default mixing * dielectric matrix)
  average eigenvalue GAMMA=   1.2292
  2.8532  2.5580  0.1791  0.2055  1.5629  1.2468  0.6159  0.9205  0.9205

 Free energy of the ion-electron system (eV)
  ---------------------------------------------------
  alpha Z        PSCENC =       574.70065014
  Ewald energy   TEWEN  =     22890.08107564
  -1/2 Hartree   DENC   =    -33343.70836478
  -exchange  EXHF       =         0.00000000
  -V(xc)+E(xc)   XCENC  =      -356.38771166
  PAW double counting   =      8303.61180230    -7574.29668252
  entropy T*S    EENTRO =         0.00000000
  eigenvalues    EBANDS =      -270.13814250
  atomic energy  EATOM  =      9716.95502315
  ---------------------------------------------------
  free energy    TOTEN  =       -59.18235023 eV

  energy without entropy =      -59.18235023  energy(sigma->0) =      -59.18235023


--------------------------------------------------------------------------------------------------------




----------------------------------------- Iteration    1(  15)  ---------------------------------------


    POTLOK:  cpu time    0.56: real time    0.56
    SETDIJ:  cpu time    0.07: real time    0.07
     EDDAV:  cpu time   67.84: real time   67.85
 BZINTS: Fermi energy: -0.008748;120.000000 electrons
         Band energy:-267.744264;  BLOECHL correction: -0.027573
       DOS:  cpu time    0.04: real time    0.04
    CHARGE:  cpu time    1.73: real time    1.73
    MIXING:  cpu time    0.03: real time    0.03
    --------------------------------------------
      LOOP:  cpu time   70.28: real time   70.29

 eigenvalue-minimisations  :  1736
 total energy-change (2. order) : 0.4844738E-04  (-0.1838146E-04)
 number of electron     120.0000441 magnetization 
 augmentation part       50.8288238 magnetization 

 Broyden mixing:
  rms(total) = 0.28645E-02    rms(broyden)= 0.28643E-02
  rms(prec ) = 0.47142E-02
  weight for this iteration     100.00

 eigenvalues of (default mixing * dielectric matrix)
  average eigenvalue GAMMA=   1.3731
  4.0534  2.6810  1.8679  0.1791  0.2055  1.1546  1.1546  0.9094  0.9094  0.6158

 Free energy of the ion-electron system (eV)
  ---------------------------------------------------
  alpha Z        PSCENC =       574.70065014
  Ewald energy   TEWEN  =     22890.08107564
  -1/2 Hartree   DENC   =    -33346.07274701
  -exchange  EXHF       =         0.00000000
  -V(xc)+E(xc)   XCENC  =      -356.38087191
  PAW double counting   =      8303.50884637    -7574.23001408
  entropy T*S    EENTRO =         0.00000000
  eigenvalues    EBANDS =      -267.74426409
  atomic energy  EATOM  =      9716.95502315
  ---------------------------------------------------
  free energy    TOTEN  =       -59.18230178 eV

  energy without entropy =      -59.18230178  energy(sigma->0) =      -59.18230178


--------------------------------------------------------------------------------------------------------




----------------------------------------- Iteration    1(  16)  ---------------------------------------


    POTLOK:  cpu time    0.56: real time    0.55
    SETDIJ:  cpu time    0.07: real time    0.08
     EDDAV:  cpu time   63.34: real time   63.35
 BZINTS: Fermi energy:  0.010063;120.000000 electrons
         Band energy:-265.473510;  BLOECHL correction: -0.027493
       DOS:  cpu time    0.04: real time    0.04
    CHARGE:  cpu time    1.73: real time    1.73
    MIXING:  cpu time    0.04: real time    0.03
    --------------------------------------------
      LOOP:  cpu time   65.78: real time   65.78

 eigenvalue-minimisations  :  1592
 total energy-change (2. order) :-0.1262549E-03  (-0.1404894E-04)
 number of electron     120.0000441 magnetization 
 augmentation part       50.8285793 magnetization 

 Broyden mixing:
  rms(total) = 0.30499E-02    rms(broyden)= 0.30495E-02
  rms(prec ) = 0.43072E-02
  weight for this iteration     100.00

 eigenvalues of (default mixing * dielectric matrix)
  average eigenvalue GAMMA=   1.5135
  4.9039  2.7400  2.2322  1.7540  0.1791  0.2055  0.6150  1.0943  1.0943  0.9154
  0.9154

 Free energy of the ion-electron system (eV)
  ---------------------------------------------------
  alpha Z        PSCENC =       574.70065014
  Ewald energy   TEWEN  =     22890.08107564
  -1/2 Hartree   DENC   =    -33348.37343373
  -exchange  EXHF       =         0.00000000
  -V(xc)+E(xc)   XCENC  =      -356.37477557
  PAW double counting   =      8302.07007387    -7572.76753176
  entropy T*S    EENTRO =         0.00000000
  eigenvalues    EBANDS =      -265.47350978
  atomic energy  EATOM  =      9716.95502315
  ---------------------------------------------------
  free energy    TOTEN  =       -59.18242804 eV

  energy without entropy =      -59.18242804  energy(sigma->0) =      -59.18242804


--------------------------------------------------------------------------------------------------------




----------------------------------------- Iteration    1(  17)  ---------------------------------------


    POTLOK:  cpu time    0.56: real time    0.55
    SETDIJ:  cpu time    0.07: real time    0.07
     EDDAV:  cpu time   62.13: real time   62.13
 BZINTS: Fermi energy:  0.017094;120.000000 electrons
         Band energy:-264.622798;  BLOECHL correction: -0.027576
       DOS:  cpu time    0.04: real time    0.04
    CHARGE:  cpu time    1.70: real time    1.70
    MIXING:  cpu time    0.04: real time    0.04
    --------------------------------------------
      LOOP:  cpu time   64.54: real time   64.54

 eigenvalue-minimisations  :  1552
 total energy-change (2. order) :-0.4301964E-03  (-0.6373521E-05)
 number of electron     120.0000441 magnetization 
 augmentation part       50.8294016 magnetization 

 Broyden mixing:
  rms(total) = 0.10779E-02    rms(broyden)= 0.10774E-02
  rms(prec ) = 0.15109E-02
  weight for this iteration     100.00

 eigenvalues of (default mixing * dielectric matrix)
  average eigenvalue GAMMA=   1.6635
  6.5798  2.9054  2.4879  1.8648  0.1791  0.2055  0.6150  1.1384  1.1384  0.9187
  0.9187  1.0106

 Free energy of the ion-electron system (eV)
  ---------------------------------------------------
  alpha Z        PSCENC =       574.70065014
  Ewald energy   TEWEN  =     22890.08107564
  -1/2 Hartree   DENC   =    -33349.19078010
  -exchange  EXHF       =         0.00000000
  -V(xc)+E(xc)   XCENC  =      -356.37659966
  PAW double counting   =      8302.05854098    -7572.78797037
  entropy T*S    EENTRO =         0.00000000
  eigenvalues    EBANDS =      -264.62279802
  atomic energy  EATOM  =      9716.95502315
  ---------------------------------------------------
  free energy    TOTEN  =       -59.18285824 eV

  energy without entropy =      -59.18285824  energy(sigma->0) =      -59.18285824


--------------------------------------------------------------------------------------------------------




----------------------------------------- Iteration    1(  18)  ---------------------------------------


    POTLOK:  cpu time    0.56: real time    0.56
    SETDIJ:  cpu time    0.07: real time    0.07
     EDDAV:  cpu time   60.96: real time   60.97
 BZINTS: Fermi energy:  0.019279;120.000000 electrons
         Band energy:-264.369592;  BLOECHL correction: -0.027597
       DOS:  cpu time    0.04: real time    0.04
    CHARGE:  cpu time    1.70: real time    1.70
    MIXING:  cpu time    0.04: real time    0.04
    --------------------------------------------
      LOOP:  cpu time   63.37: real time   63.38

 eigenvalue-minimisations  :  1512
 total energy-change (2. order) :-0.2163988E-03  (-0.1021398E-05)
 number of electron     120.0000441 magnetization 
 augmentation part       50.8287973 magnetization 

 Broyden mixing:
  rms(total) = 0.14841E-02    rms(broyden)= 0.14841E-02
  rms(prec ) = 0.21865E-02
  weight for this iteration     100.00

 eigenvalues of (default mixing * dielectric matrix)
  average eigenvalue GAMMA=   1.8307
  7.4559  4.0007  2.5808  2.0139  1.7632  0.1791  0.2055  0.6151  1.0955  1.0955
  0.9165  0.9165  0.9611

 Free energy of the ion-electron system (eV)
  ---------------------------------------------------
  alpha Z        PSCENC =       574.70065014
  Ewald energy   TEWEN  =     22890.08107564
  -1/2 Hartree   DENC   =    -33349.44392421
  -exchange  EXHF       =         0.00000000
  -V(xc)+E(xc)   XCENC  =      -356.37628858
  PAW double counting   =      8302.14000205    -7572.87002074
  entropy T*S    EENTRO =         0.00000000
  eigenvalues    EBANDS =      -264.36959209
  atomic energy  EATOM  =      9716.95502315
  ---------------------------------------------------
  free energy    TOTEN  =       -59.18307463 eV

  energy without entropy =      -59.18307463  energy(sigma->0) =      -59.18307463


--------------------------------------------------------------------------------------------------------




----------------------------------------- Iteration    1(  19)  ---------------------------------------


    POTLOK:  cpu time    0.55: real time    0.55
    SETDIJ:  cpu time    0.07: real time    0.07
     EDDAV:  cpu time   55.64: real time   55.65
 BZINTS: Fermi energy:  0.019975;120.000000 electrons
         Band energy:-264.286907;  BLOECHL correction: -0.027557
       DOS:  cpu time    0.04: real time    0.04
    CHARGE:  cpu time    1.77: real time    1.77
    MIXING:  cpu time    0.04: real time    0.04
    --------------------------------------------
      LOOP:  cpu time   58.11: real time   58.13

 eigenvalue-minimisations  :  1336
 total energy-change (2. order) :-0.1473659E-03  (-0.1021892E-05)
 number of electron     120.0000441 magnetization 
 augmentation part       50.8288066 magnetization 

 Broyden mixing:
  rms(total) = 0.18634E-03    rms(broyden)= 0.18599E-03
  rms(prec ) = 0.21583E-03
  weight for this iteration     100.00

 eigenvalues of (default mixing * dielectric matrix)
  average eigenvalue GAMMA=   1.8411
  7.4924  4.3911  2.5555  2.1689  1.8467  0.1791  0.2055  1.3367  0.6151  1.1253
  1.1253  0.9153  0.9153  0.9038

 Free energy of the ion-electron system (eV)
  ---------------------------------------------------
  alpha Z        PSCENC =       574.70065014
  Ewald energy   TEWEN  =     22890.08107564
  -1/2 Hartree   DENC   =    -33349.52617423
  -exchange  EXHF       =         0.00000000
  -V(xc)+E(xc)   XCENC  =      -356.37646266
  PAW double counting   =      8302.33367354    -7573.06410046
  entropy T*S    EENTRO =         0.00000000
  eigenvalues    EBANDS =      -264.28690712
  atomic energy  EATOM  =      9716.95502315
  ---------------------------------------------------
  free energy    TOTEN  =       -59.18322200 eV

  energy without entropy =      -59.18322200  energy(sigma->0) =      -59.18322200


--------------------------------------------------------------------------------------------------------




----------------------------------------- Iteration    1(  20)  ---------------------------------------


    POTLOK:  cpu time    0.56: real time    0.56
    SETDIJ:  cpu time    0.08: real time    0.08
     EDDAV:  cpu time   46.71: real time   46.71
 BZINTS: Fermi energy:  0.020087;120.000000 electrons
         Band energy:-264.270764;  BLOECHL correction: -0.027557
       DOS:  cpu time    0.04: real time    0.04
    CHARGE:  cpu time    1.72: real time    1.72
    MIXING:  cpu time    0.05: real time    0.05
    --------------------------------------------
      LOOP:  cpu time   49.15: real time   49.16

 eigenvalue-minimisations  :  1048
 total energy-change (2. order) :-0.1688846E-04  (-0.1055253E-06)
 number of electron     120.0000441 magnetization 
 augmentation part       50.8289596 magnetization 

 Broyden mixing:
  rms(total) = 0.93535E-04    rms(broyden)= 0.93513E-04
  rms(prec ) = 0.11162E-03
  weight for this iteration     100.00

 eigenvalues of (default mixing * dielectric matrix)
  average eigenvalue GAMMA=   1.8999
  8.4626  4.4190  2.7644  2.4609  0.1791  0.2055  1.6674  1.6674  0.6151  1.1130
  1.1130  0.9160  0.9160  0.9995  0.9995

 Free energy of the ion-electron system (eV)
  ---------------------------------------------------
  alpha Z        PSCENC =       574.70065014
  Ewald energy   TEWEN  =     22890.08107564
  -1/2 Hartree   DENC   =    -33349.54524151
  -exchange  EXHF       =         0.00000000
  -V(xc)+E(xc)   XCENC  =      -356.37656693
  PAW double counting   =      8302.30750341    -7573.03491906
  entropy T*S    EENTRO =         0.00000000
  eigenvalues    EBANDS =      -264.27076372
  atomic energy  EATOM  =      9716.95502315
  ---------------------------------------------------
  free energy    TOTEN  =       -59.18323889 eV

  energy without entropy =      -59.18323889  energy(sigma->0) =      -59.18323889


--------------------------------------------------------------------------------------------------------




----------------------------------------- Iteration    1(  21)  ---------------------------------------


    POTLOK:  cpu time    0.55: real time    0.55
    SETDIJ:  cpu time    0.08: real time    0.07
     EDDAV:  cpu time   44.47: real time   44.48
 BZINTS: Fermi energy:  0.020119;120.000000 electrons
         Band energy:-264.267672;  BLOECHL correction: -0.027559
       DOS:  cpu time    0.04: real time    0.04
    CHARGE:  cpu time    1.73: real time    1.73
    MIXING:  cpu time    0.05: real time    0.05
    --------------------------------------------
      LOOP:  cpu time   46.92: real time   46.93

 eigenvalue-minimisations  :   976
 total energy-change (2. order) :-0.9820556E-05  (-0.5351431E-07)
 number of electron     120.0000441 magnetization 
 augmentation part       50.8288771 magnetization 

 Broyden mixing:
  rms(total) = 0.29306E-04    rms(broyden)= 0.29296E-04
  rms(prec ) = 0.35263E-04
  weight for this iteration     100.00

 eigenvalues of (default mixing * dielectric matrix)
  average eigenvalue GAMMA=   1.8642
  8.5387  4.4796  2.7714  2.6038  1.7802  0.1791  0.2055  1.3436  1.3436  0.6151
  1.1435  1.1435  0.9157  0.9157  0.9245  0.9245

 Free energy of the ion-electron system (eV)
  ---------------------------------------------------
  alpha Z        PSCENC =       574.70065014
  Ewald energy   TEWEN  =     22890.08107564
  -1/2 Hartree   DENC   =    -33349.55102317
  -exchange  EXHF       =         0.00000000
  -V(xc)+E(xc)   XCENC  =      -356.37647634
  PAW double counting   =      8302.30317547    -7573.02800161
  entropy T*S    EENTRO =         0.00000000
  eigenvalues    EBANDS =      -264.26767199
  atomic energy  EATOM  =      9716.95502315
  ---------------------------------------------------
  free energy    TOTEN  =       -59.18324871 eV

  energy without entropy =      -59.18324871  energy(sigma->0) =      -59.18324871


--------------------------------------------------------------------------------------------------------




----------------------------------------- Iteration    1(  22)  ---------------------------------------


    POTLOK:  cpu time    0.56: real time    0.55
    SETDIJ:  cpu time    0.07: real time    0.07
     EDDAV:  cpu time   41.02: real time   41.02
 BZINTS: Fermi energy:  0.020113;120.000000 electrons
         Band energy:-264.268339;  BLOECHL correction: -0.027558
       DOS:  cpu time    0.04: real time    0.04
    --------------------------------------------
      LOOP:  cpu time   41.69: real time   41.69

 eigenvalue-minimisations  :   864
 total energy-change (2. order) :-0.3918285E-06  (-0.6810047E-08)
 number of electron     120.0000441 magnetization 
 augmentation part       50.8288771 magnetization 

 Free energy of the ion-electron system (eV)
  ---------------------------------------------------
  alpha Z        PSCENC =       574.70065014
  Ewald energy   TEWEN  =     22890.08107564
  -1/2 Hartree   DENC   =    -33349.55068934
  -exchange  EXHF       =         0.00000000
  -V(xc)+E(xc)   XCENC  =      -356.37646214
  PAW double counting   =      8302.29226398    -7573.01677152
  entropy T*S    EENTRO =         0.00000000
  eigenvalues    EBANDS =      -264.26833901
  atomic energy  EATOM  =      9716.95502315
  ---------------------------------------------------
  free energy    TOTEN  =       -59.18324910 eV

  energy without entropy =      -59.18324910  energy(sigma->0) =      -59.18324910


--------------------------------------------------------------------------------------------------------




 average (electrostatic) potential at core
  the test charge radii are     1.1199
  (the norm of the test charge is              1.0000)
       1 -51.0366       2 -51.5418       3 -51.5067       4 -51.0366       5 -51.5418
       6 -51.5067       7 -51.5068       8 -51.5418       9 -51.0366      10 -51.5068
      11 -51.5418      12 -51.0366
 
 
 
 E-fermi :   0.0201     XC(G=0):  -7.8132     alpha+bet : -6.1545


 k-point   1 :       0.0000    0.0000    0.0000
  band No.  band energies     occupation 
      1      -6.4804      2.00000
      2      -5.6688      2.00000
      3      -4.8536      2.00000
      4      -4.8008      2.00000
      5      -4.8008      2.00000
      6      -4.7669      2.00000
      7      -4.6128      2.00000
      8      -4.5513      2.00000
      9      -4.5513      2.00000
     10      -4.3133      2.00000
     11      -4.3132      2.00000
     12      -4.2966      2.00000
     13      -4.2612      2.00000
     14      -4.1107      2.00000
     15      -4.0068      2.00000
     16      -4.0068      2.00000
     17      -3.8073      2.00000
     18      -3.7035      2.00000
     19      -3.7035      2.00000
     20      -3.3171      2.00000
     21      -3.1970      2.00000
     22      -3.1970      2.00000
     23      -2.8873      2.00000
     24      -2.6696      2.00000
     25      -2.4715      2.00000
     26      -2.4715      2.00000
     27      -2.1792      2.00000
     28      -2.1792      2.00000
     29      -2.0393      2.00000
     30      -2.0393      2.00000
     31      -1.5952      2.00000
     32      -1.4280      2.00000
     33      -1.4280      2.00000
     34      -1.4107      2.00000
     35      -1.1645      2.00000
     36      -1.0569      2.00000
     37      -1.0569      2.00000
     38      -1.0439      2.00000
     39      -1.0342      2.00000
     40      -0.9159      2.00000
     41      -0.9159      2.00000
     42      -0.8032      2.00000
     43      -0.7373      2.00000
     44      -0.7373      2.00000
     45      -0.5331      2.00000
     46      -0.4180      2.00000
     47      -0.4179      2.00000
     48      -0.2667      2.00000
     49      -0.1261      2.00000
     50      -0.1261      2.00000
     51      -0.0960      2.00000
     52      -0.0960      2.00000
     53      -0.0919      2.00000
     54      -0.0919      2.00000
     55      -0.0134      2.00000
     56       0.0344      1.79790
     57       0.2057     -0.01195
     58       0.2057     -0.65072
     59       0.2744      0.00000
     60       0.2745      0.00000
     61       0.3271      0.00000
     62       0.3271      0.00000
     63       0.3832      0.00000
     64       0.6281      0.00000
     65       0.6281      0.00000
     66       1.9484      0.00000
     67       2.9631      0.00000
     68       4.0513      0.00000
     69       4.0513      0.00000
     70       5.1449      0.00000
     71       5.5242      0.00000
     72       5.5242      0.00000

 k-point   2 :       0.1429    0.0000    0.0000
  band No.  band energies     occupation 
      1      -6.2509      2.00000
      2      -5.4618      2.00000
      3      -4.7002      2.00000
      4      -4.6898      2.00000
      5      -4.6667      2.00000
      6      -4.5874      2.00000
      7      -4.4838      2.00000
      8      -4.4668      2.00000
      9      -4.4638      2.00000
     10      -4.1916      2.00000
     11      -4.1568      2.00000
     12      -4.1475      2.00000
     13      -4.1319      2.00000
     14      -3.9502      2.00000
     15      -3.9401      2.00000
     16      -3.9315      2.00000
     17      -3.7171      2.00000
     18      -3.5697      2.00000
     19      -3.5546      2.00000
     20      -3.2574      2.00000
     21      -3.2057      2.00000
     22      -3.1632      2.00000
     23      -2.8687      2.00000
     24      -2.5731      2.00000
     25      -2.5022      2.00000
     26      -2.3960      2.00000
     27      -2.2864      2.00000
     28      -2.2032      2.00000
     29      -2.1791      2.00000
     30      -2.0700      2.00000
     31      -1.9542      2.00000
     32      -1.5341      2.00000
     33      -1.4567      2.00000
     34      -1.3360      2.00000
     35      -1.2970      2.00000
     36      -1.2475      2.00000
     37      -1.1848      2.00000
     38      -1.1482      2.00000
     39      -1.0279      2.00000
     40      -1.0130      2.00000
     41      -0.9453      2.00000
     42      -0.8755      2.00000
     43      -0.7616      2.00000
     44      -0.6499      2.00000
     45      -0.5775      2.00000
     46      -0.5697      2.00000
     47      -0.5187      2.00000
     48      -0.4907      2.00000
     49      -0.2908      2.00000
     50      -0.2792      2.00000
     51      -0.2455      2.00000
     52      -0.1704      2.00000
     53      -0.1433      2.00000
     54      -0.1397      2.00000
     55      -0.1273      2.00000
     56      -0.1127      2.02547
     57      -0.1033      1.96023
     58      -0.0044      1.69188
     59       0.0650      0.44232
     60       0.0875      0.01028
     61       0.1311     -0.04404
     62       0.1996      0.00000
     63       0.3452      0.00000
     64       0.3916      0.00000
     65       1.0325      0.00000
     66       2.5187      0.00000
     67       2.9451      0.00000
     68       3.6314      0.00000
     69       4.2694      0.00000
     70       4.7867      0.00000
     71       5.3811      0.00000
     72       5.7491      0.00000

 k-point   3 :       0.2857    0.0000    0.0000
  band No.  band energies     occupation 
      1      -5.6071      2.00000
      2      -4.8922      2.00000
      3      -4.4183      2.00000
      4      -4.3178      2.00000
      5      -4.2979      2.00000
      6      -4.2251      2.00000
      7      -4.1714      2.00000
      8      -4.1120      2.00000
      9      -4.1012      2.00000
     10      -3.8763      2.00000
     11      -3.8175      2.00000
     12      -3.7736      2.00000
     13      -3.7629      2.00000
     14      -3.7535      2.00000
     15      -3.7167      2.00000
     16      -3.4745      2.00000
     17      -3.4591      2.00000
     18      -3.2715      2.00000
     19      -3.2000      2.00000
     20      -3.1580      2.00000
     21      -3.1484      2.00000
     22      -3.0856      2.00000
     23      -3.0441      2.00000
     24      -2.5120      2.00000
     25      -2.4863      2.00000
     26      -2.3443      2.00000
     27      -2.3388      2.00000
     28      -2.3280      2.00000
     29      -2.3160      2.00000
     30      -2.1953      2.00000
     31      -2.0736      2.00000
     32      -2.0432      2.00000
     33      -1.7570      2.00000
     34      -1.6931      2.00000
     35      -1.5911      2.00000
     36      -1.5300      2.00000
     37      -1.5005      2.00000
     38      -1.4060      2.00000
     39      -1.3167      2.00000
     40      -1.2649      2.00000
     41      -1.1217      2.00000
     42      -1.0257      2.00000
     43      -0.9048      2.00000
     44      -0.8455      2.00000
     45      -0.8374      2.00000
     46      -0.8362      2.00000
     47      -0.8362      2.00000
     48      -0.8170      2.00000
     49      -0.7325      2.00000
     50      -0.6743      2.00000
     51      -0.5514      2.00000
     52      -0.5059      2.00000
     53      -0.4757      2.00000
     54      -0.4553      2.00000
     55      -0.4176      2.00000
     56      -0.4059      2.00000
     57      -0.2834      2.00000
     58      -0.2807      2.00000
     59      -0.1863      2.16499
     60      -0.0839      2.17980
     61      -0.0763      1.97764
     62       0.1760      0.00000
     63       0.1842      0.00000
     64       0.7429      0.00000
     65       1.0415      0.00000
     66       2.1165      0.00000
     67       2.2654      0.00000
     68       3.5958      0.00000
     69       3.6624      0.00000
     70       4.8859      0.00000
     71       5.0130      0.00000
     72       6.1227      0.00000

 k-point   4 :       0.4286    0.0000    0.0000
  band No.  band energies     occupation 
      1      -4.7529      2.00000
      2      -4.2635      2.00000
      3      -4.1598      2.00000
      4      -3.9190      2.00000
      5      -3.8783      2.00000
      6      -3.8616      2.00000
      7      -3.6996      2.00000
      8      -3.6943      2.00000
      9      -3.5876      2.00000
     10      -3.4929      2.00000
     11      -3.4919      2.00000
     12      -3.4843      2.00000
     13      -3.4421      2.00000
     14      -3.3725      2.00000
     15      -3.3661      2.00000
     16      -3.3431      2.00000
     17      -3.2434      2.00000
     18      -3.1991      2.00000
     19      -3.1731      2.00000
     20      -3.1688      2.00000
     21      -3.0529      2.00000
     22      -2.8619      2.00000
     23      -2.8332      2.00000
     24      -2.7702      2.00000
     25      -2.7281      2.00000
     26      -2.7088      2.00000
     27      -2.6438      2.00000
     28      -2.4923      2.00000
     29      -2.3689      2.00000
     30      -2.2860      2.00000
     31      -2.0583      2.00000
     32      -2.0312      2.00000
     33      -1.9660      2.00000
     34      -1.9590      2.00000
     35      -1.6790      2.00000
     36      -1.6715      2.00000
     37      -1.5972      2.00000
     38      -1.4609      2.00000
     39      -1.4586      2.00000
     40      -1.4059      2.00000
     41      -1.4042      2.00000
     42      -1.3988      2.00000
     43      -1.3408      2.00000
     44      -1.3088      2.00000
     45      -1.2725      2.00000
     46      -1.2093      2.00000
     47      -1.0892      2.00000
     48      -1.0504      2.00000
     49      -1.0480      2.00000
     50      -0.9869      2.00000
     51      -0.9583      2.00000
     52      -0.9514      2.00000
     53      -0.8436      2.00000
     54      -0.8058      2.00000
     55      -0.7067      2.00000
     56      -0.6822      2.00000
     57      -0.6176      2.00000
     58      -0.2878      2.00000
     59      -0.2352      2.00000
     60      -0.2319      2.00000
     61      -0.1718      2.10687
     62       0.1544      0.00000
     63       0.1661      0.00000
     64       0.6532      0.00000
     65       0.6799      0.00000
     66       1.8338      0.00000
     67       1.8521      0.00000
     68       3.2186      0.00000
     69       3.3682      0.00000
     70       4.8101      0.00000
     71       4.9865      0.00000
     72       6.1897      0.00000

 k-point   5 :       0.1429    0.1429    0.0000
  band No.  band energies     occupation 
      1      -6.0360      2.00000
      2      -5.2906      2.00000
      3      -4.6113      2.00000
      4      -4.5573      2.00000
      5      -4.5573      2.00000
      6      -4.5075      2.00000
      7      -4.3914      2.00000
      8      -4.3914      2.00000
      9      -4.3121      2.00000
     10      -4.0996      2.00000
     11      -4.0357      2.00000
     12      -4.0357      2.00000
     13      -3.9346      2.00000
     14      -3.9174      2.00000
     15      -3.9155      2.00000
     16      -3.9155      2.00000
     17      -3.4652      2.00000
     18      -3.4241      2.00000
     19      -3.4241      2.00000
     20      -3.1998      2.00000
     21      -3.1998      2.00000
     22      -3.1037      2.00000
     23      -2.8186      2.00000
     24      -2.4933      2.00000
     25      -2.4869      2.00000
     26      -2.3742      2.00000
     27      -2.2793      2.00000
     28      -2.2393      2.00000
     29      -2.2393      2.00000
     30      -2.1275      2.00000
     31      -2.0774      2.00000
     32      -1.6549      2.00000
     33      -1.6513      2.00000
     34      -1.3636      2.00000
     35      -1.3636      2.00000
     36      -1.3068      2.00000
     37      -1.2168      2.00000
     38      -1.1429      2.00000
     39      -1.0915      2.00000
     40      -1.0699      2.00000
     41      -1.0468      2.00000
     42      -1.0468      2.00000
     43      -0.9552      2.00000
     44      -0.8552      2.00000
     45      -0.6791      2.00000
     46      -0.6791      2.00000
     47      -0.6028      2.00000
     48      -0.6022      2.00000
     49      -0.5116      2.00000
     50      -0.5116      2.00000
     51      -0.4398      2.00000
     52      -0.4186      2.00000
     53      -0.4186      2.00000
     54      -0.1933      2.00000
     55      -0.1180      2.00000
     56      -0.0640      2.00612
     57      -0.0640      1.94903
     58      -0.0392      1.91121
     59       0.0416      0.95822
     60       0.0416      0.32919
     61       0.0921      0.02514
     62       0.1892      0.00000
     63       0.2454      0.00000
     64       0.2454      0.00000
     65       1.3746      0.00000
     66       2.9377      0.00000
     67       3.6294      0.00000
     68       3.6294      0.00000
     69       4.1426      0.00000
     70       4.7521      0.00000
     71       4.7521      0.00000
     72       5.6246      0.00000

 k-point   6 :       0.2857    0.1429    0.0000
  band No.  band energies     occupation 
      1      -5.4397      2.00000
      2      -4.8463      2.00000
      3      -4.3203      2.00000
      4      -4.3012      2.00000
      5      -4.3006      2.00000
      6      -4.2222      2.00000
      7      -4.2007      2.00000
      8      -4.1383      2.00000
      9      -3.9036      2.00000
     10      -3.8516      2.00000
     11      -3.8490      2.00000
     12      -3.8352      2.00000
     13      -3.7795      2.00000
     14      -3.7189      2.00000
     15      -3.6568      2.00000
     16      -3.4841      2.00000
     17      -3.2149      2.00000
     18      -3.1433      2.00000
     19      -3.0906      2.00000
     20      -3.0566      2.00000
     21      -2.9870      2.00000
     22      -2.8922      2.00000
     23      -2.7731      2.00000
     24      -2.4696      2.00000
     25      -2.3795      2.00000
     26      -2.3122      2.00000
     27      -2.2905      2.00000
     28      -2.2608      2.00000
     29      -2.2479      2.00000
     30      -2.2103      2.00000
     31      -2.1475      2.00000
     32      -2.0775      2.00000
     33      -1.8922      2.00000
     34      -1.7924      2.00000
     35      -1.7105      2.00000
     36      -1.5720      2.00000
     37      -1.5637      2.00000
     38      -1.4642      2.00000
     39      -1.3913      2.00000
     40      -1.3698      2.00000
     41      -1.2214      2.00000
     42      -1.1980      2.00000
     43      -1.1958      2.00000
     44      -1.1648      2.00000
     45      -1.0809      2.00000
     46      -0.9954      2.00000
     47      -0.9189      2.00000
     48      -0.8774      2.00000
     49      -0.8519      2.00000
     50      -0.8059      2.00000
     51      -0.6604      2.00000
     52      -0.5791      2.00000
     53      -0.4771      2.00000
     54      -0.4460      2.00000
     55      -0.3550      2.00000
     56      -0.1994      2.00000
     57      -0.1128      2.00000
     58      -0.0988      2.00000
     59      -0.0956      2.07770
     60       0.0061      1.80133
     61       0.0562      0.32757
     62       0.1040      0.00000
     63       0.1084      0.00000
     64       0.7387      0.00000
     65       1.6997      0.00000
     66       2.2703      0.00000
     67       2.6254      0.00000
     68       3.7903      0.00000
     69       3.9182      0.00000
     70       4.9647      0.00000
     71       5.0859      0.00000
     72       5.2095      0.00000

 k-point   7 :       0.4286    0.1429    0.0000
  band No.  band energies     occupation 
      1      -4.6684      2.00000
      2      -4.3502      2.00000
      3      -4.2134      2.00000
      4      -4.0824      2.00000
      5      -4.0520      2.00000
      6      -3.9057      2.00000
      7      -3.8784      2.00000
      8      -3.8730      2.00000
      9      -3.7146      2.00000
     10      -3.6906      2.00000
     11      -3.6376      2.00000
     12      -3.4984      2.00000
     13      -3.4105      2.00000
     14      -3.3801      2.00000
     15      -3.2559      2.00000
     16      -3.2087      2.00000
     17      -3.1424      2.00000
     18      -3.1135      2.00000
     19      -2.9444      2.00000
     20      -2.8842      2.00000
     21      -2.8007      2.00000
     22      -2.7317      2.00000
     23      -2.6457      2.00000
     24      -2.6230      2.00000
     25      -2.5847      2.00000
     26      -2.4875      2.00000
     27      -2.4673      2.00000
     28      -2.3761      2.00000
     29      -2.2845      2.00000
     30      -2.2490      2.00000
     31      -2.1878      2.00000
     32      -2.0947      2.00000
     33      -2.0195      2.00000
     34      -1.9881      2.00000
     35      -1.8049      2.00000
     36      -1.7704      2.00000
     37      -1.7572      2.00000
     38      -1.7406      2.00000
     39      -1.6679      2.00000
     40      -1.6350      2.00000
     41      -1.6164      2.00000
     42      -1.5228      2.00000
     43      -1.4457      2.00000
     44      -1.2909      2.00000
     45      -1.2658      2.00000
     46      -1.2293      2.00000
     47      -1.0446      2.00000
     48      -1.0145      2.00000
     49      -0.9023      2.00000
     50      -0.8172      2.00000
     51      -0.7994      2.00000
     52      -0.7934      2.00000
     53      -0.5833      2.00000
     54      -0.5186      2.00000
     55      -0.4528      2.00000
     56      -0.3576      2.00000
     57      -0.3382      2.00000
     58      -0.2970      2.00000
     59      -0.1472      2.00000
     60      -0.0725      2.00000
     61      -0.0037      1.88359
     62       0.0423      0.00000
     63       0.1725      0.00000
     64       0.6016      0.00000
     65       0.8272      0.00000
     66       1.8243      0.00000
     67       1.8995      0.00000
     68       3.2436      0.00000
     69       3.4457      0.00000
     70       4.8359      0.00000
     71       5.1389      0.00000
     72       6.2468      0.00000

 k-point   8 :       0.2857    0.2857    0.0000
  band No.  band energies     occupation 
      1      -5.0114      2.00000
      2      -4.7404      2.00000
      3      -4.4350      2.00000
      4      -4.2439      2.00000
      5      -4.2219      2.00000
      6      -4.2219      2.00000
      7      -4.0783      2.00000
      8      -4.0783      2.00000
      9      -3.8764      2.00000
     10      -3.8284      2.00000
     11      -3.7925      2.00000
     12      -3.7925      2.00000
     13      -3.4720      2.00000
     14      -3.3726      2.00000
     15      -3.3726      2.00000
     16      -3.1169      2.00000
     17      -3.1169      2.00000
     18      -3.1089      2.00000
     19      -2.8094      2.00000
     20      -2.8094      2.00000
     21      -2.7990      2.00000
     22      -2.6462      2.00000
     23      -2.4377      2.00000
     24      -2.2911      2.00000
     25      -2.2660      2.00000
     26      -2.2615      2.00000
     27      -2.2289      2.00000
     28      -2.2289      2.00000
     29      -2.2158      2.00000
     30      -2.1913      2.00000
     31      -2.0735      2.00000
     32      -2.0735      2.00000
     33      -2.0330      2.00000
     34      -1.9722      2.00000
     35      -1.9577      2.00000
     36      -1.7782      2.00000
     37      -1.7782      2.00000
     38      -1.7420      2.00000
     39      -1.6472      2.00000
     40      -1.6472      2.00000
     41      -1.5957      2.00000
     42      -1.5621      2.00000
     43      -1.3350      2.00000
     44      -1.3162      2.00000
     45      -1.3162      2.00000
     46      -1.2696      2.00000
     47      -0.8738      2.00000
     48      -0.7497      2.00000
     49      -0.7497      2.00000
     50      -0.7334      2.00000
     51      -0.6645      2.00000
     52      -0.5957      2.00000
     53      -0.4071      2.00000
     54      -0.4066      2.00000
     55      -0.4066      2.00000
     56      -0.2744      2.00000
     57      -0.0588      2.00000
     58      -0.0131      2.00000
     59      -0.0131      1.99191
     60       0.0041      1.98761
     61       0.0489     -0.03268
     62       0.0489      0.00000
     63       0.0837      0.00000
     64       0.9767      0.00000
     65       2.7817      0.00000
     66       2.8777      0.00000
     67       2.8777      0.00000
     68       3.4498      0.00000
     69       3.4498      0.00000
     70       4.0385      0.00000
     71       4.0385      0.00000
     72       4.5770      0.00000

 k-point   9 :       0.4286    0.2857    0.0000
  band No.  band energies     occupation 
      1      -4.6268      2.00000
      2      -4.6059      2.00000
      3      -4.4314      2.00000
      4      -4.4253      2.00000
      5      -4.2942      2.00000
      6      -4.1025      2.00000
      7      -4.0401      2.00000
      8      -4.0276      2.00000
      9      -3.6749      2.00000
     10      -3.6309      2.00000
     11      -3.5576      2.00000
     12      -3.4450      2.00000
     13      -3.3259      2.00000
     14      -3.2230      2.00000
     15      -3.0491      2.00000
     16      -3.0295      2.00000
     17      -2.9475      2.00000
     18      -2.8468      2.00000
     19      -2.8061      2.00000
     20      -2.6839      2.00000
     21      -2.6573      2.00000
     22      -2.6477      2.00000
     23      -2.6081      2.00000
     24      -2.4989      2.00000
     25      -2.4771      2.00000
     26      -2.4094      2.00000
     27      -2.3791      2.00000
     28      -2.3773      2.00000
     29      -2.2801      2.00000
     30      -2.1584      2.00000
     31      -2.1237      2.00000
     32      -2.0781      2.00000
     33      -2.0690      2.00000
     34      -2.0413      2.00000
     35      -1.9715      2.00000
     36      -1.9210      2.00000
     37      -1.8252      2.00000
     38      -1.7983      2.00000
     39      -1.7299      2.00000
     40      -1.6154      2.00000
     41      -1.4473      2.00000
     42      -1.4220      2.00000
     43      -1.3651      2.00000
     44      -1.3271      2.00000
     45      -1.2536      2.00000
     46      -1.0051      2.00000
     47      -0.9212      2.00000
     48      -0.7371      2.00000
     49      -0.6752      2.00000
     50      -0.6487      2.00000
     51      -0.5928      2.00000
     52      -0.5458      2.00000
     53      -0.3429      2.00000
     54      -0.2428      2.00000
     55      -0.1721      2.00000
     56      -0.1569      2.00000
     57      -0.1560      2.00000
     58      -0.1369      2.00000
     59      -0.0682      2.00000
     60      -0.0675      2.00000
     61       0.0311      0.19731
     62       0.0494      0.00000
     63       0.4765      0.00000
     64       1.1631      0.00000
     65       1.4157      0.00000
     66       1.8298      0.00000
     67       2.0436      0.00000
     68       3.1072      0.00000
     69       3.5881      0.00000
     70       4.1050      0.00000
     71       4.1416      0.00000
     72       5.1254      0.00000

 k-point  10 :       0.4286    0.4286    0.0000
  band No.  band energies     occupation 
      1      -4.7322      2.00000
      2      -4.7302      2.00000
      3      -4.6717      2.00000
      4      -4.6717      2.00000
      5      -4.2568      2.00000
      6      -4.2114      2.00000
      7      -4.1670      2.00000
      8      -4.1670      2.00000
      9      -3.5847      2.00000
     10      -3.5727      2.00000
     11      -3.4684      2.00000
     12      -3.4684      2.00000
     13      -3.0086      2.00000
     14      -2.9469      2.00000
     15      -2.9469      2.00000
     16      -2.8826      2.00000
     17      -2.7889      2.00000
     18      -2.7889      2.00000
     19      -2.6679      2.00000
     20      -2.6393      2.00000
     21      -2.6267      2.00000
     22      -2.5909      2.00000
     23      -2.5909      2.00000
     24      -2.5331      2.00000
     25      -2.5331      2.00000
     26      -2.4772      2.00000
     27      -2.4750      2.00000
     28      -2.4692      2.00000
     29      -2.2657      2.00000
     30      -2.2657      2.00000
     31      -2.2025      2.00000
     32      -2.1450      2.00000
     33      -2.0614      2.00000
     34      -2.0545      2.00000
     35      -2.0155      2.00000
     36      -2.0155      2.00000
     37      -1.5606      2.00000
     38      -1.5312      2.00000
     39      -1.5073      2.00000
     40      -1.5072      2.00000
     41      -1.4222      2.00000
     42      -1.3584      2.00000
     43      -1.3584      2.00000
     44      -1.2672      2.00000
     45      -0.9449      2.00000
     46      -0.6486      2.00000
     47      -0.6486      2.00000
     48      -0.6038      2.00000
     49      -0.5630      2.00000
     50      -0.5481      2.00000
     51      -0.5481      2.00000
     52      -0.3771      2.00000
     53      -0.2107      2.00000
     54      -0.1755      2.00000
     55      -0.1755      2.00000
     56      -0.1632      2.00000
     57      -0.0776      2.00000
     58      -0.0604      2.00000
     59      -0.0604      2.00000
     60       0.0131      2.00000
     61       0.6635      0.00000
     62       0.8134      0.00000
     63       1.0626      0.00000
     64       1.9681      0.00000
     65       2.0200      0.00000
     66       2.0200      0.00000
     67       2.3159      0.00000
     68       2.3159      0.00000
     69       2.4347      0.00000
     70       2.4347      0.00000
     71       3.2753      0.00000
     72       3.6974      0.00000


--------------------------------------------------------------------------------------------------------


 soft charge-density along one line, spin component           1
         0         1         2         3         4         5         6         7         8         9
 total charge-density along one line
 
 pseudopotential strength for first ion, spin component:           1
-11.491   0.000   0.000   0.000   0.000   0.124   0.000   0.000
  0.000 -11.391   0.000   0.000   0.000   0.000   0.108   0.000
  0.000   0.000 -11.363   0.000   0.000   0.000   0.000   0.104
  0.000   0.000   0.000 -11.391   0.000   0.000   0.000   0.000
  0.000   0.000   0.000   0.000 -11.434   0.000   0.000   0.000
  0.124   0.000   0.000   0.000   0.000   0.321   0.000   0.000
  0.000   0.108   0.000   0.000   0.000   0.000   0.324   0.000
  0.000   0.000   0.104   0.000   0.000   0.000   0.000   0.325
  0.000   0.000   0.000   0.108   0.000   0.000   0.000   0.000
  0.000   0.000   0.000   0.000   0.115   0.000   0.000   0.000
  0.000   0.000  -0.021   0.000   0.000   0.000   0.000   0.003
  0.000   0.000   0.002   0.000   0.000   0.000   0.000   0.000
  0.000  -0.016   0.000   0.000   0.000   0.000   0.003   0.000
  0.000   0.000  -0.019   0.000   0.000   0.000   0.000   0.003
  0.000   0.000   0.000  -0.016   0.000   0.000   0.000   0.000
  0.000   0.014   0.000   0.000   0.000   0.000  -0.002   0.000
  0.000   0.000   0.015   0.000   0.000   0.000   0.000  -0.002
  0.000   0.000   0.000   0.014   0.000   0.000   0.000   0.000
 total augmentation occupancy for first ion, spin component:           1
  1.648   0.000   0.000   0.000   0.000   0.185   0.000   0.000   0.000   0.000   0.000   0.000   0.000   0.000   0.000   0.000
  0.000   1.826   0.000   0.000   0.000   0.000   0.079   0.000   0.000   0.000   0.000   0.000  -0.012   0.000   0.000  -0.021
  0.000   0.000   1.858   0.000   0.000   0.000   0.000   0.059   0.000   0.000   0.016  -0.045   0.000   0.008   0.000   0.000
  0.000   0.000   0.000   1.826   0.000   0.000   0.000   0.000   0.079   0.000   0.000   0.000   0.000   0.000  -0.012   0.000
  0.000   0.000   0.000   0.000   1.860   0.000   0.000   0.000   0.000   0.045   0.000   0.000   0.000   0.000   0.000   0.000
  0.185   0.000   0.000   0.000   0.000   0.102   0.000   0.000   0.000   0.000   0.000   0.000   0.000   0.000   0.000   0.000
  0.000   0.079   0.000   0.000   0.000   0.000   0.094   0.000   0.000   0.000   0.000   0.000   0.050   0.000   0.000  -0.002
  0.000   0.000   0.059   0.000   0.000   0.000   0.000   0.090   0.000   0.000  -0.082   0.020   0.000   0.036   0.000   0.000
  0.000   0.000   0.000   0.079   0.000   0.000   0.000   0.000   0.094   0.000   0.000   0.000   0.000   0.000   0.050   0.000
  0.000   0.000   0.000   0.000   0.045   0.000   0.000   0.000   0.000   0.099   0.000   0.000   0.000   0.000   0.000   0.000
  0.000   0.000   0.016   0.000   0.000   0.000   0.000  -0.082   0.000   0.000   0.953  -0.306   0.000   0.093   0.000   0.000
  0.000   0.000  -0.045   0.000   0.000   0.000   0.000   0.020   0.000   0.000  -0.306   0.113   0.000  -0.045   0.000   0.000
  0.000  -0.012   0.000   0.000   0.000   0.000   0.050   0.000   0.000   0.000   0.000   0.000   0.096   0.000   0.000  -0.002
  0.000   0.000   0.008   0.000   0.000   0.000   0.000   0.036   0.000   0.000   0.093  -0.045   0.000   0.058   0.000   0.000
  0.000   0.000   0.000  -0.012   0.000   0.000   0.000   0.000   0.050   0.000   0.000   0.000   0.000   0.000   0.096   0.000
  0.000  -0.021   0.000   0.000   0.000   0.000  -0.002   0.000   0.000   0.000   0.000   0.000  -0.002   0.000   0.000   0.000
  0.000   0.000  -0.028   0.000   0.000   0.000   0.000  -0.001   0.000   0.000  -0.005   0.003   0.000  -0.001   0.000   0.000
  0.000   0.000   0.000  -0.021   0.000   0.000   0.000   0.000  -0.002   0.000   0.000   0.000   0.000   0.000  -0.002   0.000


------------------------ aborting loop because EDIFF is reached ----------------------------------------


    CHARGE:  cpu time    1.73: real time    1.73
    FORLOC:  cpu time    0.06: real time    0.06
    FORNL :  cpu time   26.40: real time   26.40
    STRESS:  cpu time   69.03: real time   69.03
    FORCOR:  cpu time    0.59: real time    0.59
    FORHAR:  cpu time    0.19: real time    0.19
    MIXING:  cpu time    0.05: real time    0.05

  FORCE on cell =-STRESS in cart. coord.  units (eV):
  Direction    XX          YY          ZZ          XY          YZ          ZX
  --------------------------------------------------------------------------------------
  Alpha Z   574.70065   574.70065   574.70065
  Ewald   29467.96666 29467.96666-36045.86608     0.00000     0.00000     0.00000
  Hartree 32340.51376 32340.51376-31331.47501     0.00000     0.00000     0.00000
  E(xc)    -627.12307  -627.12307  -629.07901     0.00000     0.00000     0.00000
  Local  -63258.15188-63258.15188 65916.77373     0.00000     0.00000     0.00000
  n-local  -648.05500  -640.27959  -647.30211     8.99138     0.00000     0.00000
  augment   513.75301   513.75303   518.77671    -0.00001    -0.00003    -0.00002
  Kinetic  1638.94881  1616.17303  1642.15320     7.15007     0.00000     0.00000
  Fock        0.00000     0.00000     0.00000     0.00000     0.00000     0.00000
  -------------------------------------------------------------------------------------
  Total      -4.94723    -4.94723    -1.31792     0.00000     0.00000     0.00000
  in kB     -23.23495   -23.23495    -6.18967     0.00000     0.00000     0.00000
  external pressure =      -17.55 kB  Pullay stress =        0.00 kB


 VOLUME and BASIS-vectors are now :
 -----------------------------------------------------------------------------
  energy-cutoff  :      415.00
  volume of cell :      341.14
      direct lattice vectors                 reciprocal lattice vectors
     3.951020398  0.000000000  0.000000000     0.253099174  0.000000000  0.000000000
     0.000000000  3.951020398  0.000000000     0.000000000  0.253099174  0.000000000
     0.000000000  0.000000000 21.853061195     0.000000000  0.000000000  0.045760179

  length of vectors
     3.951020398  3.951020398 21.853061195     0.253099174  0.253099174  0.045760179


 FORCES acting on ions
    electron-ion (+dipol)            ewald-force                    non-local-force                 convergence-correction
 -----------------------------------------------------------------------------------------------
   0.255E-13 -.381E-14 0.261E+04   0.904E-14 -.622E-15 -.261E+04   0.207E-23 -.414E-24 -.177E+01   -.366E-13 0.498E-14 0.339E-03
   0.221E-13 0.167E-13 0.530E+03   0.979E-14 0.764E-14 -.530E+03   0.124E-23 0.000E+00 0.114E+00   -.366E-14 0.447E-14 -.101E-03
   0.273E-13 0.721E-14 -.159E+04   0.137E-13 0.550E-14 0.159E+04   0.331E-23 -.827E-23 -.123E+00   0.497E-14 0.187E-13 0.101E-02
   -.792E-13 -.578E-13 0.261E+04   -.199E-13 0.111E-13 -.261E+04   0.165E-23 0.000E+00 -.177E+01   -.215E-13 -.105E-13 0.339E-03
   -.588E-13 -.608E-13 0.530E+03   -.176E-13 0.182E-13 -.530E+03   0.000E+00 0.207E-23 0.114E+00   0.195E-13 0.931E-14 -.101E-03
   -.590E-13 -.756E-13 -.159E+04   -.118E-13 0.175E-13 0.159E+04   0.331E-23 -.796E-23 -.123E+00   0.366E-13 0.110E-13 0.101E-02
   -.925E-13 0.236E-13 0.159E+04   0.147E-13 -.184E-13 -.159E+04   -.331E-23 0.827E-23 0.123E+00   0.555E-14 0.710E-14 -.101E-02
   -.493E-13 0.927E-14 -.530E+03   0.164E-13 -.176E-13 0.530E+03   0.103E-23 -.165E-23 -.114E+00   0.299E-13 0.170E-13 0.100E-03
   -.555E-13 -.672E-14 -.261E+04   0.190E-13 -.114E-13 0.261E+04   -.196E-23 0.000E+00 0.177E+01   0.267E-13 0.302E-13 -.337E-03
   0.263E-13 -.750E-13 0.159E+04   -.142E-13 -.668E-14 -.159E+04   -.331E-23 0.827E-23 0.123E+00   -.199E-13 0.105E-13 -.101E-02
   0.341E-13 -.470E-13 -.530E+03   -.144E-13 -.728E-14 0.530E+03   -.248E-23 0.000E+00 -.114E+00   0.290E-14 0.195E-13 0.100E-03
   0.150E-13 -.219E-12 -.261E+04   -.992E-14 0.336E-15 0.261E+04   -.186E-23 0.827E-24 0.177E+01   0.134E-13 0.287E-13 -.337E-03
 -----------------------------------------------------------------------------------------------
   -.244E-12 -.489E-12 -.234E-03   -.523E-14 -.173E-14 0.455E-12   -.310E-24 0.114E-23 -.244E-14   0.579E-13 0.151E-12 0.160E-06
 
 
 POSITION                                       TOTAL-FORCE (eV/Angst)
 -----------------------------------------------------------------------------------
      0.00000      0.00000      0.00000         0.000000      0.000000      0.103731
      0.00000      0.00000      3.95102         0.000000      0.000000      0.016359
      0.00000      0.00000      7.90204         0.000000      0.000000      0.098321
      1.97551      1.97551      0.00000         0.000000      0.000000      0.103731
      1.97551      1.97551      3.95102         0.000000      0.000000      0.016359
      1.97551      1.97551      7.90204         0.000000      0.000000      0.098321
      1.97551      0.00000      1.97551         0.000000      0.000000     -0.098321
      1.97551      0.00000      5.92653         0.000000      0.000000     -0.016359
      1.97551      0.00000      9.87755         0.000000      0.000000     -0.103731
      0.00000      1.97551      1.97551         0.000000      0.000000     -0.098321
      0.00000      1.97551      5.92653         0.000000      0.000000     -0.016359
      0.00000      1.97551      9.87755         0.000000      0.000000     -0.103731
 -----------------------------------------------------------------------------------
    total drift:                                0.000000      0.000000     -0.000234


--------------------------------------------------------------------------------------------------------



  FREE ENERGIE OF THE ION-ELECTRON SYSTEM (eV)
  ---------------------------------------------------
  free  energy   TOTEN  =       -59.183249 eV

  energy  without entropy=      -59.183249  energy(sigma->0) =      -59.183249
 


--------------------------------------------------------------------------------------------------------


    POTLOK:  cpu time    0.64: real time    0.64


--------------------------------------------------------------------------------------------------------




--------------------------------------------------------------------------------------------------------


    WAVPRE:  cpu time    0.12: real time    0.12
    FEWALD:  cpu time    0.00: real time    0.00
    ORTHCH:  cpu time    8.52: real time    8.52
     LOOP+:  cpu time 1574.53: real time 1574.78


----------------------------------------- Iteration    2(   1)  ---------------------------------------


    POTLOK:  cpu time    0.55: real time    0.55
    SETDIJ:  cpu time    0.08: real time    0.08
     EDDAV:  cpu time   58.97: real time   58.99
 BZINTS: Fermi energy:  0.020293;120.000000 electrons
         Band energy:-264.292286;  BLOECHL correction: -0.027524
       DOS:  cpu time    0.04: real time    0.04
    CHARGE:  cpu time    1.74: real time    1.73
    MIXING:  cpu time    0.02: real time    0.02
    --------------------------------------------
      LOOP:  cpu time   61.40: real time   61.41

 eigenvalue-minimisations  :  1448
 total energy-change (2. order) :-0.3391903E-03  (-0.1195630E-02)
 number of electron     120.0000441 magnetization 
 augmentation part       50.8286220 magnetization 

 Broyden mixing:
  rms(total) = 0.15682E-02    rms(broyden)= 0.15677E-02
  rms(prec ) = 0.17681E-02
  weight for this iteration     100.00

 Free energy of the ion-electron system (eV)
  ---------------------------------------------------
  alpha Z        PSCENC =       574.70065014
  Ewald energy   TEWEN  =     22892.44722076
  -1/2 Hartree   DENC   =    -33351.89621101
  -exchange  EXHF       =         0.00000000
  -V(xc)+E(xc)   XCENC  =      -356.37304010
  PAW double counting   =      8302.29137056    -7573.01631542
  entropy T*S    EENTRO =         0.00000000
  eigenvalues    EBANDS =      -264.29228598
  atomic energy  EATOM  =      9716.95502315
  ---------------------------------------------------
  free energy    TOTEN  =       -59.18358790 eV

  energy without entropy =      -59.18358790  energy(sigma->0) =      -59.18358790


--------------------------------------------------------------------------------------------------------




----------------------------------------- Iteration    2(   2)  ---------------------------------------


    POTLOK:  cpu time    0.55: real time    0.55
    SETDIJ:  cpu time    0.07: real time    0.07
     EDDAV:  cpu time   80.33: real time   80.37
 BZINTS: Fermi energy:  0.021149;120.000000 electrons
         Band energy:-264.193734;  BLOECHL correction: -0.027649
       DOS:  cpu time    0.04: real time    0.04
    CHARGE:  cpu time    1.74: real time    1.74
    MIXING:  cpu time    0.02: real time    0.02
    --------------------------------------------
      LOOP:  cpu time   82.76: real time   82.80

 eigenvalue-minimisations  :  2136
 total energy-change (2. order) :-0.8866884E-04  (-0.4415338E-04)
 number of electron     120.0000441 magnetization 
 augmentation part       50.8278331 magnetization 

 Broyden mixing:
  rms(total) = 0.38837E-02    rms(broyden)= 0.38834E-02
  rms(prec ) = 0.57391E-02
  weight for this iteration     100.00

 eigenvalues of (default mixing * dielectric matrix)
  average eigenvalue GAMMA=   0.2590
  0.2590

 Free energy of the ion-electron system (eV)
  ---------------------------------------------------
  alpha Z        PSCENC =       574.70065014
  Ewald energy   TEWEN  =     22892.44722076
  -1/2 Hartree   DENC   =    -33351.99098967
  -exchange  EXHF       =         0.00000000
  -V(xc)+E(xc)   XCENC  =      -356.37362774
  PAW double counting   =      8302.31217482    -7573.04039394
  entropy T*S    EENTRO =         0.00000000
  eigenvalues    EBANDS =      -264.19373410
  atomic energy  EATOM  =      9716.95502315
  ---------------------------------------------------
  free energy    TOTEN  =       -59.18367657 eV

  energy without entropy =      -59.18367657  energy(sigma->0) =      -59.18367657


--------------------------------------------------------------------------------------------------------




----------------------------------------- Iteration    2(   3)  ---------------------------------------


    POTLOK:  cpu time    0.55: real time    0.55
    SETDIJ:  cpu time    0.08: real time    0.07
     EDDAV:  cpu time   69.81: real time   69.82
 BZINTS: Fermi energy:  0.020025;120.000000 electrons
         Band energy:-264.318217;  BLOECHL correction: -0.027463
       DOS:  cpu time    0.04: real time    0.04
    CHARGE:  cpu time    1.70: real time    1.70
    MIXING:  cpu time    0.02: real time    0.02
    --------------------------------------------
      LOOP:  cpu time   72.19: real time   72.20

 eigenvalue-minimisations  :  1800
 total energy-change (2. order) : 0.7492754E-04  (-0.1029652E-04)
 number of electron     120.0000441 magnetization 
 augmentation part       50.8289226 magnetization 

 Broyden mixing:
  rms(total) = 0.32500E-02    rms(broyden)= 0.32495E-02
  rms(prec ) = 0.46904E-02
  weight for this iteration     100.00

 eigenvalues of (default mixing * dielectric matrix)
  average eigenvalue GAMMA=   0.2785
  0.1019  0.4552

 Free energy of the ion-electron system (eV)
  ---------------------------------------------------
  alpha Z        PSCENC =       574.70065014
  Ewald energy   TEWEN  =     22892.44722076
  -1/2 Hartree   DENC   =    -33351.86610617
  -exchange  EXHF       =         0.00000000
  -V(xc)+E(xc)   XCENC  =      -356.37356024
  PAW double counting   =      8302.30426697    -7573.03287960
  entropy T*S    EENTRO =         0.00000000
  eigenvalues    EBANDS =      -264.31821665
  atomic energy  EATOM  =      9716.95502315
  ---------------------------------------------------
  free energy    TOTEN  =       -59.18360164 eV

  energy without entropy =      -59.18360164  energy(sigma->0) =      -59.18360164


--------------------------------------------------------------------------------------------------------




----------------------------------------- Iteration    2(   4)  ---------------------------------------


    POTLOK:  cpu time    0.56: real time    0.55
    SETDIJ:  cpu time    0.07: real time    0.07
     EDDAV:  cpu time   70.81: real time   70.82
 BZINTS: Fermi energy:  0.020230;120.000000 electrons
         Band energy:-264.295299;  BLOECHL correction: -0.027539
       DOS:  cpu time    0.04: real time    0.04
    CHARGE:  cpu time    1.70: real time    1.71
    MIXING:  cpu time    0.02: real time    0.02
    --------------------------------------------
      LOOP:  cpu time   73.20: real time   73.21

 eigenvalue-minimisations  :  1832
 total energy-change (2. order) :-0.2226787E-04  (-0.2785315E-05)
 number of electron     120.0000441 magnetization 
 augmentation part       50.8286268 magnetization 

 Broyden mixing:
  rms(total) = 0.11120E-02    rms(broyden)= 0.11115E-02
  rms(prec ) = 0.12224E-02
  weight for this iteration     100.00

 eigenvalues of (default mixing * dielectric matrix)
  average eigenvalue GAMMA=   0.2485
  0.3198  0.3198  0.1060

 Free energy of the ion-electron system (eV)
  ---------------------------------------------------
  alpha Z        PSCENC =       574.70065014
  Ewald energy   TEWEN  =     22892.44722076
  -1/2 Hartree   DENC   =    -33351.88858766
  -exchange  EXHF       =         0.00000000
  -V(xc)+E(xc)   XCENC  =      -356.37355867
  PAW double counting   =      8302.30978785    -7573.03886061
  entropy T*S    EENTRO =         0.00000000
  eigenvalues    EBANDS =      -264.29529887
  atomic energy  EATOM  =      9716.95502315
  ---------------------------------------------------
  free energy    TOTEN  =       -59.18362391 eV

  energy without entropy =      -59.18362391  energy(sigma->0) =      -59.18362391


--------------------------------------------------------------------------------------------------------




----------------------------------------- Iteration    2(   5)  ---------------------------------------


    POTLOK:  cpu time    0.56: real time    0.55
    SETDIJ:  cpu time    0.07: real time    0.07
     EDDAV:  cpu time   40.94: real time   40.95
 BZINTS: Fermi energy:  0.020283;120.000000 electrons
         Band energy:-264.290858;  BLOECHL correction: -0.027537
       DOS:  cpu time    0.04: real time    0.04
    CHARGE:  cpu time    1.70: real time    1.70
    MIXING:  cpu time    0.02: real time    0.02
    --------------------------------------------
      LOOP:  cpu time   43.33: real time   43.34

 eigenvalue-minimisations  :   864
 total energy-change (2. order) : 0.3585448E-05  (-0.2209317E-06)
 number of electron     120.0000441 magnetization 
 augmentation part       50.8286204 magnetization 

 Broyden mixing:
  rms(total) = 0.83250E-03    rms(broyden)= 0.83246E-03
  rms(prec ) = 0.90119E-03
  weight for this iteration     100.00

 eigenvalues of (default mixing * dielectric matrix)
  average eigenvalue GAMMA=   0.6376
  1.0989  1.0989  0.1036  0.2491

 Free energy of the ion-electron system (eV)
  ---------------------------------------------------
  alpha Z        PSCENC =       574.70065014
  Ewald energy   TEWEN  =     22892.44722076
  -1/2 Hartree   DENC   =    -33351.89282502
  -exchange  EXHF       =         0.00000000
  -V(xc)+E(xc)   XCENC  =      -356.37357969
  PAW double counting   =      8302.31408553    -7573.04333701
  entropy T*S    EENTRO =         0.00000000
  eigenvalues    EBANDS =      -264.29085818
  atomic energy  EATOM  =      9716.95502315
  ---------------------------------------------------
  free energy    TOTEN  =       -59.18362032 eV

  energy without entropy =      -59.18362032  energy(sigma->0) =      -59.18362032


--------------------------------------------------------------------------------------------------------




----------------------------------------- Iteration    2(   6)  ---------------------------------------


    POTLOK:  cpu time    0.56: real time    0.55
    SETDIJ:  cpu time    0.07: real time    0.07
     EDDAV:  cpu time   57.89: real time   57.90
 BZINTS: Fermi energy:  0.020226;120.000000 electrons
         Band energy:-264.299048;  BLOECHL correction: -0.027536
       DOS:  cpu time    0.04: real time    0.04
    --------------------------------------------
      LOOP:  cpu time   58.56: real time   58.56

 eigenvalue-minimisations  :  1416
 total energy-change (2. order) :-0.6548544E-07  (-0.5338150E-06)
 number of electron     120.0000441 magnetization 
 augmentation part       50.8286204 magnetization 

 Free energy of the ion-electron system (eV)
  ---------------------------------------------------
  alpha Z        PSCENC =       574.70065014
  Ewald energy   TEWEN  =     22892.44722076
  -1/2 Hartree   DENC   =    -33351.88369921
  -exchange  EXHF       =         0.00000000
  -V(xc)+E(xc)   XCENC  =      -356.37355657
  PAW double counting   =      8302.33558216    -7573.06579285
  entropy T*S    EENTRO =         0.00000000
  eigenvalues    EBANDS =      -264.29904797
  atomic energy  EATOM  =      9716.95502315
  ---------------------------------------------------
  free energy    TOTEN  =       -59.18362039 eV

  energy without entropy =      -59.18362039  energy(sigma->0) =      -59.18362039


--------------------------------------------------------------------------------------------------------




 average (electrostatic) potential at core
  the test charge radii are     1.1199
  (the norm of the test charge is              1.0000)
       1 -51.0373       2 -51.5416       3 -51.5068       4 -51.0373       5 -51.5416
       6 -51.5068       7 -51.5068       8 -51.5415       9 -51.0373      10 -51.5068
      11 -51.5415      12 -51.0373
 
 
 
 E-fermi :   0.0202     XC(G=0):  -7.8107     alpha+bet : -6.1545


 k-point   1 :       0.0000    0.0000    0.0000
  band No.  band energies     occupation 
      1      -6.4802      2.00000
      2      -5.6694      2.00000
      3      -4.8533      2.00000
      4      -4.8005      2.00000
      5      -4.8005      2.00000
      6      -4.7674      2.00000
      7      -4.6126      2.00000
      8      -4.5510      2.00000
      9      -4.5510      2.00000
     10      -4.3137      2.00000
     11      -4.3137      2.00000
     12      -4.2977      2.00000
     13      -4.2618      2.00000
     14      -4.1118      2.00000
     15      -4.0074      2.00000
     16      -4.0074      2.00000
     17      -3.8088      2.00000
     18      -3.7049      2.00000
     19      -3.7049      2.00000
     20      -3.3172      2.00000
     21      -3.1987      2.00000
     22      -3.1987      2.00000
     23      -2.8869      2.00000
     24      -2.6695      2.00000
     25      -2.4712      2.00000
     26      -2.4712      2.00000
     27      -2.1793      2.00000
     28      -2.1793      2.00000
     29      -2.0398      2.00000
     30      -2.0398      2.00000
     31      -1.5945      2.00000
     32      -1.4294      2.00000
     33      -1.4294      2.00000
     34      -1.4107      2.00000
     35      -1.1642      2.00000
     36      -1.0565      2.00000
     37      -1.0565      2.00000
     38      -1.0438      2.00000
     39      -1.0339      2.00000
     40      -0.9159      2.00000
     41      -0.9159      2.00000
     42      -0.8034      2.00000
     43      -0.7375      2.00000
     44      -0.7375      2.00000
     45      -0.5342      2.00000
     46      -0.4178      2.00000
     47      -0.4178      2.00000
     48      -0.2671      2.00000
     49      -0.1259      2.00000
     50      -0.1259      2.00000
     51      -0.0959      2.00000
     52      -0.0959      2.00000
     53      -0.0918      2.00000
     54      -0.0918      2.00000
     55      -0.0135      2.00000
     56       0.0344      1.80003
     57       0.2058     -0.01123
     58       0.2058     -0.64930
     59       0.2746      0.00000
     60       0.2746      0.00000
     61       0.3270      0.00000
     62       0.3271      0.00000
     63       0.3833      0.00000
     64       0.6273      0.00000
     65       0.6273      0.00000
     66       1.9496      0.00000
     67       2.9638      0.00000
     68       4.0513      0.00000
     69       4.0513      0.00000
     70       5.1537      0.00000
     71       5.5236      0.00000
     72       5.5236      0.00000

 k-point   2 :       0.1429    0.0000    0.0000
  band No.  band energies     occupation 
      1      -6.2507      2.00000
      2      -5.4623      2.00000
      3      -4.6999      2.00000
      4      -4.6895      2.00000
      5      -4.6665      2.00000
      6      -4.5879      2.00000
      7      -4.4836      2.00000
      8      -4.4666      2.00000
      9      -4.4636      2.00000
     10      -4.1920      2.00000
     11      -4.1572      2.00000
     12      -4.1481      2.00000
     13      -4.1330      2.00000
     14      -3.9508      2.00000
     15      -3.9407      2.00000
     16      -3.9325      2.00000
     17      -3.7186      2.00000
     18      -3.5710      2.00000
     19      -3.5559      2.00000
     20      -3.2576      2.00000
     21      -3.2072      2.00000
     22      -3.1649      2.00000
     23      -2.8683      2.00000
     24      -2.5730      2.00000
     25      -2.5020      2.00000
     26      -2.3957      2.00000
     27      -2.2866      2.00000
     28      -2.2034      2.00000
     29      -2.1790      2.00000
     30      -2.0705      2.00000
     31      -1.9553      2.00000
     32      -1.5342      2.00000
     33      -1.4580      2.00000
     34      -1.3351      2.00000
     35      -1.2968      2.00000
     36      -1.2478      2.00000
     37      -1.1844      2.00000
     38      -1.1477      2.00000
     39      -1.0279      2.00000
     40      -1.0135      2.00000
     41      -0.9453      2.00000
     42      -0.8752      2.00000
     43      -0.7617      2.00000
     44      -0.6496      2.00000
     45      -0.5783      2.00000
     46      -0.5706      2.00000
     47      -0.5186      2.00000
     48      -0.4908      2.00000
     49      -0.2907      2.00000
     50      -0.2787      2.00000
     51      -0.2455      2.00000
     52      -0.1707      2.00000
     53      -0.1430      2.00000
     54      -0.1396      2.00000
     55      -0.1273      2.00000
     56      -0.1127      2.02529
     57      -0.1032      1.96034
     58      -0.0044      1.69253
     59       0.0652      0.44137
     60       0.0874      0.01082
     61       0.1308     -0.04395
     62       0.1997      0.00000
     63       0.3448      0.00000
     64       0.3912      0.00000
     65       1.0328      0.00000
     66       2.5198      0.00000
     67       2.9451      0.00000
     68       3.6321      0.00000
     69       4.2689      0.00000
     70       4.7867      0.00000
     71       5.3900      0.00000
     72       5.7490      0.00000

 k-point   3 :       0.2857    0.0000    0.0000
  band No.  band energies     occupation 
      1      -5.6069      2.00000
      2      -4.8927      2.00000
      3      -4.4181      2.00000
      4      -4.3176      2.00000
      5      -4.2976      2.00000
      6      -4.2248      2.00000
      7      -4.1712      2.00000
      8      -4.1124      2.00000
      9      -4.1009      2.00000
     10      -3.8767      2.00000
     11      -3.8178      2.00000
     12      -3.7741      2.00000
     13      -3.7634      2.00000
     14      -3.7540      2.00000
     15      -3.7177      2.00000
     16      -3.4760      2.00000
     17      -3.4601      2.00000
     18      -3.2725      2.00000
     19      -3.2011      2.00000
     20      -3.1584      2.00000
     21      -3.1498      2.00000
     22      -3.0873      2.00000
     23      -3.0439      2.00000
     24      -2.5127      2.00000
     25      -2.4868      2.00000
     26      -2.3443      2.00000
     27      -2.3392      2.00000
     28      -2.3274      2.00000
     29      -2.3161      2.00000
     30      -2.1951      2.00000
     31      -2.0743      2.00000
     32      -2.0436      2.00000
     33      -1.7568      2.00000
     34      -1.6933      2.00000
     35      -1.5915      2.00000
     36      -1.5315      2.00000
     37      -1.5017      2.00000
     38      -1.4052      2.00000
     39      -1.3175      2.00000
     40      -1.2643      2.00000
     41      -1.1218      2.00000
     42      -1.0252      2.00000
     43      -0.9045      2.00000
     44      -0.8457      2.00000
     45      -0.8380      2.00000
     46      -0.8367      2.00000
     47      -0.8364      2.00000
     48      -0.8169      2.00000
     49      -0.7328      2.00000
     50      -0.6737      2.00000
     51      -0.5518      2.00000
     52      -0.5059      2.00000
     53      -0.4757      2.00000
     54      -0.4552      2.00000
     55      -0.4178      2.00000
     56      -0.4063      2.00000
     57      -0.2833      2.00000
     58      -0.2806      2.00000
     59      -0.1859      2.16488
     60      -0.0838      2.18095
     61      -0.0758      1.97517
     62       0.1761      0.00000
     63       0.1843      0.00000
     64       0.7430      0.00000
     65       1.0414      0.00000
     66       2.1169      0.00000
     67       2.2651      0.00000
     68       3.5958      0.00000
     69       3.6632      0.00000
     70       4.8871      0.00000
     71       5.0141      0.00000
     72       6.1314      0.00000

 k-point   4 :       0.4286    0.0000    0.0000
  band No.  band energies     occupation 
      1      -4.7527      2.00000
      2      -4.2632      2.00000
      3      -4.1602      2.00000
      4      -3.9187      2.00000
      5      -3.8781      2.00000
      6      -3.8613      2.00000
      7      -3.6995      2.00000
      8      -3.6946      2.00000
      9      -3.5881      2.00000
     10      -3.4932      2.00000
     11      -3.4921      2.00000
     12      -3.4838      2.00000
     13      -3.4418      2.00000
     14      -3.3730      2.00000
     15      -3.3666      2.00000
     16      -3.3423      2.00000
     17      -3.2440      2.00000
     18      -3.2009      2.00000
     19      -3.1732      2.00000
     20      -3.1706      2.00000
     21      -3.0544      2.00000
     22      -2.8629      2.00000
     23      -2.8332      2.00000
     24      -2.7712      2.00000
     25      -2.7288      2.00000
     26      -2.7098      2.00000
     27      -2.6439      2.00000
     28      -2.4933      2.00000
     29      -2.3692      2.00000
     30      -2.2868      2.00000
     31      -2.0592      2.00000
     32      -2.0325      2.00000
     33      -1.9664      2.00000
     34      -1.9594      2.00000
     35      -1.6791      2.00000
     36      -1.6726      2.00000
     37      -1.5973      2.00000
     38      -1.4617      2.00000
     39      -1.4594      2.00000
     40      -1.4060      2.00000
     41      -1.4050      2.00000
     42      -1.3986      2.00000
     43      -1.3405      2.00000
     44      -1.3097      2.00000
     45      -1.2726      2.00000
     46      -1.2092      2.00000
     47      -1.0892      2.00000
     48      -1.0505      2.00000
     49      -1.0474      2.00000
     50      -0.9873      2.00000
     51      -0.9582      2.00000
     52      -0.9515      2.00000
     53      -0.8431      2.00000
     54      -0.8059      2.00000
     55      -0.7061      2.00000
     56      -0.6823      2.00000
     57      -0.6175      2.00000
     58      -0.2878      2.00000
     59      -0.2345      2.00000
     60      -0.2314      2.00000
     61      -0.1717      2.10642
     62       0.1546      0.00000
     63       0.1662      0.00000
     64       0.6534      0.00000
     65       0.6798      0.00000
     66       1.8343      0.00000
     67       1.8522      0.00000
     68       3.2195      0.00000
     69       3.3688      0.00000
     70       4.8107      0.00000
     71       4.9872      0.00000
     72       6.1921      0.00000

 k-point   5 :       0.1429    0.1429    0.0000
  band No.  band energies     occupation 
      1      -6.0358      2.00000
      2      -5.2912      2.00000
      3      -4.6110      2.00000
      4      -4.5570      2.00000
      5      -4.5570      2.00000
      6      -4.5079      2.00000
      7      -4.3912      2.00000
      8      -4.3912      2.00000
      9      -4.3118      2.00000
     10      -4.1008      2.00000
     11      -4.0361      2.00000
     12      -4.0361      2.00000
     13      -3.9359      2.00000
     14      -3.9180      2.00000
     15      -3.9160      2.00000
     16      -3.9160      2.00000
     17      -3.4665      2.00000
     18      -3.4253      2.00000
     19      -3.4253      2.00000
     20      -3.2014      2.00000
     21      -3.2014      2.00000
     22      -3.1039      2.00000
     23      -2.8184      2.00000
     24      -2.4932      2.00000
     25      -2.4867      2.00000
     26      -2.3739      2.00000
     27      -2.2793      2.00000
     28      -2.2396      2.00000
     29      -2.2396      2.00000
     30      -2.1286      2.00000
     31      -2.0776      2.00000
     32      -1.6553      2.00000
     33      -1.6523      2.00000
     34      -1.3636      2.00000
     35      -1.3636      2.00000
     36      -1.3056      2.00000
     37      -1.2172      2.00000
     38      -1.1433      2.00000
     39      -1.0905      2.00000
     40      -1.0704      2.00000
     41      -1.0466      2.00000
     42      -1.0466      2.00000
     43      -0.9558      2.00000
     44      -0.8566      2.00000
     45      -0.6790      2.00000
     46      -0.6790      2.00000
     47      -0.6026      2.00000
     48      -0.6021      2.00000
     49      -0.5121      2.00000
     50      -0.5121      2.00000
     51      -0.4404      2.00000
     52      -0.4182      2.00000
     53      -0.4182      2.00000
     54      -0.1932      2.00000
     55      -0.1178      2.00000
     56      -0.0640      2.00607
     57      -0.0639      1.94912
     58      -0.0394      1.91168
     59       0.0416      0.95960
     60       0.0416      0.32835
     61       0.0922      0.02443
     62       0.1893      0.00000
     63       0.2452      0.00000
     64       0.2452      0.00000
     65       1.3749      0.00000
     66       2.9387      0.00000
     67       3.6294      0.00000
     68       3.6294      0.00000
     69       4.1434      0.00000
     70       4.7517      0.00000
     71       4.7517      0.00000
     72       5.6335      0.00000

 k-point   6 :       0.2857    0.1429    0.0000
  band No.  band energies     occupation 
      1      -5.4395      2.00000
      2      -4.8467      2.00000
      3      -4.3200      2.00000
      4      -4.3010      2.00000
      5      -4.3007      2.00000
      6      -4.2220      2.00000
      7      -4.2004      2.00000
      8      -4.1381      2.00000
      9      -3.9034      2.00000
     10      -3.8520      2.00000
     11      -3.8505      2.00000
     12      -3.8356      2.00000
     13      -3.7810      2.00000
     14      -3.7194      2.00000
     15      -3.6572      2.00000
     16      -3.4847      2.00000
     17      -3.2165      2.00000
     18      -3.1450      2.00000
     19      -3.0919      2.00000
     20      -3.0579      2.00000
     21      -2.9874      2.00000
     22      -2.8929      2.00000
     23      -2.7734      2.00000
     24      -2.4703      2.00000
     25      -2.3791      2.00000
     26      -2.3120      2.00000
     27      -2.2908      2.00000
     28      -2.2610      2.00000
     29      -2.2479      2.00000
     30      -2.2101      2.00000
     31      -2.1478      2.00000
     32      -2.0781      2.00000
     33      -1.8922      2.00000
     34      -1.7931      2.00000
     35      -1.7109      2.00000
     36      -1.5724      2.00000
     37      -1.5638      2.00000
     38      -1.4648      2.00000
     39      -1.3915      2.00000
     40      -1.3696      2.00000
     41      -1.2216      2.00000
     42      -1.1984      2.00000
     43      -1.1961      2.00000
     44      -1.1656      2.00000
     45      -1.0810      2.00000
     46      -0.9951      2.00000
     47      -0.9192      2.00000
     48      -0.8778      2.00000
     49      -0.8518      2.00000
     50      -0.8055      2.00000
     51      -0.6607      2.00000
     52      -0.5790      2.00000
     53      -0.4769      2.00000
     54      -0.4462      2.00000
     55      -0.3546      2.00000
     56      -0.1991      2.00000
     57      -0.1129      2.00000
     58      -0.0987      2.00000
     59      -0.0954      2.07756
     60       0.0064      1.79988
     61       0.0565      0.32797
     62       0.1038      0.00000
     63       0.1086      0.00000
     64       0.7387      0.00000
     65       1.6997      0.00000
     66       2.2707      0.00000
     67       2.6252      0.00000
     68       3.7903      0.00000
     69       3.9190      0.00000
     70       4.9648      0.00000
     71       5.0868      0.00000
     72       5.2110      0.00000

 k-point   7 :       0.4286    0.1429    0.0000
  band No.  band energies     occupation 
      1      -4.6681      2.00000
      2      -4.3504      2.00000
      3      -4.2131      2.00000
      4      -4.0822      2.00000
      5      -4.0520      2.00000
      6      -3.9056      2.00000
      7      -3.8780      2.00000
      8      -3.8730      2.00000
      9      -3.7145      2.00000
     10      -3.6911      2.00000
     11      -3.6378      2.00000
     12      -3.4999      2.00000
     13      -3.4113      2.00000
     14      -3.3810      2.00000
     15      -3.2562      2.00000
     16      -3.2092      2.00000
     17      -3.1422      2.00000
     18      -3.1152      2.00000
     19      -2.9451      2.00000
     20      -2.8855      2.00000
     21      -2.8014      2.00000
     22      -2.7317      2.00000
     23      -2.6464      2.00000
     24      -2.6233      2.00000
     25      -2.5850      2.00000
     26      -2.4883      2.00000
     27      -2.4674      2.00000
     28      -2.3761      2.00000
     29      -2.2850      2.00000
     30      -2.2496      2.00000
     31      -2.1881      2.00000
     32      -2.0954      2.00000
     33      -2.0193      2.00000
     34      -1.9885      2.00000
     35      -1.8056      2.00000
     36      -1.7705      2.00000
     37      -1.7580      2.00000
     38      -1.7411      2.00000
     39      -1.6681      2.00000
     40      -1.6359      2.00000
     41      -1.6171      2.00000
     42      -1.5231      2.00000
     43      -1.4452      2.00000
     44      -1.2910      2.00000
     45      -1.2662      2.00000
     46      -1.2290      2.00000
     47      -1.0455      2.00000
     48      -1.0141      2.00000
     49      -0.9024      2.00000
     50      -0.8175      2.00000
     51      -0.7998      2.00000
     52      -0.7934      2.00000
     53      -0.5833      2.00000
     54      -0.5181      2.00000
     55      -0.4523      2.00000
     56      -0.3578      2.00000
     57      -0.3380      2.00000
     58      -0.2971      2.00000
     59      -0.1468      2.00000
     60      -0.0720      2.00000
     61      -0.0041      1.88632
     62       0.0424      0.00000
     63       0.1729      0.00000
     64       0.6017      0.00000
     65       0.8271      0.00000
     66       1.8248      0.00000
     67       1.8995      0.00000
     68       3.2445      0.00000
     69       3.4462      0.00000
     70       4.8365      0.00000
     71       5.1395      0.00000
     72       6.2470      0.00000

 k-point   8 :       0.2857    0.2857    0.0000
  band No.  band energies     occupation 
      1      -5.0112      2.00000
      2      -4.7406      2.00000
      3      -4.4350      2.00000
      4      -4.2436      2.00000
      5      -4.2216      2.00000
      6      -4.2216      2.00000
      7      -4.0784      2.00000
      8      -4.0784      2.00000
      9      -3.8779      2.00000
     10      -3.8300      2.00000
     11      -3.7925      2.00000
     12      -3.7925      2.00000
     13      -3.4719      2.00000
     14      -3.3735      2.00000
     15      -3.3734      2.00000
     16      -3.1181      2.00000
     17      -3.1181      2.00000
     18      -3.1095      2.00000
     19      -2.8106      2.00000
     20      -2.8106      2.00000
     21      -2.7992      2.00000
     22      -2.6471      2.00000
     23      -2.4376      2.00000
     24      -2.2911      2.00000
     25      -2.2655      2.00000
     26      -2.2612      2.00000
     27      -2.2290      2.00000
     28      -2.2290      2.00000
     29      -2.2161      2.00000
     30      -2.1917      2.00000
     31      -2.0738      2.00000
     32      -2.0738      2.00000
     33      -2.0327      2.00000
     34      -1.9717      2.00000
     35      -1.9583      2.00000
     36      -1.7784      2.00000
     37      -1.7784      2.00000
     38      -1.7427      2.00000
     39      -1.6476      2.00000
     40      -1.6476      2.00000
     41      -1.5963      2.00000
     42      -1.5626      2.00000
     43      -1.3364      2.00000
     44      -1.3159      2.00000
     45      -1.3159      2.00000
     46      -1.2709      2.00000
     47      -0.8741      2.00000
     48      -0.7496      2.00000
     49      -0.7495      2.00000
     50      -0.7332      2.00000
     51      -0.6645      2.00000
     52      -0.5957      2.00000
     53      -0.4069      2.00000
     54      -0.4067      2.00000
     55      -0.4067      2.00000
     56      -0.2741      2.00000
     57      -0.0586      2.00000
     58      -0.0131      2.00000
     59      -0.0131      1.99206
     60       0.0043      1.98774
     61       0.0488     -0.02992
     62       0.0489      0.00000
     63       0.0839      0.00000
     64       0.9769      0.00000
     65       2.7822      0.00000
     66       2.8777      0.00000
     67       2.8777      0.00000
     68       3.4497      0.00000
     69       3.4497      0.00000
     70       4.0386      0.00000
     71       4.0386      0.00000
     72       4.5776      0.00000

 k-point   9 :       0.4286    0.2857    0.0000
  band No.  band energies     occupation 
      1      -4.6263      2.00000
      2      -4.6059      2.00000
      3      -4.4311      2.00000
      4      -4.4252      2.00000
      5      -4.2946      2.00000
      6      -4.1026      2.00000
      7      -4.0405      2.00000
      8      -4.0279      2.00000
      9      -3.6760      2.00000
     10      -3.6324      2.00000
     11      -3.5582      2.00000
     12      -3.4452      2.00000
     13      -3.3268      2.00000
     14      -3.2231      2.00000
     15      -3.0496      2.00000
     16      -3.0298      2.00000
     17      -2.9485      2.00000
     18      -2.8468      2.00000
     19      -2.8061      2.00000
     20      -2.6840      2.00000
     21      -2.6577      2.00000
     22      -2.6485      2.00000
     23      -2.6092      2.00000
     24      -2.4987      2.00000
     25      -2.4778      2.00000
     26      -2.4093      2.00000
     27      -2.3795      2.00000
     28      -2.3774      2.00000
     29      -2.2796      2.00000
     30      -2.1584      2.00000
     31      -2.1233      2.00000
     32      -2.0787      2.00000
     33      -2.0696      2.00000
     34      -2.0413      2.00000
     35      -1.9723      2.00000
     36      -1.9216      2.00000
     37      -1.8256      2.00000
     38      -1.7984      2.00000
     39      -1.7299      2.00000
     40      -1.6156      2.00000
     41      -1.4473      2.00000
     42      -1.4233      2.00000
     43      -1.3652      2.00000
     44      -1.3281      2.00000
     45      -1.2541      2.00000
     46      -1.0055      2.00000
     47      -0.9216      2.00000
     48      -0.7374      2.00000
     49      -0.6758      2.00000
     50      -0.6485      2.00000
     51      -0.5929      2.00000
     52      -0.5453      2.00000
     53      -0.3427      2.00000
     54      -0.2426      2.00000
     55      -0.1723      2.00000
     56      -0.1567      2.00000
     57      -0.1560      2.00000
     58      -0.1372      2.00000
     59      -0.0683      2.00000
     60      -0.0672      2.00000
     61       0.0316      0.19435
     62       0.0495      0.00000
     63       0.4765      0.00000
     64       1.1632      0.00000
     65       1.4156      0.00000
     66       1.8303      0.00000
     67       2.0434      0.00000
     68       3.1077      0.00000
     69       3.5885      0.00000
     70       4.1052      0.00000
     71       4.1417      0.00000
     72       5.1257      0.00000

 k-point  10 :       0.4286    0.4286    0.0000
  band No.  band energies     occupation 
      1      -4.7321      2.00000
      2      -4.7299      2.00000
      3      -4.6715      2.00000
      4      -4.6715      2.00000
      5      -4.2575      2.00000
      6      -4.2118      2.00000
      7      -4.1675      2.00000
      8      -4.1675      2.00000
      9      -3.5861      2.00000
     10      -3.5741      2.00000
     11      -3.4698      2.00000
     12      -3.4698      2.00000
     13      -3.0085      2.00000
     14      -2.9465      2.00000
     15      -2.9465      2.00000
     16      -2.8829      2.00000
     17      -2.7893      2.00000
     18      -2.7892      2.00000
     19      -2.6679      2.00000
     20      -2.6396      2.00000
     21      -2.6265      2.00000
     22      -2.5910      2.00000
     23      -2.5910      2.00000
     24      -2.5331      2.00000
     25      -2.5331      2.00000
     26      -2.4768      2.00000
     27      -2.4747      2.00000
     28      -2.4689      2.00000
     29      -2.2657      2.00000
     30      -2.2657      2.00000
     31      -2.2028      2.00000
     32      -2.1447      2.00000
     33      -2.0620      2.00000
     34      -2.0550      2.00000
     35      -2.0165      2.00000
     36      -2.0165      2.00000
     37      -1.5622      2.00000
     38      -1.5328      2.00000
     39      -1.5077      2.00000
     40      -1.5077      2.00000
     41      -1.4226      2.00000
     42      -1.3590      2.00000
     43      -1.3590      2.00000
     44      -1.2676      2.00000
     45      -0.9449      2.00000
     46      -0.6485      2.00000
     47      -0.6485      2.00000
     48      -0.6039      2.00000
     49      -0.5638      2.00000
     50      -0.5484      2.00000
     51      -0.5484      2.00000
     52      -0.3767      2.00000
     53      -0.2106      2.00000
     54      -0.1755      2.00000
     55      -0.1755      2.00000
     56      -0.1628      2.00000
     57      -0.0776      2.00000
     58      -0.0604      2.00000
     59      -0.0604      2.00000
     60       0.0134      2.00000
     61       0.6631      0.00000
     62       0.8134      0.00000
     63       1.0626      0.00000
     64       1.9684      0.00000
     65       2.0200      0.00000
     66       2.0200      0.00000
     67       2.3160      0.00000
     68       2.3160      0.00000
     69       2.4347      0.00000
     70       2.4347      0.00000
     71       3.2755      0.00000
     72       3.6975      0.00000


--------------------------------------------------------------------------------------------------------


 soft charge-density along one line, spin component           1
         0         1         2         3         4         5         6         7         8         9
 total charge-density along one line
 
 pseudopotential strength for first ion, spin component:           1
-11.492   0.000   0.000   0.000   0.000   0.124   0.000   0.000
  0.000 -11.391   0.000   0.000   0.000   0.000   0.108   0.000
  0.000   0.000 -11.364   0.000   0.000   0.000   0.000   0.104
  0.000   0.000   0.000 -11.391   0.000   0.000   0.000   0.000
  0.000   0.000   0.000   0.000 -11.435   0.000   0.000   0.000
  0.124   0.000   0.000   0.000   0.000   0.321   0.000   0.000
  0.000   0.108   0.000   0.000   0.000   0.000   0.324   0.000
  0.000   0.000   0.104   0.000   0.000   0.000   0.000   0.325
  0.000   0.000   0.000   0.108   0.000   0.000   0.000   0.000
  0.000   0.000   0.000   0.000   0.116   0.000   0.000   0.000
  0.000   0.000  -0.021   0.000   0.000   0.000   0.000   0.003
  0.000   0.000   0.002   0.000   0.000   0.000   0.000   0.000
  0.000  -0.016   0.000   0.000   0.000   0.000   0.003   0.000
  0.000   0.000  -0.019   0.000   0.000   0.000   0.000   0.003
  0.000   0.000   0.000  -0.016   0.000   0.000   0.000   0.000
  0.000   0.014   0.000   0.000   0.000   0.000  -0.002   0.000
  0.000   0.000   0.015   0.000   0.000   0.000   0.000  -0.002
  0.000   0.000   0.000   0.014   0.000   0.000   0.000   0.000
 total augmentation occupancy for first ion, spin component:           1
  1.648   0.000   0.000   0.000   0.000   0.185   0.000   0.000   0.000   0.000   0.000   0.000   0.000   0.000   0.000   0.000
  0.000   1.826   0.000   0.000   0.000   0.000   0.079   0.000   0.000   0.000   0.000   0.000  -0.012   0.000   0.000  -0.022
  0.000   0.000   1.859   0.000   0.000   0.000   0.000   0.059   0.000   0.000   0.016  -0.045   0.000   0.008   0.000   0.000
  0.000   0.000   0.000   1.826   0.000   0.000   0.000   0.000   0.079   0.000   0.000   0.000   0.000   0.000  -0.012   0.000
  0.000   0.000   0.000   0.000   1.860   0.000   0.000   0.000   0.000   0.045   0.000   0.000   0.000   0.000   0.000   0.000
  0.185   0.000   0.000   0.000   0.000   0.102   0.000   0.000   0.000   0.000   0.000   0.000   0.000   0.000   0.000   0.000
  0.000   0.079   0.000   0.000   0.000   0.000   0.094   0.000   0.000   0.000   0.000   0.000   0.050   0.000   0.000  -0.002
  0.000   0.000   0.059   0.000   0.000   0.000   0.000   0.090   0.000   0.000  -0.082   0.020   0.000   0.036   0.000   0.000
  0.000   0.000   0.000   0.079   0.000   0.000   0.000   0.000   0.094   0.000   0.000   0.000   0.000   0.000   0.050   0.000
  0.000   0.000   0.000   0.000   0.045   0.000   0.000   0.000   0.000   0.099   0.000   0.000   0.000   0.000   0.000   0.000
  0.000   0.000   0.016   0.000   0.000   0.000   0.000  -0.082   0.000   0.000   0.953  -0.306   0.000   0.093   0.000   0.000
  0.000   0.000  -0.045   0.000   0.000   0.000   0.000   0.020   0.000   0.000  -0.306   0.113   0.000  -0.045   0.000   0.000
  0.000  -0.012   0.000   0.000   0.000   0.000   0.050   0.000   0.000   0.000   0.000   0.000   0.096   0.000   0.000  -0.002
  0.000   0.000   0.008   0.000   0.000   0.000   0.000   0.036   0.000   0.000   0.093  -0.045   0.000   0.058   0.000   0.000
  0.000   0.000   0.000  -0.012   0.000   0.000   0.000   0.000   0.050   0.000   0.000   0.000   0.000   0.000   0.096   0.000
  0.000  -0.022   0.000   0.000   0.000   0.000  -0.002   0.000   0.000   0.000   0.000   0.000  -0.002   0.000   0.000   0.000
  0.000   0.000  -0.028   0.000   0.000   0.000   0.000  -0.001   0.000   0.000  -0.005   0.003   0.000  -0.001   0.000   0.000
  0.000   0.000   0.000  -0.022   0.000   0.000   0.000   0.000  -0.002   0.000   0.000   0.000   0.000   0.000  -0.002   0.000


------------------------ aborting loop because EDIFF is reached ----------------------------------------


    CHARGE:  cpu time    1.72: real time    1.72
    FORLOC:  cpu time    0.06: real time    0.06
    FORNL :  cpu time   26.37: real time   26.37
    STRESS:  cpu time   69.02: real time   69.03
    FORCOR:  cpu time    0.59: real time    0.59
    FORHAR:  cpu time    0.19: real time    0.19
    MIXING:  cpu time    0.02: real time    0.02

  FORCE on cell =-STRESS in cart. coord.  units (eV):
  Direction    XX          YY          ZZ          XY          YZ          ZX
  --------------------------------------------------------------------------------------
  Alpha Z   574.70065   574.70065   574.70065
  Ewald   29470.51949 29470.51949-36048.60559     0.00000     0.00000     0.00000
  Hartree 32343.05484 32343.05484-31334.10488     0.00000     0.00000     0.00000
  E(xc)    -627.12587  -627.12587  -629.08263     0.00000     0.00000     0.00000
  Local  -63263.25459-63263.25459 65922.13371     0.00000     0.00000     0.00000
  n-local  -647.99982  -640.28427  -647.27502     8.98813     0.00000     0.00000
  augment   513.75257   513.75257   518.77759    -0.00003    -0.00007    -0.00005
  Kinetic  1638.84438  1616.27580  1642.15727     7.15212     0.00000     0.00000
  Fock        0.00000     0.00000     0.00000     0.00000     0.00000     0.00000
  -------------------------------------------------------------------------------------
  Total      -4.93488    -4.93488    -1.29891     0.00000     0.00000     0.00000
  in kB     -23.17696   -23.17696    -6.10039     0.00000     0.00000     0.00000
  external pressure =      -17.48 kB  Pullay stress =        0.00 kB


 VOLUME and BASIS-vectors are now :
 -----------------------------------------------------------------------------
  energy-cutoff  :      415.00
  volume of cell :      341.14
      direct lattice vectors                 reciprocal lattice vectors
     3.951020398  0.000000000  0.000000000     0.253099174  0.000000000  0.000000000
     0.000000000  3.951020398  0.000000000     0.000000000  0.253099174  0.000000000
     0.000000000  0.000000000 21.853061195     0.000000000  0.000000000  0.045760179

  length of vectors
     3.951020398  3.951020398 21.853061195     0.253099174  0.253099174  0.045760179


 FORCES acting on ions
    electron-ion (+dipol)            ewald-force                    non-local-force                 convergence-correction
 -----------------------------------------------------------------------------------------------
   -.909E-14 0.181E-13 0.261E+04   0.330E-13 -.720E-15 -.261E+04   0.827E-24 0.000E+00 -.177E+01   -.503E-14 -.287E-13 0.721E-02
   0.992E-14 0.154E-13 0.530E+03   0.288E-13 -.918E-14 -.530E+03   0.517E-24 0.165E-23 0.114E+00   0.139E-13 0.133E-13 -.139E-01
   0.108E-14 -.270E-14 -.159E+04   0.884E-14 -.194E-14 0.159E+04   0.000E+00 0.207E-24 -.124E+00   -.330E-15 -.210E-13 0.258E-01
   -.753E-13 -.392E-13 0.261E+04   0.482E-14 0.121E-13 -.261E+04   0.000E+00 0.000E+00 -.177E+01   0.732E-14 -.122E-13 0.721E-02
   -.678E-13 -.408E-13 0.530E+03   0.404E-14 0.440E-14 -.530E+03   -.114E-23 0.000E+00 0.114E+00   0.234E-13 0.239E-13 -.139E-01
   -.745E-13 -.453E-13 -.159E+04   -.148E-13 0.119E-13 0.159E+04   0.827E-24 0.000E+00 -.124E+00   0.110E-13 0.512E-13 0.258E-01
   -.875E-13 0.674E-14 0.159E+04   -.154E-13 -.812E-14 -.159E+04   -.620E-24 0.414E-24 0.124E+00   -.487E-14 -.188E-13 -.258E-01
   -.519E-13 0.198E-13 -.530E+03   0.246E-14 -.134E-13 0.530E+03   0.165E-23 0.000E+00 -.114E+00   -.128E-13 0.449E-13 0.139E-01
   -.529E-13 0.816E-14 -.261E+04   0.199E-13 -.686E-14 0.261E+04   -.307E-24 -.414E-24 0.177E+01   -.987E-14 0.940E-14 -.721E-02
   -.200E-14 -.191E-12 0.159E+04   -.427E-13 0.484E-14 -.159E+04   0.517E-25 0.414E-24 0.124E+00   -.127E-13 -.206E-13 -.258E-01
   0.206E-14 -.142E-13 -.530E+03   -.260E-13 -.751E-15 0.530E+03   -.414E-24 0.124E-23 -.114E+00   -.167E-13 0.439E-13 0.139E-01
   -.717E-15 -.267E-12 -.261E+04   -.824E-14 0.597E-14 0.261E+04   -.310E-24 -.414E-24 0.177E+01   -.405E-14 -.250E-14 -.721E-02
 -----------------------------------------------------------------------------------------------
   -.409E-12 -.532E-12 -.241E-03   -.523E-14 -.173E-14 0.182E-11   0.109E-23 0.310E-23 -.111E-14   -.108E-13 0.829E-13 0.378E-05
 
 
 POSITION                                       TOTAL-FORCE (eV/Angst)
 -----------------------------------------------------------------------------------
      0.00000      0.00000      0.00050         0.000000      0.000000      0.101576
      0.00000      0.00000      3.95110         0.000000      0.000000      0.013952
      0.00000      0.00000      7.90252         0.000000      0.000000      0.094328
      1.97551      1.97551      0.00050         0.000000      0.000000      0.101576
      1.97551      1.97551      3.95110         0.000000      0.000000      0.013952
      1.97551      1.97551      7.90252         0.000000      0.000000      0.094328
      1.97551      0.00000      1.97504         0.000000      0.000000     -0.094328
      1.97551      0.00000      5.92645         0.000000      0.000000     -0.013952
      1.97551      0.00000      9.87705         0.000000      0.000000     -0.101576
      0.00000      1.97551      1.97504         0.000000      0.000000     -0.094328
      0.00000      1.97551      5.92645         0.000000      0.000000     -0.013952
      0.00000      1.97551      9.87705         0.000000      0.000000     -0.101576
 -----------------------------------------------------------------------------------
    total drift:                                0.000000      0.000000     -0.000237


--------------------------------------------------------------------------------------------------------



  FREE ENERGIE OF THE ION-ELECTRON SYSTEM (eV)
  ---------------------------------------------------
  free  energy   TOTEN  =       -59.183620 eV

  energy  without entropy=      -59.183620  energy(sigma->0) =      -59.183620
 
 d Force = 0.3930217E-03[ 0.387E-03, 0.399E-03]  d Energy = 0.3712876E-03 0.217E-04
 d Force =-0.2366145E+01[-0.237E+01,-0.237E+01]  d Ewald  =-0.2366145E+01 0.473E-07


--------------------------------------------------------------------------------------------------------


    POTLOK:  cpu time    0.64: real time    0.63


--------------------------------------------------------------------------------------------------------


 Steepest descent step on ions:
 trial-energy change:   -0.000371  1 .order   -0.000393   -0.000399   -0.000387
  (g-gl).g = 0.399E-03      g.g   = 0.399E-03  gl.gl    = 0.000E+00
 g(Force)  = 0.399E-03   g(Stress)= 0.000E+00 ortho     = 0.000E+00
 gamma     =   0.00000
 trial     =   1.00000
 opt step  =   4.00000  (harmonic =  31.56783) maximal distance =0.00200170
 next E    =   -59.189552   (d E  =  -0.00630)


--------------------------------------------------------------------------------------------------------


    WAVPRE:  cpu time    0.12: real time    0.12
    FEWALD:  cpu time    0.00: real time    0.00
    ORTHCH:  cpu time    8.51: real time    8.51
     LOOP+:  cpu time  498.78: real time  498.88


----------------------------------------- Iteration    3(   1)  ---------------------------------------


    POTLOK:  cpu time    0.56: real time    0.55
    SETDIJ:  cpu time    0.07: real time    0.07
     EDDAV:  cpu time   58.80: real time   58.80
 BZINTS: Fermi energy:  0.020789;120.000000 electrons
         Band energy:-264.367566;  BLOECHL correction: -0.027442
       DOS:  cpu time    0.04: real time    0.04
    CHARGE:  cpu time    1.74: real time    1.74
    MIXING:  cpu time    0.02: real time    0.02
    --------------------------------------------
      LOOP:  cpu time   61.22: real time   61.22

 eigenvalue-minimisations  :  1440
 total energy-change (2. order) :-0.7241995E-03  (-0.1073016E-01)
 number of electron     120.0000443 magnetization 
 augmentation part       50.8276739 magnetization 

 Broyden mixing:
  rms(total) = 0.47730E-02    rms(broyden)= 0.47716E-02
  rms(prec ) = 0.53647E-02
  weight for this iteration     100.00

 Free energy of the ion-electron system (eV)
  ---------------------------------------------------
  alpha Z        PSCENC =       574.70065014
  Ewald energy   TEWEN  =     22899.55014591
  -1/2 Hartree   DENC   =    -33358.92794879
  -exchange  EXHF       =         0.00000000
  -V(xc)+E(xc)   XCENC  =      -356.36323689
  PAW double counting   =      8302.36232903    -7573.09374110
  entropy T*S    EENTRO =         0.00000000
  eigenvalues    EBANDS =      -264.36756597
  atomic energy  EATOM  =      9716.95502315
  ---------------------------------------------------
  free energy    TOTEN  =       -59.18434452 eV

  energy without entropy =      -59.18434452  energy(sigma->0) =      -59.18434452


--------------------------------------------------------------------------------------------------------




----------------------------------------- Iteration    3(   2)  ---------------------------------------


    POTLOK:  cpu time    0.55: real time    0.55
    SETDIJ:  cpu time    0.08: real time    0.07
     EDDAV:  cpu time   79.97: real time   79.99
 BZINTS: Fermi energy:  0.023294;120.000000 electrons
         Band energy:-264.079816;  BLOECHL correction: -0.027803
       DOS:  cpu time    0.04: real time    0.04
    CHARGE:  cpu time    1.74: real time    1.73
    MIXING:  cpu time    0.02: real time    0.02
    --------------------------------------------
      LOOP:  cpu time   82.39: real time   82.40

 eigenvalue-minimisations  :  2128
 total energy-change (2. order) :-0.5282582E-03  (-0.3948676E-03)
 number of electron     120.0000443 magnetization 
 augmentation part       50.8255657 magnetization 

 Broyden mixing:
  rms(total) = 0.11436E-01    rms(broyden)= 0.11435E-01
  rms(prec ) = 0.16886E-01
  weight for this iteration     100.00

 eigenvalues of (default mixing * dielectric matrix)
  average eigenvalue GAMMA=   0.2665
  0.2665

 Free energy of the ion-electron system (eV)
  ---------------------------------------------------
  alpha Z        PSCENC =       574.70065014
  Ewald energy   TEWEN  =     22899.55014591
  -1/2 Hartree   DENC   =    -33359.20459215
  -exchange  EXHF       =         0.00000000
  -V(xc)+E(xc)   XCENC  =      -356.36507793
  PAW double counting   =      8302.42752711    -7573.16873314
  entropy T*S    EENTRO =         0.00000000
  eigenvalues    EBANDS =      -264.07981588
  atomic energy  EATOM  =      9716.95502315
  ---------------------------------------------------
  free energy    TOTEN  =       -59.18487278 eV

  energy without entropy =      -59.18487278  energy(sigma->0) =      -59.18487278


--------------------------------------------------------------------------------------------------------




----------------------------------------- Iteration    3(   3)  ---------------------------------------


    POTLOK:  cpu time    0.55: real time    0.55
    SETDIJ:  cpu time    0.07: real time    0.07
     EDDAV:  cpu time   70.32: real time   70.33
 BZINTS: Fermi energy:  0.019871;120.000000 electrons
         Band energy:-264.455437;  BLOECHL correction: -0.027261
       DOS:  cpu time    0.04: real time    0.04
    CHARGE:  cpu time    1.70: real time    1.71
    MIXING:  cpu time    0.02: real time    0.02
    --------------------------------------------
      LOOP:  cpu time   72.71: real time   72.72

 eigenvalue-minimisations  :  1816
 total energy-change (2. order) : 0.2382974E-03  (-0.9969235E-04)
 number of electron     120.0000443 magnetization 
 augmentation part       50.8288082 magnetization 

 Broyden mixing:
  rms(total) = 0.99232E-02    rms(broyden)= 0.99217E-02
  rms(prec ) = 0.14365E-01
  weight for this iteration     100.00

 eigenvalues of (default mixing * dielectric matrix)
  average eigenvalue GAMMA=   0.2824
  0.1023  0.4626

 Free energy of the ion-electron system (eV)
  ---------------------------------------------------
  alpha Z        PSCENC =       574.70065014
  Ewald energy   TEWEN  =     22899.55014591
  -1/2 Hartree   DENC   =    -33358.82775886
  -exchange  EXHF       =         0.00000000
  -V(xc)+E(xc)   XCENC  =      -356.36485806
  PAW double counting   =      8302.40569468    -7573.14809473
  entropy T*S    EENTRO =         0.00000000
  eigenvalues    EBANDS =      -264.45543670
  atomic energy  EATOM  =      9716.95502315
  ---------------------------------------------------
  free energy    TOTEN  =       -59.18463448 eV

  energy without entropy =      -59.18463448  energy(sigma->0) =      -59.18463448


--------------------------------------------------------------------------------------------------------




----------------------------------------- Iteration    3(   4)  ---------------------------------------


    POTLOK:  cpu time    0.56: real time    0.55
    SETDIJ:  cpu time    0.07: real time    0.07
     EDDAV:  cpu time   78.32: real time   78.33
 BZINTS: Fermi energy:  0.020559;120.000000 electrons
         Band energy:-264.381732;  BLOECHL correction: -0.027483
       DOS:  cpu time    0.04: real time    0.04
    CHARGE:  cpu time    1.70: real time    1.70
    MIXING:  cpu time    0.02: real time    0.02
    --------------------------------------------
      LOOP:  cpu time   80.71: real time   80.71

 eigenvalue-minimisations  :  2080
 total energy-change (2. order) : 0.5137048E-05  (-0.2779665E-04)
 number of electron     120.0000443 magnetization 
 augmentation part       50.8279085 magnetization 

 Broyden mixing:
  rms(total) = 0.33349E-02    rms(broyden)= 0.33333E-02
  rms(prec ) = 0.36786E-02
  weight for this iteration     100.00

 eigenvalues of (default mixing * dielectric matrix)
  average eigenvalue GAMMA=   0.2510
  0.3232  0.3232  0.1064

 Free energy of the ion-electron system (eV)
  ---------------------------------------------------
  alpha Z        PSCENC =       574.70065014
  Ewald energy   TEWEN  =     22899.55014591
  -1/2 Hartree   DENC   =    -33358.90007535
  -exchange  EXHF       =         0.00000000
  -V(xc)+E(xc)   XCENC  =      -356.36483262
  PAW double counting   =      8302.42543639    -7573.16924527
  entropy T*S    EENTRO =         0.00000000
  eigenvalues    EBANDS =      -264.38173169
  atomic energy  EATOM  =      9716.95502315
  ---------------------------------------------------
  free energy    TOTEN  =       -59.18462935 eV

  energy without entropy =      -59.18462935  energy(sigma->0) =      -59.18462935


--------------------------------------------------------------------------------------------------------




----------------------------------------- Iteration    3(   5)  ---------------------------------------


    POTLOK:  cpu time    0.55: real time    0.55
    SETDIJ:  cpu time    0.07: real time    0.07
     EDDAV:  cpu time   78.90: real time   78.91
 BZINTS: Fermi energy:  0.020721;120.000000 electrons
         Band energy:-264.367870;  BLOECHL correction: -0.027476
       DOS:  cpu time    0.04: real time    0.04
    CHARGE:  cpu time    1.74: real time    1.74
    MIXING:  cpu time    0.02: real time    0.02
    --------------------------------------------
      LOOP:  cpu time   81.33: real time   81.33

 eigenvalue-minimisations  :  2096
 total energy-change (2. order) : 0.1869930E-04  (-0.2766161E-05)
 number of electron     120.0000443 magnetization 
 augmentation part       50.8278862 magnetization 

 Broyden mixing:
  rms(total) = 0.22820E-02    rms(broyden)= 0.22819E-02
  rms(prec ) = 0.24789E-02
  weight for this iteration     100.00

 eigenvalues of (default mixing * dielectric matrix)
  average eigenvalue GAMMA=   0.6374
  1.0981  1.0981  0.1040  0.2493

 Free energy of the ion-electron system (eV)
  ---------------------------------------------------
  alpha Z        PSCENC =       574.70065014
  Ewald energy   TEWEN  =     22899.55014591
  -1/2 Hartree   DENC   =    -33358.91329171
  -exchange  EXHF       =         0.00000000
  -V(xc)+E(xc)   XCENC  =      -356.36488794
  PAW double counting   =      8302.43987620    -7573.18425619
  entropy T*S    EENTRO =         0.00000000
  eigenvalues    EBANDS =      -264.36787020
  atomic energy  EATOM  =      9716.95502315
  ---------------------------------------------------
  free energy    TOTEN  =       -59.18461065 eV

  energy without entropy =      -59.18461065  energy(sigma->0) =      -59.18461065


--------------------------------------------------------------------------------------------------------




----------------------------------------- Iteration    3(   6)  ---------------------------------------


    POTLOK:  cpu time    0.55: real time    0.55
    SETDIJ:  cpu time    0.07: real time    0.07
     EDDAV:  cpu time   66.18: real time   66.19
 BZINTS: Fermi energy:  0.020606;120.000000 electrons
         Band energy:-264.385623;  BLOECHL correction: -0.027478
       DOS:  cpu time    0.04: real time    0.04
    CHARGE:  cpu time    1.72: real time    1.72
    MIXING:  cpu time    0.02: real time    0.02
    --------------------------------------------
      LOOP:  cpu time   68.59: real time   68.60

 eigenvalue-minimisations  :  1680
 total energy-change (2. order) : 0.4734073E-05  (-0.2873803E-05)
 number of electron     120.0000443 magnetization 
 augmentation part       50.8278422 magnetization 

 Broyden mixing:
  rms(total) = 0.96189E-03    rms(broyden)= 0.96185E-03
  rms(prec ) = 0.10357E-02
  weight for this iteration     100.00

 eigenvalues of (default mixing * dielectric matrix)
  average eigenvalue GAMMA=   0.9142
  2.5849  0.8152  0.8152  0.1041  0.2516

 Free energy of the ion-electron system (eV)
  ---------------------------------------------------
  alpha Z        PSCENC =       574.70065014
  Ewald energy   TEWEN  =     22899.55014591
  -1/2 Hartree   DENC   =    -33358.89232465
  -exchange  EXHF       =         0.00000000
  -V(xc)+E(xc)   XCENC  =      -356.36474138
  PAW double counting   =      8302.52227611    -7573.27001193
  entropy T*S    EENTRO =         0.00000000
  eigenvalues    EBANDS =      -264.38562326
  atomic energy  EATOM  =      9716.95502315
  ---------------------------------------------------
  free energy    TOTEN  =       -59.18460591 eV

  energy without entropy =      -59.18460591  energy(sigma->0) =      -59.18460591


--------------------------------------------------------------------------------------------------------




----------------------------------------- Iteration    3(   7)  ---------------------------------------


    POTLOK:  cpu time    0.55: real time    0.55
    SETDIJ:  cpu time    0.08: real time    0.07
     EDDAV:  cpu time   74.87: real time   74.90
 BZINTS: Fermi energy:  0.020518;120.000000 electrons
         Band energy:-264.396581;  BLOECHL correction: -0.027480
       DOS:  cpu time    0.04: real time    0.04
    CHARGE:  cpu time    1.74: real time    1.74
    MIXING:  cpu time    0.02: real time    0.02
    --------------------------------------------
      LOOP:  cpu time   77.30: real time   77.33

 eigenvalue-minimisations  :  1960
 total energy-change (2. order) :-0.2528428E-05  (-0.1779754E-05)
 number of electron     120.0000443 magnetization 
 augmentation part       50.8278523 magnetization 

 Broyden mixing:
  rms(total) = 0.38218E-03    rms(broyden)= 0.38206E-03
  rms(prec ) = 0.40791E-03
  weight for this iteration     100.00

 eigenvalues of (default mixing * dielectric matrix)
  average eigenvalue GAMMA=   0.9211
  2.4831  0.9677  0.9677  0.1041  0.2513  0.7526

 Free energy of the ion-electron system (eV)
  ---------------------------------------------------
  alpha Z        PSCENC =       574.70065014
  Ewald energy   TEWEN  =     22899.55014591
  -1/2 Hartree   DENC   =    -33358.87708534
  -exchange  EXHF       =         0.00000000
  -V(xc)+E(xc)   XCENC  =      -356.36480847
  PAW double counting   =      8302.60448871    -7573.35644120
  entropy T*S    EENTRO =         0.00000000
  eigenvalues    EBANDS =      -264.39658134
  atomic energy  EATOM  =      9716.95502315
  ---------------------------------------------------
  free energy    TOTEN  =       -59.18460844 eV

  energy without entropy =      -59.18460844  energy(sigma->0) =      -59.18460844


--------------------------------------------------------------------------------------------------------




----------------------------------------- Iteration    3(   8)  ---------------------------------------


    POTLOK:  cpu time    0.55: real time    0.55
    SETDIJ:  cpu time    0.07: real time    0.07
     EDDAV:  cpu time   38.35: real time   38.36
 BZINTS: Fermi energy:  0.020483;120.000000 electrons
         Band energy:-264.400006;  BLOECHL correction: -0.027481
       DOS:  cpu time    0.04: real time    0.04
    --------------------------------------------
      LOOP:  cpu time   39.02: real time   39.02

 eigenvalue-minimisations  :   776
 total energy-change (2. order) :-0.1950175E-06  (-0.5232135E-07)
 number of electron     120.0000443 magnetization 
 augmentation part       50.8278523 magnetization 

 Free energy of the ion-electron system (eV)
  ---------------------------------------------------
  alpha Z        PSCENC =       574.70065014
  Ewald energy   TEWEN  =     22899.55014591
  -1/2 Hartree   DENC   =    -33358.87362146
  -exchange  EXHF       =         0.00000000
  -V(xc)+E(xc)   XCENC  =      -356.36489448
  PAW double counting   =      8302.59740721    -7573.34931292
  entropy T*S    EENTRO =         0.00000000
  eigenvalues    EBANDS =      -264.40000617
  atomic energy  EATOM  =      9716.95502315
  ---------------------------------------------------
  free energy    TOTEN  =       -59.18460864 eV

  energy without entropy =      -59.18460864  energy(sigma->0) =      -59.18460864


--------------------------------------------------------------------------------------------------------




 average (electrostatic) potential at core
  the test charge radii are     1.1199
  (the norm of the test charge is              1.0000)
       1 -51.0396       2 -51.5406       3 -51.5075       4 -51.0396       5 -51.5406
       6 -51.5075       7 -51.5075       8 -51.5405       9 -51.0396      10 -51.5075
      11 -51.5405      12 -51.0396
 
 
 
 E-fermi :   0.0205     XC(G=0):  -7.8065     alpha+bet : -6.1545


 k-point   1 :       0.0000    0.0000    0.0000
  band No.  band energies     occupation 
      1      -6.4796      2.00000
      2      -5.6713      2.00000
      3      -4.8522      2.00000
      4      -4.7998      2.00000
      5      -4.7998      2.00000
      6      -4.7691      2.00000
      7      -4.6118      2.00000
      8      -4.5502      2.00000
      9      -4.5502      2.00000
     10      -4.3152      2.00000
     11      -4.3151      2.00000
     12      -4.3014      2.00000
     13      -4.2638      2.00000
     14      -4.1149      2.00000
     15      -4.0095      2.00000
     16      -4.0095      2.00000
     17      -3.8134      2.00000
     18      -3.7090      2.00000
     19      -3.7090      2.00000
     20      -3.3173      2.00000
     21      -3.2038      2.00000
     22      -3.2038      2.00000
     23      -2.8859      2.00000
     24      -2.6693      2.00000
     25      -2.4703      2.00000
     26      -2.4703      2.00000
     27      -2.1796      2.00000
     28      -2.1796      2.00000
     29      -2.0415      2.00000
     30      -2.0415      2.00000
     31      -1.5923      2.00000
     32      -1.4337      2.00000
     33      -1.4337      2.00000
     34      -1.4106      2.00000
     35      -1.1632      2.00000
     36      -1.0554      2.00000
     37      -1.0554      2.00000
     38      -1.0436      2.00000
     39      -1.0329      2.00000
     40      -0.9157      2.00000
     41      -0.9157      2.00000
     42      -0.8043      2.00000
     43      -0.7380      2.00000
     44      -0.7380      2.00000
     45      -0.5376      2.00000
     46      -0.4175      2.00000
     47      -0.4174      2.00000
     48      -0.2681      2.00000
     49      -0.1255      2.00000
     50      -0.1255      2.00000
     51      -0.0956      2.00000
     52      -0.0956      2.00000
     53      -0.0916      2.00000
     54      -0.0916      2.00000
     55      -0.0137      2.00000
     56       0.0343      1.80683
     57       0.2059     -0.00896
     58       0.2059     -0.64529
     59       0.2754      0.00000
     60       0.2754      0.00000
     61       0.3265      0.00000
     62       0.3265      0.00000
     63       0.3838      0.00000
     64       0.6250      0.00000
     65       0.6250      0.00000
     66       1.9532      0.00000
     67       2.9659      0.00000
     68       4.0513      0.00000
     69       4.0514      0.00000
     70       5.1662      0.00000
     71       5.5215      0.00000
     72       5.5215      0.00000

 k-point   2 :       0.1429    0.0000    0.0000
  band No.  band energies     occupation 
      1      -6.2501      2.00000
      2      -5.4642      2.00000
      3      -4.6989      2.00000
      4      -4.6888      2.00000
      5      -4.6657      2.00000
      6      -4.5895      2.00000
      7      -4.4828      2.00000
      8      -4.4657      2.00000
      9      -4.4628      2.00000
     10      -4.1934      2.00000
     11      -4.1587      2.00000
     12      -4.1499      2.00000
     13      -4.1367      2.00000
     14      -3.9530      2.00000
     15      -3.9427      2.00000
     16      -3.9357      2.00000
     17      -3.7232      2.00000
     18      -3.5751      2.00000
     19      -3.5598      2.00000
     20      -3.2580      2.00000
     21      -3.2120      2.00000
     22      -3.1700      2.00000
     23      -2.8674      2.00000
     24      -2.5728      2.00000
     25      -2.5014      2.00000
     26      -2.3948      2.00000
     27      -2.2872      2.00000
     28      -2.2040      2.00000
     29      -2.1790      2.00000
     30      -2.0722      2.00000
     31      -1.9590      2.00000
     32      -1.5346      2.00000
     33      -1.4622      2.00000
     34      -1.3329      2.00000
     35      -1.2964      2.00000
     36      -1.2488      2.00000
     37      -1.1836      2.00000
     38      -1.1463      2.00000
     39      -1.0276      2.00000
     40      -1.0153      2.00000
     41      -0.9453      2.00000
     42      -0.8742      2.00000
     43      -0.7619      2.00000
     44      -0.6490      2.00000
     45      -0.5806      2.00000
     46      -0.5735      2.00000
     47      -0.5184      2.00000
     48      -0.4911      2.00000
     49      -0.2905      2.00000
     50      -0.2773      2.00000
     51      -0.2458      2.00000
     52      -0.1716      2.00000
     53      -0.1425      2.00000
     54      -0.1393      2.00000
     55      -0.1273      2.00000
     56      -0.1130      2.02470
     57      -0.1032      1.96067
     58      -0.0044      1.69434
     59       0.0661      0.43671
     60       0.0869      0.01277
     61       0.1298     -0.04345
     62       0.1999      0.00000
     63       0.3435      0.00000
     64       0.3901      0.00000
     65       1.0337      0.00000
     66       2.5229      0.00000
     67       2.9451      0.00000
     68       3.6340      0.00000
     69       4.2673      0.00000
     70       4.7868      0.00000
     71       5.4026      0.00000
     72       5.7485      0.00000

 k-point   3 :       0.2857    0.0000    0.0000
  band No.  band energies     occupation 
      1      -5.6063      2.00000
      2      -4.8943      2.00000
      3      -4.4173      2.00000
      4      -4.3168      2.00000
      5      -4.2967      2.00000
      6      -4.2239      2.00000
      7      -4.1705      2.00000
      8      -4.1139      2.00000
      9      -4.1000      2.00000
     10      -3.8780      2.00000
     11      -3.8192      2.00000
     12      -3.7758      2.00000
     13      -3.7651      2.00000
     14      -3.7559      2.00000
     15      -3.7212      2.00000
     16      -3.4804      2.00000
     17      -3.4633      2.00000
     18      -3.2758      2.00000
     19      -3.2047      2.00000
     20      -3.1599      2.00000
     21      -3.1541      2.00000
     22      -3.0923      2.00000
     23      -3.0433      2.00000
     24      -2.5149      2.00000
     25      -2.4883      2.00000
     26      -2.3443      2.00000
     27      -2.3405      2.00000
     28      -2.3258      2.00000
     29      -2.3162      2.00000
     30      -2.1946      2.00000
     31      -2.0768      2.00000
     32      -2.0450      2.00000
     33      -1.7563      2.00000
     34      -1.6940      2.00000
     35      -1.5923      2.00000
     36      -1.5360      2.00000
     37      -1.5054      2.00000
     38      -1.4032      2.00000
     39      -1.3200      2.00000
     40      -1.2627      2.00000
     41      -1.1220      2.00000
     42      -1.0238      2.00000
     43      -0.9034      2.00000
     44      -0.8467      2.00000
     45      -0.8397      2.00000
     46      -0.8385      2.00000
     47      -0.8370      2.00000
     48      -0.8164      2.00000
     49      -0.7339      2.00000
     50      -0.6721      2.00000
     51      -0.5530      2.00000
     52      -0.5059      2.00000
     53      -0.4757      2.00000
     54      -0.4547      2.00000
     55      -0.4185      2.00000
     56      -0.4076      2.00000
     57      -0.2831      2.00000
     58      -0.2803      2.00000
     59      -0.1849      2.16456
     60      -0.0835      2.18428
     61      -0.0743      1.96839
     62       0.1765      0.00000
     63       0.1846      0.00000
     64       0.7432      0.00000
     65       1.0413      0.00000
     66       2.1183      0.00000
     67       2.2641      0.00000
     68       3.5957      0.00000
     69       3.6658      0.00000
     70       4.8895      0.00000
     71       5.0174      0.00000
     72       6.1437      0.00000

 k-point   4 :       0.4286    0.0000    0.0000
  band No.  band energies     occupation 
      1      -4.7520      2.00000
      2      -4.2626      2.00000
      3      -4.1615      2.00000
      4      -3.9179      2.00000
      5      -3.8773      2.00000
      6      -3.8602      2.00000
      7      -3.6991      2.00000
      8      -3.6960      2.00000
      9      -3.5896      2.00000
     10      -3.4945      2.00000
     11      -3.4928      2.00000
     12      -3.4825      2.00000
     13      -3.4406      2.00000
     14      -3.3750      2.00000
     15      -3.3685      2.00000
     16      -3.3399      2.00000
     17      -3.2457      2.00000
     18      -3.2067      2.00000
     19      -3.1764      2.00000
     20      -3.1739      2.00000
     21      -3.0589      2.00000
     22      -2.8659      2.00000
     23      -2.8332      2.00000
     24      -2.7744      2.00000
     25      -2.7311      2.00000
     26      -2.7130      2.00000
     27      -2.6439      2.00000
     28      -2.4964      2.00000
     29      -2.3701      2.00000
     30      -2.2894      2.00000
     31      -2.0621      2.00000
     32      -2.0366      2.00000
     33      -1.9679      2.00000
     34      -1.9608      2.00000
     35      -1.6796      2.00000
     36      -1.6760      2.00000
     37      -1.5974      2.00000
     38      -1.4641      2.00000
     39      -1.4619      2.00000
     40      -1.4073      2.00000
     41      -1.4060      2.00000
     42      -1.3980      2.00000
     43      -1.3393      2.00000
     44      -1.3123      2.00000
     45      -1.2728      2.00000
     46      -1.2088      2.00000
     47      -1.0892      2.00000
     48      -1.0512      2.00000
     49      -1.0457      2.00000
     50      -0.9885      2.00000
     51      -0.9577      2.00000
     52      -0.9518      2.00000
     53      -0.8417      2.00000
     54      -0.8062      2.00000
     55      -0.7041      2.00000
     56      -0.6827      2.00000
     57      -0.6172      2.00000
     58      -0.2877      2.00000
     59      -0.2326      2.00000
     60      -0.2299      2.00000
     61      -0.1715      2.10510
     62       0.1550      0.00000
     63       0.1666      0.00000
     64       0.6539      0.00000
     65       0.6796      0.00000
     66       1.8358      0.00000
     67       1.8525      0.00000
     68       3.2223      0.00000
     69       3.3703      0.00000
     70       4.8125      0.00000
     71       4.9891      0.00000
     72       6.1964      0.00000

 k-point   5 :       0.1429    0.1429    0.0000
  band No.  band energies     occupation 
      1      -6.0352      2.00000
      2      -5.2929      2.00000
      3      -4.6100      2.00000
      4      -4.5563      2.00000
      5      -4.5563      2.00000
      6      -4.5089      2.00000
      7      -4.3903      2.00000
      8      -4.3903      2.00000
      9      -4.3110      2.00000
     10      -4.1048      2.00000
     11      -4.0375      2.00000
     12      -4.0375      2.00000
     13      -3.9398      2.00000
     14      -3.9199      2.00000
     15      -3.9179      2.00000
     16      -3.9179      2.00000
     17      -3.4705      2.00000
     18      -3.4292      2.00000
     19      -3.4292      2.00000
     20      -3.2064      2.00000
     21      -3.2064      2.00000
     22      -3.1046      2.00000
     23      -2.8177      2.00000
     24      -2.4929      2.00000
     25      -2.4861      2.00000
     26      -2.3729      2.00000
     27      -2.2792      2.00000
     28      -2.2403      2.00000
     29      -2.2403      2.00000
     30      -2.1321      2.00000
     31      -2.0786      2.00000
     32      -1.6566      2.00000
     33      -1.6553      2.00000
     34      -1.3634      2.00000
     35      -1.3634      2.00000
     36      -1.3023      2.00000
     37      -1.2186      2.00000
     38      -1.1442      2.00000
     39      -1.0875      2.00000
     40      -1.0718      2.00000
     41      -1.0461      2.00000
     42      -1.0461      2.00000
     43      -0.9575      2.00000
     44      -0.8609      2.00000
     45      -0.6789      2.00000
     46      -0.6789      2.00000
     47      -0.6019      2.00000
     48      -0.6018      2.00000
     49      -0.5137      2.00000
     50      -0.5137      2.00000
     51      -0.4422      2.00000
     52      -0.4170      2.00000
     53      -0.4170      2.00000
     54      -0.1931      2.00000
     55      -0.1173      2.00000
     56      -0.0640      2.00594
     57      -0.0640      1.94942
     58      -0.0399      1.91304
     59       0.0416      0.96196
     60       0.0416      0.32423
     61       0.0927      0.02236
     62       0.1895      0.00000
     63       0.2444      0.00000
     64       0.2444      0.00000
     65       1.3760      0.00000
     66       2.9417      0.00000
     67       3.6295      0.00000
     68       3.6295      0.00000
     69       4.1453      0.00000
     70       4.7504      0.00000
     71       4.7504      0.00000
     72       5.6460      0.00000

 k-point   6 :       0.2857    0.1429    0.0000
  band No.  band energies     occupation 
      1      -5.4388      2.00000
      2      -4.8479      2.00000
      3      -4.3189      2.00000
      4      -4.3009      2.00000
      5      -4.3003      2.00000
      6      -4.2213      2.00000
      7      -4.1993      2.00000
      8      -4.1372      2.00000
      9      -3.9027      2.00000
     10      -3.8553      2.00000
     11      -3.8532      2.00000
     12      -3.8367      2.00000
     13      -3.7856      2.00000
     14      -3.7210      2.00000
     15      -3.6588      2.00000
     16      -3.4864      2.00000
     17      -3.2213      2.00000
     18      -3.1501      2.00000
     19      -3.0959      2.00000
     20      -3.0618      2.00000
     21      -2.9887      2.00000
     22      -2.8949      2.00000
     23      -2.7742      2.00000
     24      -2.4725      2.00000
     25      -2.3781      2.00000
     26      -2.3116      2.00000
     27      -2.2915      2.00000
     28      -2.2615      2.00000
     29      -2.2481      2.00000
     30      -2.2094      2.00000
     31      -2.1485      2.00000
     32      -2.0799      2.00000
     33      -1.8923      2.00000
     34      -1.7955      2.00000
     35      -1.7121      2.00000
     36      -1.5737      2.00000
     37      -1.5640      2.00000
     38      -1.4670      2.00000
     39      -1.3921      2.00000
     40      -1.3688      2.00000
     41      -1.2221      2.00000
     42      -1.1996      2.00000
     43      -1.1974      2.00000
     44      -1.1681      2.00000
     45      -1.0813      2.00000
     46      -0.9943      2.00000
     47      -0.9199      2.00000
     48      -0.8790      2.00000
     49      -0.8515      2.00000
     50      -0.8042      2.00000
     51      -0.6615      2.00000
     52      -0.5788      2.00000
     53      -0.4765      2.00000
     54      -0.4471      2.00000
     55      -0.3537      2.00000
     56      -0.1986      2.00000
     57      -0.1133      2.00000
     58      -0.0986      2.00000
     59      -0.0949      2.07689
     60       0.0072      1.79557
     61       0.0570      0.32938
     62       0.1032      0.00000
     63       0.1090      0.00000
     64       0.7390      0.00000
     65       1.6997      0.00000
     66       2.2721      0.00000
     67       2.6242      0.00000
     68       3.7900      0.00000
     69       3.9215      0.00000
     70       4.9650      0.00000
     71       5.0893      0.00000
     72       5.2138      0.00000

 k-point   7 :       0.4286    0.1429    0.0000
  band No.  band energies     occupation 
      1      -4.6673      2.00000
      2      -4.3509      2.00000
      3      -4.2124      2.00000
      4      -4.0814      2.00000
      5      -4.0520      2.00000
      6      -3.9055      2.00000
      7      -3.8770      2.00000
      8      -3.8733      2.00000
      9      -3.7142      2.00000
     10      -3.6927      2.00000
     11      -3.6387      2.00000
     12      -3.5046      2.00000
     13      -3.4139      2.00000
     14      -3.3837      2.00000
     15      -3.2573      2.00000
     16      -3.2109      2.00000
     17      -3.1418      2.00000
     18      -3.1205      2.00000
     19      -2.9474      2.00000
     20      -2.8893      2.00000
     21      -2.8033      2.00000
     22      -2.7319      2.00000
     23      -2.6488      2.00000
     24      -2.6243      2.00000
     25      -2.5861      2.00000
     26      -2.4910      2.00000
     27      -2.4678      2.00000
     28      -2.3759      2.00000
     29      -2.2869      2.00000
     30      -2.2512      2.00000
     31      -2.1892      2.00000
     32      -2.0973      2.00000
     33      -2.0186      2.00000
     34      -1.9900      2.00000
     35      -1.8080      2.00000
     36      -1.7711      2.00000
     37      -1.7605      2.00000
     38      -1.7427      2.00000
     39      -1.6688      2.00000
     40      -1.6387      2.00000
     41      -1.6190      2.00000
     42      -1.5239      2.00000
     43      -1.4439      2.00000
     44      -1.2915      2.00000
     45      -1.2676      2.00000
     46      -1.2281      2.00000
     47      -1.0483      2.00000
     48      -1.0127      2.00000
     49      -0.9027      2.00000
     50      -0.8184      2.00000
     51      -0.8011      2.00000
     52      -0.7935      2.00000
     53      -0.5831      2.00000
     54      -0.5168      2.00000
     55      -0.4509      2.00000
     56      -0.3583      2.00000
     57      -0.3374      2.00000
     58      -0.2973      2.00000
     59      -0.1456      2.00000
     60      -0.0706      2.00000
     61      -0.0052      1.89499
     62       0.0427      0.00000
     63       0.1739      0.00000
     64       0.6021      0.00000
     65       0.8268      0.00000
     66       1.8264      0.00000
     67       1.8995      0.00000
     68       3.2470      0.00000
     69       3.4478      0.00000
     70       4.8382      0.00000
     71       5.1413      0.00000
     72       6.2479      0.00000

 k-point   8 :       0.2857    0.2857    0.0000
  band No.  band energies     occupation 
      1      -5.0103      2.00000
      2      -4.7412      2.00000
      3      -4.4352      2.00000
      4      -4.2425      2.00000
      5      -4.2206      2.00000
      6      -4.2206      2.00000
      7      -4.0787      2.00000
      8      -4.0787      2.00000
      9      -3.8825      2.00000
     10      -3.8351      2.00000
     11      -3.7929      2.00000
     12      -3.7929      2.00000
     13      -3.4719      2.00000
     14      -3.3761      2.00000
     15      -3.3761      2.00000
     16      -3.1220      2.00000
     17      -3.1220      2.00000
     18      -3.1114      2.00000
     19      -2.8142      2.00000
     20      -2.8142      2.00000
     21      -2.7999      2.00000
     22      -2.6499      2.00000
     23      -2.4375      2.00000
     24      -2.2912      2.00000
     25      -2.2642      2.00000
     26      -2.2606      2.00000
     27      -2.2293      2.00000
     28      -2.2293      2.00000
     29      -2.2170      2.00000
     30      -2.1928      2.00000
     31      -2.0744      2.00000
     32      -2.0744      2.00000
     33      -2.0318      2.00000
     34      -1.9701      2.00000
     35      -1.9605      2.00000
     36      -1.7790      2.00000
     37      -1.7790      2.00000
     38      -1.7453      2.00000
     39      -1.6489      2.00000
     40      -1.6489      2.00000
     41      -1.5982      2.00000
     42      -1.5642      2.00000
     43      -1.3407      2.00000
     44      -1.3152      2.00000
     45      -1.3152      2.00000
     46      -1.2750      2.00000
     47      -0.8752      2.00000
     48      -0.7492      2.00000
     49      -0.7492      2.00000
     50      -0.7326      2.00000
     51      -0.6645      2.00000
     52      -0.5957      2.00000
     53      -0.4072      2.00000
     54      -0.4072      2.00000
     55      -0.4063      2.00000
     56      -0.2735      2.00000
     57      -0.0579      2.00000
     58      -0.0131      2.00000
     59      -0.0131      1.99248
     60       0.0048      1.98749
     61       0.0488     -0.02220
     62       0.0488      0.00000
     63       0.0845      0.00000
     64       0.9776      0.00000
     65       2.7836      0.00000
     66       2.8778      0.00000
     67       2.8778      0.00000
     68       3.4491      0.00000
     69       3.4491      0.00000
     70       4.0385      0.00000
     71       4.0385      0.00000
     72       4.5796      0.00000

 k-point   9 :       0.4286    0.2857    0.0000
  band No.  band energies     occupation 
      1      -4.6248      2.00000
      2      -4.6059      2.00000
      3      -4.4300      2.00000
      4      -4.4246      2.00000
      5      -4.2961      2.00000
      6      -4.1031      2.00000
      7      -4.0420      2.00000
      8      -4.0291      2.00000
      9      -3.6794      2.00000
     10      -3.6370      2.00000
     11      -3.5599      2.00000
     12      -3.4461      2.00000
     13      -3.3293      2.00000
     14      -3.2235      2.00000
     15      -3.0514      2.00000
     16      -3.0307      2.00000
     17      -2.9515      2.00000
     18      -2.8470      2.00000
     19      -2.8064      2.00000
     20      -2.6842      2.00000
     21      -2.6590      2.00000
     22      -2.6509      2.00000
     23      -2.6128      2.00000
     24      -2.4980      2.00000
     25      -2.4799      2.00000
     26      -2.4091      2.00000
     27      -2.3808      2.00000
     28      -2.3776      2.00000
     29      -2.2783      2.00000
     30      -2.1585      2.00000
     31      -2.1220      2.00000
     32      -2.0804      2.00000
     33      -2.0717      2.00000
     34      -2.0413      2.00000
     35      -1.9751      2.00000
     36      -1.9237      2.00000
     37      -1.8269      2.00000
     38      -1.7987      2.00000
     39      -1.7298      2.00000
     40      -1.6163      2.00000
     41      -1.4474      2.00000
     42      -1.4272      2.00000
     43      -1.3657      2.00000
     44      -1.3312      2.00000
     45      -1.2559      2.00000
     46      -1.0069      2.00000
     47      -0.9229      2.00000
     48      -0.7385      2.00000
     49      -0.6779      2.00000
     50      -0.6480      2.00000
     51      -0.5933      2.00000
     52      -0.5442      2.00000
     53      -0.3423      2.00000
     54      -0.2420      2.00000
     55      -0.1728      2.00000
     56      -0.1562      2.00000
     57      -0.1562      2.00000
     58      -0.1379      2.00000
     59      -0.0684      2.00000
     60      -0.0662      2.00000
     61       0.0329      0.18769
     62       0.0496      0.00000
     63       0.4763      0.00000
     64       1.1633      0.00000
     65       1.4153      0.00000
     66       1.8318      0.00000
     67       2.0429      0.00000
     68       3.1092      0.00000
     69       3.5898      0.00000
     70       4.1056      0.00000
     71       4.1420      0.00000
     72       5.1268      0.00000

 k-point  10 :       0.4286    0.4286    0.0000
  band No.  band energies     occupation 
      1      -4.7318      2.00000
      2      -4.7287      2.00000
      3      -4.6707      2.00000
      4      -4.6707      2.00000
      5      -4.2596      2.00000
      6      -4.2132      2.00000
      7      -4.1694      2.00000
      8      -4.1694      2.00000
      9      -3.5904      2.00000
     10      -3.5784      2.00000
     11      -3.4741      2.00000
     12      -3.4741      2.00000
     13      -3.0078      2.00000
     14      -2.9452      2.00000
     15      -2.9452      2.00000
     16      -2.8838      2.00000
     17      -2.7904      2.00000
     18      -2.7903      2.00000
     19      -2.6679      2.00000
     20      -2.6408      2.00000
     21      -2.6257      2.00000
     22      -2.5914      2.00000
     23      -2.5914      2.00000
     24      -2.5333      2.00000
     25      -2.5333      2.00000
     26      -2.4757      2.00000
     27      -2.4736      2.00000
     28      -2.4680      2.00000
     29      -2.2656      2.00000
     30      -2.2656      2.00000
     31      -2.2038      2.00000
     32      -2.1441      2.00000
     33      -2.0643      2.00000
     34      -2.0568      2.00000
     35      -2.0198      2.00000
     36      -2.0198      2.00000
     37      -1.5672      2.00000
     38      -1.5378      2.00000
     39      -1.5091      2.00000
     40      -1.5091      2.00000
     41      -1.4241      2.00000
     42      -1.3608      2.00000
     43      -1.3608      2.00000
     44      -1.2688      2.00000
     45      -0.9450      2.00000
     46      -0.6482      2.00000
     47      -0.6482      2.00000
     48      -0.6042      2.00000
     49      -0.5662      2.00000
     50      -0.5493      2.00000
     51      -0.5493      2.00000
     52      -0.3757      2.00000
     53      -0.2103      2.00000
     54      -0.1754      2.00000
     55      -0.1754      2.00000
     56      -0.1618      2.00000
     57      -0.0775      2.00000
     58      -0.0603      2.00000
     59      -0.0603      2.00000
     60       0.0141      2.00000
     61       0.6621      0.00000
     62       0.8135      0.00000
     63       1.0624      0.00000
     64       1.9694      0.00000
     65       2.0200      0.00000
     66       2.0200      0.00000
     67       2.3161      0.00000
     68       2.3162      0.00000
     69       2.4345      0.00000
     70       2.4345      0.00000
     71       3.2760      0.00000
     72       3.6979      0.00000


--------------------------------------------------------------------------------------------------------


 soft charge-density along one line, spin component           1
         0         1         2         3         4         5         6         7         8         9
 total charge-density along one line
 
 pseudopotential strength for first ion, spin component:           1
-11.493   0.000   0.000   0.000   0.000   0.124   0.000   0.000
  0.000 -11.392   0.000   0.000   0.000   0.000   0.108   0.000
  0.000   0.000 -11.365   0.000   0.000   0.000   0.000   0.104
  0.000   0.000   0.000 -11.392   0.000   0.000   0.000   0.000
  0.000   0.000   0.000   0.000 -11.436   0.000   0.000   0.000
  0.124   0.000   0.000   0.000   0.000   0.321   0.000   0.000
  0.000   0.108   0.000   0.000   0.000   0.000   0.324   0.000
  0.000   0.000   0.104   0.000   0.000   0.000   0.000   0.324
  0.000   0.000   0.000   0.108   0.000   0.000   0.000   0.000
  0.000   0.000   0.000   0.000   0.116   0.000   0.000   0.000
  0.000   0.000  -0.021   0.000   0.000   0.000   0.000   0.003
  0.000   0.000   0.002   0.000   0.000   0.000   0.000   0.000
  0.000  -0.016   0.000   0.000   0.000   0.000   0.003   0.000
  0.000   0.000  -0.019   0.000   0.000   0.000   0.000   0.003
  0.000   0.000   0.000  -0.016   0.000   0.000   0.000   0.000
  0.000   0.013   0.000   0.000   0.000   0.000  -0.002   0.000
  0.000   0.000   0.015   0.000   0.000   0.000   0.000  -0.002
  0.000   0.000   0.000   0.013   0.000   0.000   0.000   0.000
 total augmentation occupancy for first ion, spin component:           1
  1.648   0.000   0.000   0.000   0.000   0.185   0.000   0.000   0.000   0.000   0.000   0.000   0.000   0.000   0.000   0.000
  0.000   1.826   0.000   0.000   0.000   0.000   0.080   0.000   0.000   0.000   0.000   0.000  -0.011   0.000   0.000  -0.021
  0.000   0.000   1.859   0.000   0.000   0.000   0.000   0.058   0.000   0.000   0.016  -0.045   0.000   0.008   0.000   0.000
  0.000   0.000   0.000   1.826   0.000   0.000   0.000   0.000   0.080   0.000   0.000   0.000   0.000   0.000  -0.011   0.000
  0.000   0.000   0.000   0.000   1.860   0.000   0.000   0.000   0.000   0.045   0.000   0.000   0.000   0.000   0.000   0.000
  0.185   0.000   0.000   0.000   0.000   0.103   0.000   0.000   0.000   0.000   0.000   0.000   0.000   0.000   0.000   0.000
  0.000   0.080   0.000   0.000   0.000   0.000   0.094   0.000   0.000   0.000   0.000   0.000   0.050   0.000   0.000  -0.002
  0.000   0.000   0.058   0.000   0.000   0.000   0.000   0.090   0.000   0.000  -0.082   0.020   0.000   0.036   0.000   0.000
  0.000   0.000   0.000   0.080   0.000   0.000   0.000   0.000   0.094   0.000   0.000   0.000   0.000   0.000   0.050   0.000
  0.000   0.000   0.000   0.000   0.045   0.000   0.000   0.000   0.000   0.099   0.000   0.000   0.000   0.000   0.000   0.000
  0.000   0.000   0.016   0.000   0.000   0.000   0.000  -0.082   0.000   0.000   0.954  -0.307   0.000   0.094   0.000   0.000
  0.000   0.000  -0.045   0.000   0.000   0.000   0.000   0.020   0.000   0.000  -0.307   0.113   0.000  -0.045   0.000   0.000
  0.000  -0.011   0.000   0.000   0.000   0.000   0.050   0.000   0.000   0.000   0.000   0.000   0.096   0.000   0.000  -0.002
  0.000   0.000   0.008   0.000   0.000   0.000   0.000   0.036   0.000   0.000   0.094  -0.045   0.000   0.059   0.000   0.000
  0.000   0.000   0.000  -0.011   0.000   0.000   0.000   0.000   0.050   0.000   0.000   0.000   0.000   0.000   0.096   0.000
  0.000  -0.021   0.000   0.000   0.000   0.000  -0.002   0.000   0.000   0.000   0.000   0.000  -0.002   0.000   0.000   0.000
  0.000   0.000  -0.028   0.000   0.000   0.000   0.000  -0.001   0.000   0.000  -0.005   0.003   0.000  -0.001   0.000   0.000
  0.000   0.000   0.000  -0.021   0.000   0.000   0.000   0.000  -0.002   0.000   0.000   0.000   0.000   0.000  -0.002   0.000


------------------------ aborting loop because EDIFF is reached ----------------------------------------


    CHARGE:  cpu time    1.73: real time    1.73
    FORLOC:  cpu time    0.06: real time    0.06
    FORNL :  cpu time   25.91: real time   25.91
    STRESS:  cpu time   69.18: real time   69.19
    FORCOR:  cpu time    0.59: real time    0.59
    FORHAR:  cpu time    0.19: real time    0.19
    MIXING:  cpu time    0.02: real time    0.02

  FORCE on cell =-STRESS in cart. coord.  units (eV):
  Direction    XX          YY          ZZ          XY          YZ          ZX
  --------------------------------------------------------------------------------------
  Alpha Z   574.70065   574.70065   574.70065
  Ewald   29478.18658 29478.18658-36056.83685     0.00000     0.00000     0.00000
  Hartree 32350.16663 32350.16663-31341.48384     0.00000     0.00000     0.00000
  E(xc)    -627.13341  -627.13341  -629.09276     0.00000     0.00000     0.00000
  Local  -63278.05717-63278.05717 65937.71985     0.00000     0.00000     0.00000
  n-local  -647.94006  -640.19837  -647.19790     8.96071     0.00000     0.00000
  augment   513.75357   513.75354   518.78359     0.00001     0.00000     0.00000
  Kinetic  1638.86880  1616.24304  1642.17038     7.19649     0.00000     0.00000
  Fock        0.00000     0.00000     0.00000     0.00000     0.00000     0.00000
  -------------------------------------------------------------------------------------
  Total      -4.89646    -4.89646    -1.23687     0.00000     0.00000     0.00000
  in kB     -22.99652   -22.99652    -5.80905     0.00000     0.00000     0.00000
  external pressure =      -17.27 kB  Pullay stress =        0.00 kB


 VOLUME and BASIS-vectors are now :
 -----------------------------------------------------------------------------
  energy-cutoff  :      415.00
  volume of cell :      341.14
      direct lattice vectors                 reciprocal lattice vectors
     3.951020398  0.000000000  0.000000000     0.253099174  0.000000000  0.000000000
     0.000000000  3.951020398  0.000000000     0.000000000  0.253099174  0.000000000
     0.000000000  0.000000000 21.853061195     0.000000000  0.000000000  0.045760179

  length of vectors
     3.951020398  3.951020398 21.853061195     0.253099174  0.253099174  0.045760179


 FORCES acting on ions
    electron-ion (+dipol)            ewald-force                    non-local-force                 convergence-correction
 -----------------------------------------------------------------------------------------------
   0.316E-13 0.330E-13 0.261E+04   0.778E-15 -.756E-14 -.261E+04   -.956E-24 -.165E-23 -.177E+01   -.161E-13 -.244E-13 -.925E-02
   0.176E-13 0.312E-13 0.530E+03   -.374E-14 0.126E-14 -.530E+03   0.685E-24 -.827E-24 0.108E+00   -.331E-14 -.112E-13 0.163E-02
   0.185E-13 0.126E-13 -.159E+04   0.185E-13 -.221E-14 0.159E+04   0.653E-24 0.000E+00 -.134E+00   0.180E-13 -.114E-14 -.139E-01
   -.657E-13 -.110E-12 0.261E+04   -.208E-13 0.411E-14 -.261E+04   -.963E-24 -.165E-23 -.177E+01   -.167E-14 -.108E-13 -.925E-02
   -.539E-13 -.440E-12 0.530E+03   -.233E-13 0.135E-13 -.530E+03   -.956E-24 -.827E-24 0.108E+00   -.651E-14 0.255E-14 0.163E-02
   -.711E-13 -.126E-13 -.159E+04   -.640E-14 0.115E-13 0.159E+04   0.724E-24 0.517E-25 -.134E+00   0.196E-13 0.167E-13 -.139E-01
   -.731E-13 0.285E-13 0.159E+04   0.330E-13 -.971E-14 -.159E+04   -.711E-24 0.000E+00 0.134E+00   0.890E-15 -.106E-13 0.139E-01
   -.260E-13 0.686E-13 -.530E+03   0.150E-13 -.790E-14 0.530E+03   -.237E-23 0.000E+00 -.108E+00   0.281E-13 0.193E-13 -.163E-02
   -.708E-13 0.541E-13 -.261E+04   0.345E-14 -.111E-13 0.261E+04   0.827E-24 0.165E-23 0.177E+01   0.410E-13 -.189E-14 0.925E-02
   0.880E-14 -.110E-12 0.159E+04   0.463E-14 0.276E-14 -.159E+04   -.724E-24 0.000E+00 0.134E+00   0.280E-14 -.223E-13 0.139E-01
   0.294E-13 -.552E-13 -.530E+03   -.804E-14 0.314E-14 0.530E+03   -.724E-24 0.165E-23 -.108E+00   0.170E-13 0.256E-13 -.163E-02
   0.139E-13 -.281E-12 -.261E+04   -.182E-13 0.554E-15 0.261E+04   0.103E-23 0.165E-23 0.177E+01   0.421E-13 0.790E-14 0.925E-02
 -----------------------------------------------------------------------------------------------
   -.241E-12 -.780E-12 -.266E-03   -.523E-14 -.173E-14 0.136E-11   -.348E-23 0.517E-25 -.266E-14   0.142E-12 -.103E-13 0.299E-05
 
 
 POSITION                                       TOTAL-FORCE (eV/Angst)
 -----------------------------------------------------------------------------------
      0.00000      0.00000      0.00200         0.000000      0.000000      0.085864
      0.00000      0.00000      3.95134         0.000000      0.000000      0.004053
      0.00000      0.00000      7.90394         0.000000      0.000000      0.071144
      1.97551      1.97551      0.00200         0.000000      0.000000      0.085864
      1.97551      1.97551      3.95134         0.000000      0.000000      0.004053
      1.97551      1.97551      7.90394         0.000000      0.000000      0.071144
      1.97551      0.00000      1.97361         0.000000      0.000000     -0.071144
      1.97551      0.00000      5.92621         0.000000      0.000000     -0.004053
      1.97551      0.00000      9.87555         0.000000      0.000000     -0.085864
      0.00000      1.97551      1.97361         0.000000      0.000000     -0.071144
      0.00000      1.97551      5.92621         0.000000      0.000000     -0.004053
      0.00000      1.97551      9.87555         0.000000      0.000000     -0.085864
 -----------------------------------------------------------------------------------
    total drift:                                0.000000      0.000000     -0.000263


--------------------------------------------------------------------------------------------------------



  FREE ENERGIE OF THE ION-ELECTRON SYSTEM (eV)
  ---------------------------------------------------
  free  energy   TOTEN  =       -59.184609 eV

  energy  without entropy=      -59.184609  energy(sigma->0) =      -59.184609
 
 d Force = 0.1042248E-02[ 0.924E-03, 0.116E-02]  d Energy = 0.9882478E-03 0.540E-04
 d Force =-0.7102924E+01[-0.711E+01,-0.710E+01]  d Ewald  =-0.7102925E+01 0.128E-05


--------------------------------------------------------------------------------------------------------


    POTLOK:  cpu time    0.63: real time    0.63


--------------------------------------------------------------------------------------------------------




--------------------------------------------------------------------------------------------------------


    WAVPRE:  cpu time    0.12: real time    0.12
    FEWALD:  cpu time    0.00: real time    0.00
    ORTHCH:  cpu time    8.42: real time    8.42
     LOOP+:  cpu time  670.21: real time  670.32


----------------------------------------- Iteration    4(   1)  ---------------------------------------


    POTLOK:  cpu time    0.55: real time    0.55
    SETDIJ:  cpu time    0.07: real time    0.07
     EDDAV:  cpu time   58.82: real time   58.83
 BZINTS: Fermi energy:  0.021617;120.000000 electrons
         Band energy:-264.539948;  BLOECHL correction: -0.027307
       DOS:  cpu time    0.04: real time    0.04
    CHARGE:  cpu time    1.70: real time    1.70
    MIXING:  cpu time    0.02: real time    0.02
    --------------------------------------------
      LOOP:  cpu time   61.20: real time   61.21

 eigenvalue-minimisations  :  1440
 total energy-change (2. order) :-0.3484439E-03  (-0.4302755E-01)
 number of electron     120.0000445 magnetization 
 augmentation part       50.8256205 magnetization 

 Broyden mixing:
  rms(total) = 0.94711E-02    rms(broyden)= 0.94680E-02
  rms(prec ) = 0.10654E-01
  weight for this iteration     100.00

 Free energy of the ion-electron system (eV)
  ---------------------------------------------------
  alpha Z        PSCENC =       574.70065014
  Ewald energy   TEWEN  =     22913.77614894
  -1/2 Hartree   DENC   =    -33372.98090868
  -exchange  EXHF       =         0.00000000
  -V(xc)+E(xc)   XCENC  =      -356.34403397
  PAW double counting   =      8302.59806997    -7573.34995880
  entropy T*S    EENTRO =         0.00000000
  eigenvalues    EBANDS =      -264.53994763
  atomic energy  EATOM  =      9716.95502315
  ---------------------------------------------------
  free energy    TOTEN  =       -59.18495689 eV

  energy without entropy =      -59.18495689  energy(sigma->0) =      -59.18495689


--------------------------------------------------------------------------------------------------------




----------------------------------------- Iteration    4(   2)  ---------------------------------------


    POTLOK:  cpu time    0.55: real time    0.55
    SETDIJ:  cpu time    0.07: real time    0.07
     EDDAV:  cpu time   79.90: real time   79.92
 BZINTS: Fermi energy:  0.026568;120.000000 electrons
         Band energy:-263.972119;  BLOECHL correction: -0.028005
       DOS:  cpu time    0.04: real time    0.04
    CHARGE:  cpu time    1.76: real time    1.76
    MIXING:  cpu time    0.02: real time    0.02
    --------------------------------------------
      LOOP:  cpu time   82.34: real time   82.36

 eigenvalue-minimisations  :  2128
 total energy-change (2. order) :-0.1885002E-02  (-0.1600307E-02)
 number of electron     120.0000445 magnetization 
 augmentation part       50.8219165 magnetization 

 Broyden mixing:
  rms(total) = 0.23237E-01    rms(broyden)= 0.23236E-01
  rms(prec ) = 0.34299E-01
  weight for this iteration     100.00

 eigenvalues of (default mixing * dielectric matrix)
  average eigenvalue GAMMA=   0.2613
  0.2613

 Free energy of the ion-electron system (eV)
  ---------------------------------------------------
  alpha Z        PSCENC =       574.70065014
  Ewald energy   TEWEN  =     22913.77614894
  -1/2 Hartree   DENC   =    -33373.52741339
  -exchange  EXHF       =         0.00000000
  -V(xc)+E(xc)   XCENC  =      -356.34783195
  PAW double counting   =      8302.72562776    -7573.49692746
  entropy T*S    EENTRO =         0.00000000
  eigenvalues    EBANDS =      -263.97211908
  atomic energy  EATOM  =      9716.95502315
  ---------------------------------------------------
  free energy    TOTEN  =       -59.18684189 eV

  energy without entropy =      -59.18684189  energy(sigma->0) =      -59.18684189


--------------------------------------------------------------------------------------------------------




----------------------------------------- Iteration    4(   3)  ---------------------------------------


    POTLOK:  cpu time    0.55: real time    0.55
    SETDIJ:  cpu time    0.07: real time    0.07
     EDDAV:  cpu time   70.45: real time   70.46
 BZINTS: Fermi energy:  0.019721;120.000000 electrons
         Band energy:-264.715011;  BLOECHL correction: -0.026986
       DOS:  cpu time    0.04: real time    0.04
    CHARGE:  cpu time    1.72: real time    1.72
    MIXING:  cpu time    0.02: real time    0.02
    --------------------------------------------
      LOOP:  cpu time   72.86: real time   72.86

 eigenvalue-minimisations  :  1816
 total energy-change (2. order) : 0.5481293E-03  (-0.4057721E-03)
 number of electron     120.0000445 magnetization 
 augmentation part       50.8272273 magnetization 

 Broyden mixing:
  rms(total) = 0.17950E-01    rms(broyden)= 0.17947E-01
  rms(prec ) = 0.25736E-01
  weight for this iteration     100.00

 eigenvalues of (default mixing * dielectric matrix)
  average eigenvalue GAMMA=   0.2855
  0.1073  0.4637

 Free energy of the ion-electron system (eV)
  ---------------------------------------------------
  alpha Z        PSCENC =       574.70065014
  Ewald energy   TEWEN  =     22913.77614894
  -1/2 Hartree   DENC   =    -33372.78217043
  -exchange  EXHF       =         0.00000000
  -V(xc)+E(xc)   XCENC  =      -356.34736920
  PAW double counting   =      8302.68651427    -7573.46007920
  entropy T*S    EENTRO =         0.00000000
  eigenvalues    EBANDS =      -264.71501142
  atomic energy  EATOM  =      9716.95502315
  ---------------------------------------------------
  free energy    TOTEN  =       -59.18629376 eV

  energy without entropy =      -59.18629376  energy(sigma->0) =      -59.18629376


--------------------------------------------------------------------------------------------------------




----------------------------------------- Iteration    4(   4)  ---------------------------------------


    POTLOK:  cpu time    0.55: real time    0.55
    SETDIJ:  cpu time    0.07: real time    0.07
     EDDAV:  cpu time   78.31: real time   78.32
 BZINTS: Fermi energy:  0.020965;120.000000 electrons
         Band energy:-264.589848;  BLOECHL correction: -0.027367
       DOS:  cpu time    0.04: real time    0.04
    CHARGE:  cpu time    1.73: real time    1.73
    MIXING:  cpu time    0.02: real time    0.02
    --------------------------------------------
      LOOP:  cpu time   80.73: real time   80.74

 eigenvalue-minimisations  :  2072
 total energy-change (2. order) : 0.2362569E-03  (-0.3691475E-04)
 number of electron     120.0000445 magnetization 
 augmentation part       50.8267093 magnetization 

 Broyden mixing:
  rms(total) = 0.61627E-02    rms(broyden)= 0.61603E-02
  rms(prec ) = 0.67792E-02
  weight for this iteration     100.00

 eigenvalues of (default mixing * dielectric matrix)
  average eigenvalue GAMMA=   0.2618
  0.3360  0.3360  0.1135

 Free energy of the ion-electron system (eV)
  ---------------------------------------------------
  alpha Z        PSCENC =       574.70065014
  Ewald energy   TEWEN  =     22913.77614894
  -1/2 Hartree   DENC   =    -33372.90355154
  -exchange  EXHF       =         0.00000000
  -V(xc)+E(xc)   XCENC  =      -356.34743080
  PAW double counting   =      8302.71627913    -7573.49332864
  entropy T*S    EENTRO =         0.00000000
  eigenvalues    EBANDS =      -264.58984789
  atomic energy  EATOM  =      9716.95502315
  ---------------------------------------------------
  free energy    TOTEN  =       -59.18605750 eV

  energy without entropy =      -59.18605750  energy(sigma->0) =      -59.18605750


--------------------------------------------------------------------------------------------------------




----------------------------------------- Iteration    4(   5)  ---------------------------------------


    POTLOK:  cpu time    0.55: real time    0.55
    SETDIJ:  cpu time    0.07: real time    0.07
     EDDAV:  cpu time   79.06: real time   79.07
 BZINTS: Fermi energy:  0.021341;120.000000 electrons
         Band energy:-264.556885;  BLOECHL correction: -0.027363
       DOS:  cpu time    0.04: real time    0.04
    CHARGE:  cpu time    1.72: real time    1.73
    MIXING:  cpu time    0.02: real time    0.02
    --------------------------------------------
      LOOP:  cpu time   81.47: real time   81.49

 eigenvalue-minimisations  :  2096
 total energy-change (2. order) : 0.4589118E-04  (-0.9743055E-05)
 number of electron     120.0000445 magnetization 
 augmentation part       50.8265983 magnetization 

 Broyden mixing:
  rms(total) = 0.47292E-02    rms(broyden)= 0.47290E-02
  rms(prec ) = 0.52298E-02
  weight for this iteration     100.00

 eigenvalues of (default mixing * dielectric matrix)
  average eigenvalue GAMMA=   0.5739
  0.9670  0.9670  0.1105  0.2513

 Free energy of the ion-electron system (eV)
  ---------------------------------------------------
  alpha Z        PSCENC =       574.70065014
  Ewald energy   TEWEN  =     22913.77614894
  -1/2 Hartree   DENC   =    -33372.93553930
  -exchange  EXHF       =         0.00000000
  -V(xc)+E(xc)   XCENC  =      -356.34745283
  PAW double counting   =      8302.75249031    -7573.53044696
  entropy T*S    EENTRO =         0.00000000
  eigenvalues    EBANDS =      -264.55688506
  atomic energy  EATOM  =      9716.95502315
  ---------------------------------------------------
  free energy    TOTEN  =       -59.18601161 eV

  energy without entropy =      -59.18601161  energy(sigma->0) =      -59.18601161


--------------------------------------------------------------------------------------------------------




----------------------------------------- Iteration    4(   6)  ---------------------------------------


    POTLOK:  cpu time    0.55: real time    0.55
    SETDIJ:  cpu time    0.08: real time    0.07
     EDDAV:  cpu time   78.54: real time   78.56
 BZINTS: Fermi energy:  0.021561;120.000000 electrons
         Band energy:-264.538259;  BLOECHL correction: -0.027389
       DOS:  cpu time    0.04: real time    0.04
    CHARGE:  cpu time    1.72: real time    1.72
    MIXING:  cpu time    0.02: real time    0.02
    --------------------------------------------
      LOOP:  cpu time   80.95: real time   80.97

 eigenvalue-minimisations  :  2080
 total energy-change (2. order) : 0.1978230E-04  (-0.8423672E-05)
 number of electron     120.0000445 magnetization 
 augmentation part       50.8259501 magnetization 

 Broyden mixing:
  rms(total) = 0.23025E-02    rms(broyden)= 0.23024E-02
  rms(prec ) = 0.24383E-02
  weight for this iteration     100.00

 eigenvalues of (default mixing * dielectric matrix)
  average eigenvalue GAMMA=   0.8760
  2.4698  0.1105  0.2530  0.7734  0.7734

 Free energy of the ion-electron system (eV)
  ---------------------------------------------------
  alpha Z        PSCENC =       574.70065014
  Ewald energy   TEWEN  =     22913.77614894
  -1/2 Hartree   DENC   =    -33372.95035814
  -exchange  EXHF       =         0.00000000
  -V(xc)+E(xc)   XCENC  =      -356.34680298
  PAW double counting   =      8302.92519719    -7573.70759162
  entropy T*S    EENTRO =         0.00000000
  eigenvalues    EBANDS =      -264.53825851
  atomic energy  EATOM  =      9716.95502315
  ---------------------------------------------------
  free energy    TOTEN  =       -59.18599183 eV

  energy without entropy =      -59.18599183  energy(sigma->0) =      -59.18599183


--------------------------------------------------------------------------------------------------------




----------------------------------------- Iteration    4(   7)  ---------------------------------------


    POTLOK:  cpu time    0.55: real time    0.55
    SETDIJ:  cpu time    0.08: real time    0.07
     EDDAV:  cpu time   65.16: real time   65.16
 BZINTS: Fermi energy:  0.021126;120.000000 electrons
         Band energy:-264.591770;  BLOECHL correction: -0.027373
       DOS:  cpu time    0.04: real time    0.04
    CHARGE:  cpu time    1.75: real time    1.74
    MIXING:  cpu time    0.02: real time    0.02
    --------------------------------------------
      LOOP:  cpu time   67.59: real time   67.60

 eigenvalue-minimisations  :  1648
 total energy-change (2. order) : 0.6590946E-05  (-0.9621472E-05)
 number of electron     120.0000445 magnetization 
 augmentation part       50.8262277 magnetization 

 Broyden mixing:
  rms(total) = 0.70014E-03    rms(broyden)= 0.69993E-03
  rms(prec ) = 0.75478E-03
  weight for this iteration     100.00

 eigenvalues of (default mixing * dielectric matrix)
  average eigenvalue GAMMA=   0.9180
  2.5118  0.9375  0.9375  0.7579  0.1105  0.2529

 Free energy of the ion-electron system (eV)
  ---------------------------------------------------
  alpha Z        PSCENC =       574.70065014
  Ewald energy   TEWEN  =     22913.77614894
  -1/2 Hartree   DENC   =    -33372.88703415
  -exchange  EXHF       =         0.00000000
  -V(xc)+E(xc)   XCENC  =      -356.34699339
  PAW double counting   =      8303.09762771    -7573.88963725
  entropy T*S    EENTRO =         0.00000000
  eigenvalues    EBANDS =      -264.59177038
  atomic energy  EATOM  =      9716.95502315
  ---------------------------------------------------
  free energy    TOTEN  =       -59.18598524 eV

  energy without entropy =      -59.18598524  energy(sigma->0) =      -59.18598524


--------------------------------------------------------------------------------------------------------




----------------------------------------- Iteration    4(   8)  ---------------------------------------


    POTLOK:  cpu time    0.55: real time    0.55
    SETDIJ:  cpu time    0.07: real time    0.07
     EDDAV:  cpu time   54.62: real time   54.62
 BZINTS: Fermi energy:  0.021093;120.000000 electrons
         Band energy:-264.594272;  BLOECHL correction: -0.027382
       DOS:  cpu time    0.04: real time    0.04
    --------------------------------------------
      LOOP:  cpu time   55.28: real time   55.29

 eigenvalue-minimisations  :  1304
 total energy-change (2. order) :-0.9194773E-06  (-0.4769162E-06)
 number of electron     120.0000445 magnetization 
 augmentation part       50.8262277 magnetization 

 Free energy of the ion-electron system (eV)
  ---------------------------------------------------
  alpha Z        PSCENC =       574.70065014
  Ewald energy   TEWEN  =     22913.77614894
  -1/2 Hartree   DENC   =    -33372.88380458
  -exchange  EXHF       =         0.00000000
  -V(xc)+E(xc)   XCENC  =      -356.34722046
  PAW double counting   =      8303.08931771    -7573.88182861
  entropy T*S    EENTRO =         0.00000000
  eigenvalues    EBANDS =      -264.59427245
  atomic energy  EATOM  =      9716.95502315
  ---------------------------------------------------
  free energy    TOTEN  =       -59.18598616 eV

  energy without entropy =      -59.18598616  energy(sigma->0) =      -59.18598616


--------------------------------------------------------------------------------------------------------




 average (electrostatic) potential at core
  the test charge radii are     1.1199
  (the norm of the test charge is              1.0000)
       1 -51.0441       2 -51.5387       3 -51.5086       4 -51.0441       5 -51.5387
       6 -51.5086       7 -51.5087       8 -51.5386       9 -51.0441      10 -51.5087
      11 -51.5386      12 -51.0441
 
 
 
 E-fermi :   0.0211     XC(G=0):  -7.8008     alpha+bet : -6.1545


 k-point   1 :       0.0000    0.0000    0.0000
  band No.  band energies     occupation 
      1      -6.4784      2.00000
      2      -5.6750      2.00000
      3      -4.8501      2.00000
      4      -4.7983      2.00000
      5      -4.7983      2.00000
      6      -4.7722      2.00000
      7      -4.6104      2.00000
      8      -4.5485      2.00000
      9      -4.5485      2.00000
     10      -4.3180      2.00000
     11      -4.3180      2.00000
     12      -4.3086      2.00000
     13      -4.2677      2.00000
     14      -4.1211      2.00000
     15      -4.0136      2.00000
     16      -4.0136      2.00000
     17      -3.8225      2.00000
     18      -3.7173      2.00000
     19      -3.7173      2.00000
     20      -3.3174      2.00000
     21      -3.2140      2.00000
     22      -3.2140      2.00000
     23      -2.8838      2.00000
     24      -2.6687      2.00000
     25      -2.4686      2.00000
     26      -2.4686      2.00000
     27      -2.1801      2.00000
     28      -2.1801      2.00000
     29      -2.0448      2.00000
     30      -2.0448      2.00000
     31      -1.5879      2.00000
     32      -1.4422      2.00000
     33      -1.4422      2.00000
     34      -1.4106      2.00000
     35      -1.1612      2.00000
     36      -1.0530      2.00000
     37      -1.0530      2.00000
     38      -1.0429      2.00000
     39      -1.0311      2.00000
     40      -0.9152      2.00000
     41      -0.9152      2.00000
     42      -0.8061      2.00000
     43      -0.7389      2.00000
     44      -0.7389      2.00000
     45      -0.5445      2.00000
     46      -0.4167      2.00000
     47      -0.4166      2.00000
     48      -0.2701      2.00000
     49      -0.1246      2.00000
     50      -0.1246      2.00000
     51      -0.0950      2.00000
     52      -0.0950      2.00000
     53      -0.0912      2.00000
     54      -0.0912      2.00000
     55      -0.0141      2.00000
     56       0.0342      1.81960
     57       0.2063     -0.00438
     58       0.2063     -0.63694
     59       0.2769      0.00000
     60       0.2769      0.00000
     61       0.3256      0.00000
     62       0.3257      0.00000
     63       0.3846      0.00000
     64       0.6204      0.00000
     65       0.6204      0.00000
     66       1.9606      0.00000
     67       2.9703      0.00000
     68       4.0515      0.00000
     69       4.0515      0.00000
     70       5.1820      0.00000
     71       5.5175      0.00000
     72       5.5175      0.00000

 k-point   2 :       0.1429    0.0000    0.0000
  band No.  band energies     occupation 
      1      -6.2489      2.00000
      2      -5.4678      2.00000
      3      -4.6969      2.00000
      4      -4.6873      2.00000
      5      -4.6642      2.00000
      6      -4.5925      2.00000
      7      -4.4813      2.00000
      8      -4.4640      2.00000
      9      -4.4613      2.00000
     10      -4.1961      2.00000
     11      -4.1616      2.00000
     12      -4.1536      2.00000
     13      -4.1441      2.00000
     14      -3.9574      2.00000
     15      -3.9467      2.00000
     16      -3.9421      2.00000
     17      -3.7323      2.00000
     18      -3.5832      2.00000
     19      -3.5675      2.00000
     20      -3.2586      2.00000
     21      -3.2213      2.00000
     22      -3.1801      2.00000
     23      -2.8654      2.00000
     24      -2.5722      2.00000
     25      -2.5000      2.00000
     26      -2.3930      2.00000
     27      -2.2884      2.00000
     28      -2.2050      2.00000
     29      -2.1789      2.00000
     30      -2.0756      2.00000
     31      -1.9662      2.00000
     32      -1.5352      2.00000
     33      -1.4705      2.00000
     34      -1.3284      2.00000
     35      -1.2955      2.00000
     36      -1.2506      2.00000
     37      -1.1817      2.00000
     38      -1.1435      2.00000
     39      -1.0271      2.00000
     40      -1.0187      2.00000
     41      -0.9452      2.00000
     42      -0.8723      2.00000
     43      -0.7624      2.00000
     44      -0.6478      2.00000
     45      -0.5851      2.00000
     46      -0.5788      2.00000
     47      -0.5181      2.00000
     48      -0.4915      2.00000
     49      -0.2899      2.00000
     50      -0.2743      2.00000
     51      -0.2463      2.00000
     52      -0.1734      2.00000
     53      -0.1412      2.00000
     54      -0.1386      2.00000
     55      -0.1273      2.00000
     56      -0.1134      2.02355
     57      -0.1030      1.96130
     58      -0.0044      1.69805
     59       0.0678      0.42845
     60       0.0861      0.01682
     61       0.1278     -0.04258
     62       0.2003      0.00000
     63       0.3409      0.00000
     64       0.3879      0.00000
     65       1.0356      0.00000
     66       2.5294      0.00000
     67       2.9452      0.00000
     68       3.6377      0.00000
     69       4.2644      0.00000
     70       4.7870      0.00000
     71       5.4184      0.00000
     72       5.7476      0.00000

 k-point   3 :       0.2857    0.0000    0.0000
  band No.  band energies     occupation 
      1      -5.6050      2.00000
      2      -4.8975      2.00000
      3      -4.4159      2.00000
      4      -4.3152      2.00000
      5      -4.2948      2.00000
      6      -4.2221      2.00000
      7      -4.1691      2.00000
      8      -4.1167      2.00000
      9      -4.0984      2.00000
     10      -3.8807      2.00000
     11      -3.8221      2.00000
     12      -3.7791      2.00000
     13      -3.7685      2.00000
     14      -3.7595      2.00000
     15      -3.7281      2.00000
     16      -3.4893      2.00000
     17      -3.4695      2.00000
     18      -3.2821      2.00000
     19      -3.2118      2.00000
     20      -3.1625      2.00000
     21      -3.1625      2.00000
     22      -3.1023      2.00000
     23      -3.0419      2.00000
     24      -2.5192      2.00000
     25      -2.4912      2.00000
     26      -2.3442      2.00000
     27      -2.3429      2.00000
     28      -2.3224      2.00000
     29      -2.3164      2.00000
     30      -2.1935      2.00000
     31      -2.0816      2.00000
     32      -2.0478      2.00000
     33      -1.7551      2.00000
     34      -1.6954      2.00000
     35      -1.5941      2.00000
     36      -1.5449      2.00000
     37      -1.5127      2.00000
     38      -1.3989      2.00000
     39      -1.3253      2.00000
     40      -1.2591      2.00000
     41      -1.1223      2.00000
     42      -1.0207      2.00000
     43      -0.9012      2.00000
     44      -0.8485      2.00000
     45      -0.8432      2.00000
     46      -0.8420      2.00000
     47      -0.8382      2.00000
     48      -0.8155      2.00000
     49      -0.7360      2.00000
     50      -0.6688      2.00000
     51      -0.5555      2.00000
     52      -0.5057      2.00000
     53      -0.4755      2.00000
     54      -0.4538      2.00000
     55      -0.4198      2.00000
     56      -0.4102      2.00000
     57      -0.2827      2.00000
     58      -0.2797      2.00000
     59      -0.1828      2.16389
     60      -0.0828      2.19137
     61      -0.0713      1.95436
     62       0.1775      0.00000
     63       0.1852      0.00000
     64       0.7435      0.00000
     65       1.0411      0.00000
     66       2.1209      0.00000
     67       2.2621      0.00000
     68       3.5956      0.00000
     69       3.6711      0.00000
     70       4.8936      0.00000
     71       5.0239      0.00000
     72       6.1593      0.00000

 k-point   4 :       0.4286    0.0000    0.0000
  band No.  band energies     occupation 
      1      -4.7507      2.00000
      2      -4.2612      2.00000
      3      -4.1641      2.00000
      4      -3.9162      2.00000
      5      -3.8757      2.00000
      6      -3.8582      2.00000
      7      -3.6985      2.00000
      8      -3.6983      2.00000
      9      -3.5926      2.00000
     10      -3.4970      2.00000
     11      -3.4942      2.00000
     12      -3.4802      2.00000
     13      -3.4378      2.00000
     14      -3.3788      2.00000
     15      -3.3721      2.00000
     16      -3.3353      2.00000
     17      -3.2490      2.00000
     18      -3.2179      2.00000
     19      -3.1879      2.00000
     20      -3.1752      2.00000
     21      -3.0679      2.00000
     22      -2.8719      2.00000
     23      -2.8333      2.00000
     24      -2.7806      2.00000
     25      -2.7353      2.00000
     26      -2.7194      2.00000
     27      -2.6439      2.00000
     28      -2.5026      2.00000
     29      -2.3720      2.00000
     30      -2.2946      2.00000
     31      -2.0677      2.00000
     32      -2.0447      2.00000
     33      -1.9709      2.00000
     34      -1.9635      2.00000
     35      -1.6828      2.00000
     36      -1.6804      2.00000
     37      -1.5976      2.00000
     38      -1.4690      2.00000
     39      -1.4667      2.00000
     40      -1.4118      2.00000
     41      -1.4062      2.00000
     42      -1.3968      2.00000
     43      -1.3369      2.00000
     44      -1.3178      2.00000
     45      -1.2732      2.00000
     46      -1.2079      2.00000
     47      -1.0893      2.00000
     48      -1.0523      2.00000
     49      -1.0419      2.00000
     50      -0.9908      2.00000
     51      -0.9566      2.00000
     52      -0.9524      2.00000
     53      -0.8388      2.00000
     54      -0.8068      2.00000
     55      -0.7002      2.00000
     56      -0.6833      2.00000
     57      -0.6164      2.00000
     58      -0.2875      2.00000
     59      -0.2285      2.00000
     60      -0.2267      2.00000
     61      -0.1711      2.10276
     62       0.1560      0.00000
     63       0.1674      0.00000
     64       0.6551      0.00000
     65       0.6791      0.00000
     66       1.8388      0.00000
     67       1.8532      0.00000
     68       3.2279      0.00000
     69       3.3735      0.00000
     70       4.8161      0.00000
     71       4.9930      0.00000
     72       6.2026      0.00000

 k-point   5 :       0.1429    0.1429    0.0000
  band No.  band energies     occupation 
      1      -6.0339      2.00000
      2      -5.2962      2.00000
      3      -4.6079      2.00000
      4      -4.5548      2.00000
      5      -4.5548      2.00000
      6      -4.5110      2.00000
      7      -4.3887      2.00000
      8      -4.3887      2.00000
      9      -4.3095      2.00000
     10      -4.1127      2.00000
     11      -4.0404      2.00000
     12      -4.0404      2.00000
     13      -3.9477      2.00000
     14      -3.9236      2.00000
     15      -3.9217      2.00000
     16      -3.9217      2.00000
     17      -3.4784      2.00000
     18      -3.4369      2.00000
     19      -3.4369      2.00000
     20      -3.2163      2.00000
     21      -3.2162      2.00000
     22      -3.1058      2.00000
     23      -2.8162      2.00000
     24      -2.4923      2.00000
     25      -2.4851      2.00000
     26      -2.3709      2.00000
     27      -2.2791      2.00000
     28      -2.2417      2.00000
     29      -2.2417      2.00000
     30      -2.1389      2.00000
     31      -2.0805      2.00000
     32      -1.6612      2.00000
     33      -1.6589      2.00000
     34      -1.3630      2.00000
     35      -1.3630      2.00000
     36      -1.2956      2.00000
     37      -1.2214      2.00000
     38      -1.1462      2.00000
     39      -1.0815      2.00000
     40      -1.0746      2.00000
     41      -1.0451      2.00000
     42      -1.0451      2.00000
     43      -0.9610      2.00000
     44      -0.8695      2.00000
     45      -0.6786      2.00000
     46      -0.6786      2.00000
     47      -0.6015      2.00000
     48      -0.6002      2.00000
     49      -0.5170      2.00000
     50      -0.5170      2.00000
     51      -0.4458      2.00000
     52      -0.4146      2.00000
     53      -0.4146      2.00000
     54      -0.1927      2.00000
     55      -0.1160      2.00000
     56      -0.0640      2.00568
     57      -0.0639      1.95004
     58      -0.0409      1.91582
     59       0.0417      0.96770
     60       0.0417      0.31587
     61       0.0936      0.01815
     62       0.1901      0.00000
     63       0.2429      0.00000
     64       0.2429      0.00000
     65       1.3782      0.00000
     66       2.9478      0.00000
     67       3.6297      0.00000
     68       3.6297      0.00000
     69       4.1488      0.00000
     70       4.7479      0.00000
     71       4.7479      0.00000
     72       5.6619      0.00000

 k-point   6 :       0.2857    0.1429    0.0000
  band No.  band energies     occupation 
      1      -5.4375      2.00000
      2      -4.8505      2.00000
      3      -4.3167      2.00000
      4      -4.3013      2.00000
      5      -4.2990      2.00000
      6      -4.2202      2.00000
      7      -4.1972      2.00000
      8      -4.1354      2.00000
      9      -3.9014      2.00000
     10      -3.8647      2.00000
     11      -3.8557      2.00000
     12      -3.8390      2.00000
     13      -3.7947      2.00000
     14      -3.7241      2.00000
     15      -3.6620      2.00000
     16      -3.4900      2.00000
     17      -3.2307      2.00000
     18      -3.1603      2.00000
     19      -3.1038      2.00000
     20      -3.0696      2.00000
     21      -2.9915      2.00000
     22      -2.8984      2.00000
     23      -2.7758      2.00000
     24      -2.4768      2.00000
     25      -2.3760      2.00000
     26      -2.3107      2.00000
     27      -2.2930      2.00000
     28      -2.2625      2.00000
     29      -2.2484      2.00000
     30      -2.2081      2.00000
     31      -2.1499      2.00000
     32      -2.0834      2.00000
     33      -1.8923      2.00000
     34      -1.8003      2.00000
     35      -1.7144      2.00000
     36      -1.5764      2.00000
     37      -1.5645      2.00000
     38      -1.4713      2.00000
     39      -1.3932      2.00000
     40      -1.3672      2.00000
     41      -1.2231      2.00000
     42      -1.2018      2.00000
     43      -1.1998      2.00000
     44      -1.1729      2.00000
     45      -1.0818      2.00000
     46      -0.9925      2.00000
     47      -0.9214      2.00000
     48      -0.8817      2.00000
     49      -0.8506      2.00000
     50      -0.8015      2.00000
     51      -0.6631      2.00000
     52      -0.5784      2.00000
     53      -0.4755      2.00000
     54      -0.4488      2.00000
     55      -0.3518      2.00000
     56      -0.1974      2.00000
     57      -0.1139      2.00000
     58      -0.0983      2.00000
     59      -0.0938      2.07566
     60       0.0089      1.78613
     61       0.0581      0.33171
     62       0.1022      0.00000
     63       0.1100      0.00000
     64       0.7394      0.00000
     65       1.6999      0.00000
     66       2.2748      0.00000
     67       2.6224      0.00000
     68       3.7896      0.00000
     69       3.9264      0.00000
     70       4.9654      0.00000
     71       5.0944      0.00000
     72       5.2183      0.00000

 k-point   7 :       0.4286    0.1429    0.0000
  band No.  band energies     occupation 
      1      -4.6657      2.00000
      2      -4.3518      2.00000
      3      -4.2109      2.00000
      4      -4.0800      2.00000
      5      -4.0520      2.00000
      6      -3.9051      2.00000
      7      -3.8748      2.00000
      8      -3.8740      2.00000
      9      -3.7136      2.00000
     10      -3.6961      2.00000
     11      -3.6404      2.00000
     12      -3.5140      2.00000
     13      -3.4189      2.00000
     14      -3.3891      2.00000
     15      -3.2596      2.00000
     16      -3.2143      2.00000
     17      -3.1408      2.00000
     18      -3.1311      2.00000
     19      -2.9523      2.00000
     20      -2.8966      2.00000
     21      -2.8072      2.00000
     22      -2.7324      2.00000
     23      -2.6535      2.00000
     24      -2.6260      2.00000
     25      -2.5882      2.00000
     26      -2.4962      2.00000
     27      -2.4683      2.00000
     28      -2.3755      2.00000
     29      -2.2905      2.00000
     30      -2.2544      2.00000
     31      -2.1913      2.00000
     32      -2.1012      2.00000
     33      -2.0171      2.00000
     34      -1.9930      2.00000
     35      -1.8124      2.00000
     36      -1.7722      2.00000
     37      -1.7654      2.00000
     38      -1.7459      2.00000
     39      -1.6702      2.00000
     40      -1.6444      2.00000
     41      -1.6229      2.00000
     42      -1.5253      2.00000
     43      -1.4411      2.00000
     44      -1.2924      2.00000
     45      -1.2709      2.00000
     46      -1.2257      2.00000
     47      -1.0540      2.00000
     48      -1.0098      2.00000
     49      -0.9032      2.00000
     50      -0.8201      2.00000
     51      -0.8037      2.00000
     52      -0.7937      2.00000
     53      -0.5828      2.00000
     54      -0.5141      2.00000
     55      -0.4479      2.00000
     56      -0.3593      2.00000
     57      -0.3362      2.00000
     58      -0.2976      2.00000
     59      -0.1431      2.00000
     60      -0.0675      2.00000
     61      -0.0074      1.91104
     62       0.0434      0.00000
     63       0.1762      0.00000
     64       0.6030      0.00000
     65       0.8262      0.00000
     66       1.8295      0.00000
     67       1.8996      0.00000
     68       3.2521      0.00000
     69       3.4508      0.00000
     70       4.8416      0.00000
     71       5.1449      0.00000
     72       6.2497      0.00000

 k-point   8 :       0.2857    0.2857    0.0000
  band No.  band energies     occupation 
      1      -5.0085      2.00000
      2      -4.7423      2.00000
      3      -4.4356      2.00000
      4      -4.2405      2.00000
      5      -4.2186      2.00000
      6      -4.2186      2.00000
      7      -4.0793      2.00000
      8      -4.0793      2.00000
      9      -3.8917      2.00000
     10      -3.8452      2.00000
     11      -3.7935      2.00000
     12      -3.7935      2.00000
     13      -3.4718      2.00000
     14      -3.3815      2.00000
     15      -3.3815      2.00000
     16      -3.1295      2.00000
     17      -3.1295      2.00000
     18      -3.1152      2.00000
     19      -2.8215      2.00000
     20      -2.8215      2.00000
     21      -2.8011      2.00000
     22      -2.6554      2.00000
     23      -2.4371      2.00000
     24      -2.2914      2.00000
     25      -2.2616      2.00000
     26      -2.2595      2.00000
     27      -2.2298      2.00000
     28      -2.2298      2.00000
     29      -2.2189      2.00000
     30      -2.1949      2.00000
     31      -2.0757      2.00000
     32      -2.0757      2.00000
     33      -2.0298      2.00000
     34      -1.9667      2.00000
     35      -1.9648      2.00000
     36      -1.7802      2.00000
     37      -1.7802      2.00000
     38      -1.7503      2.00000
     39      -1.6516      2.00000
     40      -1.6516      2.00000
     41      -1.6018      2.00000
     42      -1.5672      2.00000
     43      -1.3494      2.00000
     44      -1.3138      2.00000
     45      -1.3138      2.00000
     46      -1.2831      2.00000
     47      -0.8771      2.00000
     48      -0.7484      2.00000
     49      -0.7484      2.00000
     50      -0.7314      2.00000
     51      -0.6644      2.00000
     52      -0.5955      2.00000
     53      -0.4081      2.00000
     54      -0.4081      2.00000
     55      -0.4049      2.00000
     56      -0.2721      2.00000
     57      -0.0563      2.00000
     58      -0.0132      2.00000
     59      -0.0132      1.99335
     60       0.0060      1.98705
     61       0.0488     -0.00668
     62       0.0488      0.00000
     63       0.0858      0.00000
     64       0.9790      0.00000
     65       2.7863      0.00000
     66       2.8781      0.00000
     67       2.8781      0.00000
     68       3.4481      0.00000
     69       3.4481      0.00000
     70       4.0385      0.00000
     71       4.0385      0.00000
     72       4.5835      0.00000

 k-point   9 :       0.4286    0.2857    0.0000
  band No.  band energies     occupation 
      1      -4.6218      2.00000
      2      -4.6059      2.00000
      3      -4.4280      2.00000
      4      -4.4236      2.00000
      5      -4.2990      2.00000
      6      -4.1042      2.00000
      7      -4.0449      2.00000
      8      -4.0314      2.00000
      9      -3.6862      2.00000
     10      -3.6462      2.00000
     11      -3.5634      2.00000
     12      -3.4482      2.00000
     13      -3.3338      2.00000
     14      -3.2243      2.00000
     15      -3.0551      2.00000
     16      -3.0324      2.00000
     17      -2.9572      2.00000
     18      -2.8473      2.00000
     19      -2.8068      2.00000
     20      -2.6847      2.00000
     21      -2.6614      2.00000
     22      -2.6556      2.00000
     23      -2.6200      2.00000
     24      -2.4972      2.00000
     25      -2.4834      2.00000
     26      -2.4086      2.00000
     27      -2.3833      2.00000
     28      -2.3780      2.00000
     29      -2.2754      2.00000
     30      -2.1587      2.00000
     31      -2.1193      2.00000
     32      -2.0841      2.00000
     33      -2.0757      2.00000
     34      -2.0412      2.00000
     35      -1.9806      2.00000
     36      -1.9281      2.00000
     37      -1.8295      2.00000
     38      -1.7992      2.00000
     39      -1.7297      2.00000
     40      -1.6178      2.00000
     41      -1.4474      2.00000
     42      -1.4349      2.00000
     43      -1.3667      2.00000
     44      -1.3373      2.00000
     45      -1.2593      2.00000
     46      -1.0094      2.00000
     47      -0.9253      2.00000
     48      -0.7406      2.00000
     49      -0.6819      2.00000
     50      -0.6470      2.00000
     51      -0.5939      2.00000
     52      -0.5417      2.00000
     53      -0.3413      2.00000
     54      -0.2407      2.00000
     55      -0.1738      2.00000
     56      -0.1565      2.00000
     57      -0.1550      2.00000
     58      -0.1394      2.00000
     59      -0.0685      2.00000
     60      -0.0643      2.00000
     61       0.0356      0.17569
     62       0.0500      0.00000
     63       0.4760      0.00000
     64       1.1637      0.00000
     65       1.4148      0.00000
     66       1.8349      0.00000
     67       2.0420      0.00000
     68       3.1123      0.00000
     69       3.5924      0.00000
     70       4.1067      0.00000
     71       4.1427      0.00000
     72       5.1290      0.00000

 k-point  10 :       0.4286    0.4286    0.0000
  band No.  band energies     occupation 
      1      -4.7311      2.00000
      2      -4.7264      2.00000
      3      -4.6693      2.00000
      4      -4.6693      2.00000
      5      -4.2638      2.00000
      6      -4.2159      2.00000
      7      -4.1732      2.00000
      8      -4.1732      2.00000
      9      -3.5989      2.00000
     10      -3.5869      2.00000
     11      -3.4825      2.00000
     12      -3.4825      2.00000
     13      -3.0065      2.00000
     14      -2.9424      2.00000
     15      -2.9424      2.00000
     16      -2.8854      2.00000
     17      -2.7925      2.00000
     18      -2.7925      2.00000
     19      -2.6679      2.00000
     20      -2.6431      2.00000
     21      -2.6241      2.00000
     22      -2.5921      2.00000
     23      -2.5921      2.00000
     24      -2.5334      2.00000
     25      -2.5334      2.00000
     26      -2.4734      2.00000
     27      -2.4717      2.00000
     28      -2.4664      2.00000
     29      -2.2655      2.00000
     30      -2.2655      2.00000
     31      -2.2055      2.00000
     32      -2.1427      2.00000
     33      -2.0687      2.00000
     34      -2.0605      2.00000
     35      -2.0264      2.00000
     36      -2.0264      2.00000
     37      -1.5769      2.00000
     38      -1.5477      2.00000
     39      -1.5121      2.00000
     40      -1.5121      2.00000
     41      -1.4269      2.00000
     42      -1.3642      2.00000
     43      -1.3642      2.00000
     44      -1.2711      2.00000
     45      -0.9449      2.00000
     46      -0.6474      2.00000
     47      -0.6474      2.00000
     48      -0.6046      2.00000
     49      -0.5710      2.00000
     50      -0.5511      2.00000
     51      -0.5511      2.00000
     52      -0.3736      2.00000
     53      -0.2097      2.00000
     54      -0.1751      2.00000
     55      -0.1751      2.00000
     56      -0.1596      2.00000
     57      -0.0773      2.00000
     58      -0.0601      2.00000
     59      -0.0601      2.00000
     60       0.0155      2.00000
     61       0.6601      0.00000
     62       0.8137      0.00000
     63       1.0620      0.00000
     64       1.9714      0.00000
     65       2.0200      0.00000
     66       2.0200      0.00000
     67       2.3165      0.00000
     68       2.3165      0.00000
     69       2.4342      0.00000
     70       2.4342      0.00000
     71       3.2770      0.00000
     72       3.6986      0.00000


--------------------------------------------------------------------------------------------------------


 soft charge-density along one line, spin component           1
         0         1         2         3         4         5         6         7         8         9
 total charge-density along one line
 
 pseudopotential strength for first ion, spin component:           1
-11.495   0.000   0.000   0.000   0.000   0.124   0.000   0.000
  0.000 -11.394   0.000   0.000   0.000   0.000   0.108   0.000
  0.000   0.000 -11.366   0.000   0.000   0.000   0.000   0.104
  0.000   0.000   0.000 -11.394   0.000   0.000   0.000   0.000
  0.000   0.000   0.000   0.000 -11.438   0.000   0.000   0.000
  0.124   0.000   0.000   0.000   0.000   0.321   0.000   0.000
  0.000   0.108   0.000   0.000   0.000   0.000   0.324   0.000
  0.000   0.000   0.104   0.000   0.000   0.000   0.000   0.324
  0.000   0.000   0.000   0.108   0.000   0.000   0.000   0.000
  0.000   0.000   0.000   0.000   0.116   0.000   0.000   0.000
  0.000   0.000  -0.021   0.000   0.000   0.000   0.000   0.003
  0.000   0.000   0.002   0.000   0.000   0.000   0.000   0.000
  0.000  -0.016   0.000   0.000   0.000   0.000   0.003   0.000
  0.000   0.000  -0.019   0.000   0.000   0.000   0.000   0.003
  0.000   0.000   0.000  -0.016   0.000   0.000   0.000   0.000
  0.000   0.013   0.000   0.000   0.000   0.000  -0.002   0.000
  0.000   0.000   0.015   0.000   0.000   0.000   0.000  -0.002
  0.000   0.000   0.000   0.013   0.000   0.000   0.000   0.000
 total augmentation occupancy for first ion, spin component:           1
  1.649   0.000   0.000   0.000   0.000   0.184   0.000   0.000   0.000   0.000   0.000   0.000   0.000   0.000   0.000   0.000
  0.000   1.825   0.000   0.000   0.000   0.000   0.080   0.000   0.000   0.000   0.000   0.000  -0.011   0.000   0.000  -0.021
  0.000   0.000   1.860   0.000   0.000   0.000   0.000   0.058   0.000   0.000   0.016  -0.045   0.000   0.008   0.000   0.000
  0.000   0.000   0.000   1.825   0.000   0.000   0.000   0.000   0.080   0.000   0.000   0.000   0.000   0.000  -0.011   0.000
  0.000   0.000   0.000   0.000   1.859   0.000   0.000   0.000   0.000   0.045   0.000   0.000   0.000   0.000   0.000   0.000
  0.184   0.000   0.000   0.000   0.000   0.103   0.000   0.000   0.000   0.000   0.000   0.000   0.000   0.000   0.000   0.000
  0.000   0.080   0.000   0.000   0.000   0.000   0.095   0.000   0.000   0.000   0.000   0.000   0.051   0.000   0.000  -0.002
  0.000   0.000   0.058   0.000   0.000   0.000   0.000   0.091   0.000   0.000  -0.082   0.020   0.000   0.036   0.000   0.000
  0.000   0.000   0.000   0.080   0.000   0.000   0.000   0.000   0.095   0.000   0.000   0.000   0.000   0.000   0.051   0.000
  0.000   0.000   0.000   0.000   0.045   0.000   0.000   0.000   0.000   0.100   0.000   0.000   0.000   0.000   0.000   0.000
  0.000   0.000   0.016   0.000   0.000   0.000   0.000  -0.082   0.000   0.000   0.956  -0.308   0.000   0.095   0.000   0.000
  0.000   0.000  -0.045   0.000   0.000   0.000   0.000   0.020   0.000   0.000  -0.308   0.113   0.000  -0.046   0.000   0.000
  0.000  -0.011   0.000   0.000   0.000   0.000   0.051   0.000   0.000   0.000   0.000   0.000   0.097   0.000   0.000  -0.002
  0.000   0.000   0.008   0.000   0.000   0.000   0.000   0.036   0.000   0.000   0.095  -0.046   0.000   0.059   0.000   0.000
  0.000   0.000   0.000  -0.011   0.000   0.000   0.000   0.000   0.051   0.000   0.000   0.000   0.000   0.000   0.097   0.000
  0.000  -0.021   0.000   0.000   0.000   0.000  -0.002   0.000   0.000   0.000   0.000   0.000  -0.002   0.000   0.000   0.000
  0.000   0.000  -0.028   0.000   0.000   0.000   0.000  -0.001   0.000   0.000  -0.005   0.003   0.000  -0.001   0.000   0.000
  0.000   0.000   0.000  -0.021   0.000   0.000   0.000   0.000  -0.002   0.000   0.000   0.000   0.000   0.000  -0.002   0.000


------------------------ aborting loop because EDIFF is reached ----------------------------------------


    CHARGE:  cpu time    1.76: real time    1.77
    FORLOC:  cpu time    0.06: real time    0.06
    FORNL :  cpu time   25.99: real time   26.00
    STRESS:  cpu time   69.02: real time   69.04
    FORCOR:  cpu time    0.59: real time    0.59
    FORHAR:  cpu time    0.19: real time    0.19
    MIXING:  cpu time    0.02: real time    0.02

  FORCE on cell =-STRESS in cart. coord.  units (eV):
  Direction    XX          YY          ZZ          XY          YZ          ZX
  --------------------------------------------------------------------------------------
  Alpha Z   574.70065   574.70065   574.70065
  Ewald   29493.55948 29493.55948-36073.35665     0.00000     0.00000     0.00000
  Hartree 32364.46150 32364.46150-31356.32240     0.00000     0.00000     0.00000
  E(xc)    -627.14978  -627.14978  -629.11438     0.00000     0.00000     0.00000
  Local  -63307.77631-63307.77631 65969.02034     0.00000     0.00000     0.00000
  n-local  -647.81471  -640.02555  -647.04077     9.00558     0.00000     0.00000
  augment   513.75219   513.75219   518.79211     0.00000     0.00000     0.00000
  Kinetic  1638.90930  1616.18798  1642.19827     7.07759     0.00000     0.00000
  Fock        0.00000     0.00000     0.00000     0.00000     0.00000     0.00000
  -------------------------------------------------------------------------------------
  Total      -4.82376    -4.82376    -1.12283     0.00000     0.00000     0.00000
  in kB     -22.65505   -22.65505    -5.27343     0.00000     0.00000     0.00000
  external pressure =      -16.86 kB  Pullay stress =        0.00 kB


 VOLUME and BASIS-vectors are now :
 -----------------------------------------------------------------------------
  energy-cutoff  :      415.00
  volume of cell :      341.14
      direct lattice vectors                 reciprocal lattice vectors
     3.951020398  0.000000000  0.000000000     0.253099174  0.000000000  0.000000000
     0.000000000  3.951020398  0.000000000     0.000000000  0.253099174  0.000000000
     0.000000000  0.000000000 21.853061195     0.000000000  0.000000000  0.045760179

  length of vectors
     3.951020398  3.951020398 21.853061195     0.253099174  0.253099174  0.045760179


 FORCES acting on ions
    electron-ion (+dipol)            ewald-force                    non-local-force                 convergence-correction
 -----------------------------------------------------------------------------------------------
   0.375E-13 0.148E-13 0.261E+04   0.785E-14 -.124E-13 -.261E+04   -.775E-24 0.000E+00 -.178E+01   -.487E-13 -.380E-13 -.562E-02
   0.330E-13 0.368E-14 0.530E+03   0.114E-13 0.631E-14 -.530E+03   -.202E-23 0.827E-24 0.992E-01   -.426E-13 0.337E-13 0.117E-01
   0.297E-13 0.129E-13 -.159E+04   0.313E-14 -.402E-14 0.159E+04   -.341E-23 -.331E-23 -.150E+00   -.137E-13 0.366E-13 -.426E-01
   -.337E-13 -.784E-15 0.261E+04   -.214E-13 0.225E-14 -.261E+04   0.251E-23 0.000E+00 -.178E+01   -.591E-13 -.322E-13 -.562E-02
   -.280E-13 -.218E-14 0.530E+03   -.185E-13 0.194E-13 -.530E+03   -.243E-23 0.414E-24 0.992E-01   -.609E-13 0.245E-13 0.117E-01
   -.476E-13 -.795E-12 -.159E+04   -.244E-13 0.757E-14 0.159E+04   -.339E-23 0.000E+00 -.150E+00   -.225E-13 0.393E-13 -.426E-01
   -.666E-13 0.130E-13 0.159E+04   0.236E-13 -.786E-14 -.159E+04   0.395E-23 -.827E-24 0.150E+00   -.597E-13 -.133E-13 0.426E-01
   -.407E-14 0.309E-13 -.530E+03   0.176E-13 -.197E-13 0.530E+03   0.269E-23 0.000E+00 -.992E-01   -.295E-13 0.610E-14 -.117E-01
   -.843E-13 0.877E-14 -.261E+04   0.205E-13 -.253E-14 0.261E+04   -.254E-23 0.000E+00 0.178E+01   -.989E-14 0.405E-13 0.562E-02
   0.521E-13 -.939E-13 0.159E+04   -.401E-14 0.374E-14 -.159E+04   0.352E-23 0.124E-23 0.150E+00   -.552E-13 -.343E-13 0.426E-01
   0.403E-13 -.904E-13 -.530E+03   -.123E-13 -.660E-14 0.530E+03   0.145E-23 -.129E-23 -.992E-01   -.180E-13 -.249E-13 -.117E-01
   0.190E-13 -.334E-12 -.261E+04   -.872E-14 0.121E-13 0.261E+04   -.879E-24 -.165E-23 0.178E+01   -.182E-13 0.307E-13 0.562E-02
 -----------------------------------------------------------------------------------------------
   -.526E-13 -.123E-11 -.290E-03   -.523E-14 -.173E-14 0.000E+00   -.133E-23 -.460E-23 -.888E-15   -.438E-12 0.687E-13 -.251E-05
 
 
 POSITION                                       TOTAL-FORCE (eV/Angst)
 -----------------------------------------------------------------------------------
      0.00000      0.00000      0.00500         0.000000      0.000000      0.059585
      0.00000      0.00000      3.95181         0.000000      0.000000     -0.014256
      0.00000      0.00000      7.90678         0.000000      0.000000      0.030987
      1.97551      1.97551      0.00500         0.000000      0.000000      0.059585
      1.97551      1.97551      3.95181         0.000000      0.000000     -0.014256
      1.97551      1.97551      7.90678         0.000000      0.000000      0.030987
      1.97551      0.00000      1.97077         0.000000      0.000000     -0.030987
      1.97551      0.00000      5.92574         0.000000      0.000000      0.014256
      1.97551      0.00000      9.87255         0.000000      0.000000     -0.059585
      0.00000      1.97551      1.97077         0.000000      0.000000     -0.030987
      0.00000      1.97551      5.92574         0.000000      0.000000      0.014256
      0.00000      1.97551      9.87255         0.000000      0.000000     -0.059585
 -----------------------------------------------------------------------------------
    total drift:                                0.000000      0.000000     -0.000293


--------------------------------------------------------------------------------------------------------



  FREE ENERGIE OF THE ION-ELECTRON SYSTEM (eV)
  ---------------------------------------------------
  free  energy   TOTEN  =       -59.185986 eV

  energy  without entropy=      -59.185986  energy(sigma->0) =      -59.185986
 
 d Force = 0.1445096E-02[ 0.104E-02, 0.185E-02]  d Energy = 0.1377519E-02 0.676E-04
 d Force =-0.1422599E+02[-0.142E+02,-0.142E+02]  d Ewald  =-0.1422600E+02 0.103E-04


--------------------------------------------------------------------------------------------------------


    POTLOK:  cpu time    0.63: real time    0.63


--------------------------------------------------------------------------------------------------------




--------------------------------------------------------------------------------------------------------


    WAVPRE:  cpu time    0.12: real time    0.12
    FEWALD:  cpu time    0.00: real time    0.00
    ORTHCH:  cpu time    8.50: real time    8.50
     LOOP+:  cpu time  689.42: real time  689.53


----------------------------------------- Iteration    5(   1)  ---------------------------------------


    POTLOK:  cpu time    0.55: real time    0.55
    SETDIJ:  cpu time    0.07: real time    0.07
     EDDAV:  cpu time   58.79: real time   58.83
 BZINTS: Fermi energy:  0.023378;120.000000 electrons
         Band energy:-264.890335;  BLOECHL correction: -0.027099
       DOS:  cpu time    0.04: real time    0.04
    CHARGE:  cpu time    1.75: real time    1.75
    MIXING:  cpu time    0.02: real time    0.02
    --------------------------------------------
      LOOP:  cpu time   61.23: real time   61.27

 eigenvalue-minimisations  :  1440
 total energy-change (2. order) : 0.3704781E-02  (-0.1720835E+00)
 number of electron     120.0000448 magnetization 
 augmentation part       50.8202255 magnetization 

 Broyden mixing:
  rms(total) = 0.19012E-01    rms(broyden)= 0.19005E-01
  rms(prec ) = 0.21324E-01
  weight for this iteration     100.00

 Free energy of the ion-electron system (eV)
  ---------------------------------------------------
  alpha Z        PSCENC =       574.70065014
  Ewald energy   TEWEN  =     22942.30832997
  -1/2 Hartree   DENC   =    -33401.15865891
  -exchange  EXHF       =         0.00000000
  -V(xc)+E(xc)   XCENC  =      -356.30463024
  PAW double counting   =      8303.08670027    -7573.87936002
  entropy T*S    EENTRO =         0.00000000
  eigenvalues    EBANDS =      -264.89033481
  atomic energy  EATOM  =      9716.95502315
  ---------------------------------------------------
  free energy    TOTEN  =       -59.18228046 eV

  energy without entropy =      -59.18228046  energy(sigma->0) =      -59.18228046


--------------------------------------------------------------------------------------------------------




----------------------------------------- Iteration    5(   2)  ---------------------------------------


    POTLOK:  cpu time    0.55: real time    0.55
    SETDIJ:  cpu time    0.07: real time    0.07
     EDDAV:  cpu time   80.10: real time   80.11
 BZINTS: Fermi energy:  0.032705;120.000000 electrons
         Band energy:-263.820705;  BLOECHL correction: -0.028358
       DOS:  cpu time    0.04: real time    0.04
    CHARGE:  cpu time    1.67: real time    1.67
    MIXING:  cpu time    0.02: real time    0.02
    --------------------------------------------
      LOOP:  cpu time   82.45: real time   82.46

 eigenvalue-minimisations  :  2128
 total energy-change (2. order) :-0.6956348E-02  (-0.6410561E-02)
 number of electron     120.0000448 magnetization 
 augmentation part       50.8155005 magnetization 

 Broyden mixing:
  rms(total) = 0.45899E-01    rms(broyden)= 0.45896E-01
  rms(prec ) = 0.67553E-01
  weight for this iteration     100.00

 eigenvalues of (default mixing * dielectric matrix)
  average eigenvalue GAMMA=   0.2655
  0.2655

 Free energy of the ion-electron system (eV)
  ---------------------------------------------------
  alpha Z        PSCENC =       574.70065014
  Ewald energy   TEWEN  =     22942.30832997
  -1/2 Hartree   DENC   =    -33402.18812735
  -exchange  EXHF       =         0.00000000
  -V(xc)+E(xc)   XCENC  =      -356.31297075
  PAW double counting   =      8303.32634287    -7574.15777961
  entropy T*S    EENTRO =         0.00000000
  eigenvalues    EBANDS =      -263.82070522
  atomic energy  EATOM  =      9716.95502315
  ---------------------------------------------------
  free energy    TOTEN  =       -59.18923680 eV

  energy without entropy =      -59.18923680  energy(sigma->0) =      -59.18923680


--------------------------------------------------------------------------------------------------------




----------------------------------------- Iteration    5(   3)  ---------------------------------------


    POTLOK:  cpu time    0.55: real time    0.55
    SETDIJ:  cpu time    0.08: real time    0.07
     EDDAV:  cpu time   70.39: real time   70.40
 BZINTS: Fermi energy:  0.019009;120.000000 electrons
         Band energy:-265.288500;  BLOECHL correction: -0.026515
       DOS:  cpu time    0.04: real time    0.04
    CHARGE:  cpu time    1.72: real time    1.72
    MIXING:  cpu time    0.02: real time    0.02
    --------------------------------------------
      LOOP:  cpu time   72.80: real time   72.81

 eigenvalue-minimisations  :  1816
 total energy-change (2. order) : 0.1294394E-02  (-0.1656745E-02)
 number of electron     120.0000448 magnetization 
 augmentation part       50.8259629 magnetization 

 Broyden mixing:
  rms(total) = 0.38996E-01    rms(broyden)= 0.38989E-01
  rms(prec ) = 0.56739E-01
  weight for this iteration     100.00

 eigenvalues of (default mixing * dielectric matrix)
  average eigenvalue GAMMA=   0.2857
  0.1024  0.4691

 Free energy of the ion-electron system (eV)
  ---------------------------------------------------
  alpha Z        PSCENC =       574.70065014
  Ewald energy   TEWEN  =     22942.30832997
  -1/2 Hartree   DENC   =    -33400.71578813
  -exchange  EXHF       =         0.00000000
  -V(xc)+E(xc)   XCENC  =      -356.31190713
  PAW double counting   =      8303.26782956    -7574.10358039
  entropy T*S    EENTRO =         0.00000000
  eigenvalues    EBANDS =      -265.28849958
  atomic energy  EATOM  =      9716.95502315
  ---------------------------------------------------
  free energy    TOTEN  =       -59.18794241 eV

  energy without entropy =      -59.18794241  energy(sigma->0) =      -59.18794241


--------------------------------------------------------------------------------------------------------




----------------------------------------- Iteration    5(   4)  ---------------------------------------


    POTLOK:  cpu time    0.55: real time    0.55
    SETDIJ:  cpu time    0.07: real time    0.07
     EDDAV:  cpu time   78.43: real time   78.44
 BZINTS: Fermi energy:  0.022048;120.000000 electrons
         Band energy:-264.990775;  BLOECHL correction: -0.027244
       DOS:  cpu time    0.04: real time    0.04
    CHARGE:  cpu time    1.75: real time    1.75
    MIXING:  cpu time    0.02: real time    0.02
    --------------------------------------------
      LOOP:  cpu time   80.86: real time   80.88

 eigenvalue-minimisations  :  2080
 total energy-change (2. order) : 0.1320260E-02  (-0.5127242E-03)
 number of electron     120.0000448 magnetization 
 augmentation part       50.8244338 magnetization 

 Broyden mixing:
  rms(total) = 0.12434E-01    rms(broyden)= 0.12428E-01
  rms(prec ) = 0.13605E-01
  weight for this iteration     100.00

 eigenvalues of (default mixing * dielectric matrix)
  average eigenvalue GAMMA=   0.2607
  0.3377  0.3377  0.1065

 Free energy of the ion-electron system (eV)
  ---------------------------------------------------
  alpha Z        PSCENC =       574.70065014
  Ewald energy   TEWEN  =     22942.30832997
  -1/2 Hartree   DENC   =    -33401.00507128
  -exchange  EXHF       =         0.00000000
  -V(xc)+E(xc)   XCENC  =      -356.31177360
  PAW double counting   =      8303.35417285    -7574.19717829
  entropy T*S    EENTRO =         0.00000000
  eigenvalues    EBANDS =      -264.99077510
  atomic energy  EATOM  =      9716.95502315
  ---------------------------------------------------
  free energy    TOTEN  =       -59.18662215 eV

  energy without entropy =      -59.18662215  energy(sigma->0) =      -59.18662215


--------------------------------------------------------------------------------------------------------




----------------------------------------- Iteration    5(   5)  ---------------------------------------


    POTLOK:  cpu time    0.55: real time    0.55
    SETDIJ:  cpu time    0.08: real time    0.07
     EDDAV:  cpu time   79.50: real time   79.51
 BZINTS: Fermi energy:  0.022726;120.000000 electrons
         Band energy:-264.929018;  BLOECHL correction: -0.027199
       DOS:  cpu time    0.04: real time    0.04
    CHARGE:  cpu time    1.72: real time    1.72
    MIXING:  cpu time    0.02: real time    0.02
    --------------------------------------------
      LOOP:  cpu time   81.91: real time   81.92

 eigenvalue-minimisations  :  2112
 total energy-change (2. order) : 0.1647937E-03  (-0.4120038E-04)
 number of electron     120.0000448 magnetization 
 augmentation part       50.8241110 magnetization 

 Broyden mixing:
  rms(total) = 0.92405E-02    rms(broyden)= 0.92400E-02
  rms(prec ) = 0.10062E-01
  weight for this iteration     100.00

 eigenvalues of (default mixing * dielectric matrix)
  average eigenvalue GAMMA=   0.6116
  1.0451  1.0451  0.1042  0.2521

 Free energy of the ion-electron system (eV)
  ---------------------------------------------------
  alpha Z        PSCENC =       574.70065014
  Ewald energy   TEWEN  =     22942.30832997
  -1/2 Hartree   DENC   =    -33401.06489958
  -exchange  EXHF       =         0.00000000
  -V(xc)+E(xc)   XCENC  =      -356.31173004
  PAW double counting   =      8303.43318388    -7574.27799671
  entropy T*S    EENTRO =         0.00000000
  eigenvalues    EBANDS =      -264.92901816
  atomic energy  EATOM  =      9716.95502315
  ---------------------------------------------------
  free energy    TOTEN  =       -59.18645735 eV

  energy without entropy =      -59.18645735  energy(sigma->0) =      -59.18645735


--------------------------------------------------------------------------------------------------------




----------------------------------------- Iteration    5(   6)  ---------------------------------------


    POTLOK:  cpu time    0.55: real time    0.55
    SETDIJ:  cpu time    0.08: real time    0.07
     EDDAV:  cpu time   78.38: real time   78.38
 BZINTS: Fermi energy:  0.022741;120.000000 electrons
         Band energy:-264.946581;  BLOECHL correction: -0.027194
       DOS:  cpu time    0.04: real time    0.04
    CHARGE:  cpu time    1.68: real time    1.68
    MIXING:  cpu time    0.02: real time    0.02
    --------------------------------------------
      LOOP:  cpu time   80.75: real time   80.75

 eigenvalue-minimisations  :  2072
 total energy-change (2. order) : 0.1268594E-03  (-0.3870884E-04)
 number of electron     120.0000448 magnetization 
 augmentation part       50.8227487 magnetization 

 Broyden mixing:
  rms(total) = 0.43970E-02    rms(broyden)= 0.43968E-02
  rms(prec ) = 0.49243E-02
  weight for this iteration     100.00

 eigenvalues of (default mixing * dielectric matrix)
  average eigenvalue GAMMA=   0.8859
  2.4979  0.1044  0.2534  0.7870  0.7870

 Free energy of the ion-electron system (eV)
  ---------------------------------------------------
  alpha Z        PSCENC =       574.70065014
  Ewald energy   TEWEN  =     22942.30832997
  -1/2 Hartree   DENC   =    -33401.03811384
  -exchange  EXHF       =         0.00000000
  -V(xc)+E(xc)   XCENC  =      -356.31001694
  PAW double counting   =      8303.82990785    -7574.68553013
  entropy T*S    EENTRO =         0.00000000
  eigenvalues    EBANDS =      -264.94658070
  atomic energy  EATOM  =      9716.95502315
  ---------------------------------------------------
  free energy    TOTEN  =       -59.18633050 eV

  energy without entropy =      -59.18633050  energy(sigma->0) =      -59.18633050


--------------------------------------------------------------------------------------------------------




----------------------------------------- Iteration    5(   7)  ---------------------------------------


    POTLOK:  cpu time    0.55: real time    0.55
    SETDIJ:  cpu time    0.07: real time    0.07
     EDDAV:  cpu time   74.13: real time   74.14
 BZINTS: Fermi energy:  0.022182;120.000000 electrons
         Band energy:-265.019461;  BLOECHL correction: -0.027206
       DOS:  cpu time    0.04: real time    0.04
    CHARGE:  cpu time    1.70: real time    1.70
    MIXING:  cpu time    0.02: real time    0.02
    --------------------------------------------
      LOOP:  cpu time   76.51: real time   76.53

 eigenvalue-minimisations  :  1936
 total energy-change (2. order) : 0.1257108E-04  (-0.3306886E-04)
 number of electron     120.0000448 magnetization 
 augmentation part       50.8230794 magnetization 

 Broyden mixing:
  rms(total) = 0.15140E-02    rms(broyden)= 0.15136E-02
  rms(prec ) = 0.16380E-02
  weight for this iteration     100.00

 eigenvalues of (default mixing * dielectric matrix)
  average eigenvalue GAMMA=   0.9177
  2.5626  0.9227  0.9227  0.7409  0.1044  0.2532

 Free energy of the ion-electron system (eV)
  ---------------------------------------------------
  alpha Z        PSCENC =       574.70065014
  Ewald energy   TEWEN  =     22942.30832997
  -1/2 Hartree   DENC   =    -33400.94480845
  -exchange  EXHF       =         0.00000000
  -V(xc)+E(xc)   XCENC  =      -356.31045775
  PAW double counting   =      8304.15873571    -7575.03432990
  entropy T*S    EENTRO =         0.00000000
  eigenvalues    EBANDS =      -265.01946080
  atomic energy  EATOM  =      9716.95502315
  ---------------------------------------------------
  free energy    TOTEN  =       -59.18631792 eV

  energy without entropy =      -59.18631792  energy(sigma->0) =      -59.18631792


--------------------------------------------------------------------------------------------------------




----------------------------------------- Iteration    5(   8)  ---------------------------------------


    POTLOK:  cpu time    0.55: real time    0.55
    SETDIJ:  cpu time    0.07: real time    0.07
     EDDAV:  cpu time   60.70: real time   60.70
 BZINTS: Fermi energy:  0.022189;120.000000 electrons
         Band energy:-265.015424;  BLOECHL correction: -0.027218
       DOS:  cpu time    0.04: real time    0.04
    CHARGE:  cpu time    1.71: real time    1.71
    MIXING:  cpu time    0.03: real time    0.02
    --------------------------------------------
      LOOP:  cpu time   63.10: real time   63.11

 eigenvalue-minimisations  :  1504
 total energy-change (2. order) : 0.2665156E-05  (-0.1274552E-05)
 number of electron     120.0000448 magnetization 
 augmentation part       50.8232458 magnetization 

 Broyden mixing:
  rms(total) = 0.95114E-03    rms(broyden)= 0.95109E-03
  rms(prec ) = 0.10495E-02
  weight for this iteration     100.00

 eigenvalues of (default mixing * dielectric matrix)
  average eigenvalue GAMMA=   0.9888
  2.5034  1.2336  1.2336  0.1044  0.2532  0.7965  0.7965

 Free energy of the ion-electron system (eV)
  ---------------------------------------------------
  alpha Z        PSCENC =       574.70065014
  Ewald energy   TEWEN  =     22942.30832997
  -1/2 Hartree   DENC   =    -33400.94767909
  -exchange  EXHF       =         0.00000000
  -V(xc)+E(xc)   XCENC  =      -356.31086596
  PAW double counting   =      8304.13958493    -7575.01593406
  entropy T*S    EENTRO =         0.00000000
  eigenvalues    EBANDS =      -265.01542435
  atomic energy  EATOM  =      9716.95502315
  ---------------------------------------------------
  free energy    TOTEN  =       -59.18631526 eV

  energy without entropy =      -59.18631526  energy(sigma->0) =      -59.18631526


--------------------------------------------------------------------------------------------------------




----------------------------------------- Iteration    5(   9)  ---------------------------------------


    POTLOK:  cpu time    0.55: real time    0.55
    SETDIJ:  cpu time    0.07: real time    0.07
     EDDAV:  cpu time   62.34: real time   62.35
 BZINTS: Fermi energy:  0.022018;120.000000 electrons
         Band energy:-265.033637;  BLOECHL correction: -0.027214
       DOS:  cpu time    0.04: real time    0.04
    CHARGE:  cpu time    1.70: real time    1.70
    MIXING:  cpu time    0.03: real time    0.03
    --------------------------------------------
      LOOP:  cpu time   64.73: real time   64.75

 eigenvalue-minimisations  :  1552
 total energy-change (2. order) : 0.3377421E-05  (-0.5861314E-06)
 number of electron     120.0000448 magnetization 
 augmentation part       50.8233474 magnetization 

 Broyden mixing:
  rms(total) = 0.29726E-03    rms(broyden)= 0.29725E-03
  rms(prec ) = 0.32024E-03
  weight for this iteration     100.00

 eigenvalues of (default mixing * dielectric matrix)
  average eigenvalue GAMMA=   1.0756
  2.6150  1.4598  1.4598  0.1044  0.2532  0.8792  0.9165  0.9165

 Free energy of the ion-electron system (eV)
  ---------------------------------------------------
  alpha Z        PSCENC =       574.70065014
  Ewald energy   TEWEN  =     22942.30832997
  -1/2 Hartree   DENC   =    -33400.92892785
  -exchange  EXHF       =         0.00000000
  -V(xc)+E(xc)   XCENC  =      -356.31110098
  PAW double counting   =      8304.12698102    -7575.00363072
  entropy T*S    EENTRO =         0.00000000
  eigenvalues    EBANDS =      -265.03363662
  atomic energy  EATOM  =      9716.95502315
  ---------------------------------------------------
  free energy    TOTEN  =       -59.18631188 eV

  energy without entropy =      -59.18631188  energy(sigma->0) =      -59.18631188


--------------------------------------------------------------------------------------------------------




----------------------------------------- Iteration    5(  10)  ---------------------------------------


    POTLOK:  cpu time    0.55: real time    0.55
    SETDIJ:  cpu time    0.07: real time    0.07
     EDDAV:  cpu time   39.45: real time   39.45
 BZINTS: Fermi energy:  0.021868;120.000000 electrons
         Band energy:-265.051084;  BLOECHL correction: -0.027215
       DOS:  cpu time    0.04: real time    0.04
    --------------------------------------------
      LOOP:  cpu time   40.11: real time   40.11

 eigenvalue-minimisations  :   808
 total energy-change (2. order) :-0.1427452E-06  (-0.6499630E-07)
 number of electron     120.0000448 magnetization 
 augmentation part       50.8233474 magnetization 

 Free energy of the ion-electron system (eV)
  ---------------------------------------------------
  alpha Z        PSCENC =       574.70065014
  Ewald energy   TEWEN  =     22942.30832997
  -1/2 Hartree   DENC   =    -33400.91102760
  -exchange  EXHF       =         0.00000000
  -V(xc)+E(xc)   XCENC  =      -356.31125149
  PAW double counting   =      8304.12798989    -7575.00494208
  entropy T*S    EENTRO =         0.00000000
  eigenvalues    EBANDS =      -265.05108400
  atomic energy  EATOM  =      9716.95502315
  ---------------------------------------------------
  free energy    TOTEN  =       -59.18631202 eV

  energy without entropy =      -59.18631202  energy(sigma->0) =      -59.18631202


--------------------------------------------------------------------------------------------------------




 average (electrostatic) potential at core
  the test charge radii are     1.1199
  (the norm of the test charge is              1.0000)
       1 -51.0534       2 -51.5356       3 -51.5116       4 -51.0534       5 -51.5356
       6 -51.5116       7 -51.5116       8 -51.5355       9 -51.0534      10 -51.5116
      11 -51.5355      12 -51.0534
 
 
 
 E-fermi :   0.0219     XC(G=0):  -7.7928     alpha+bet : -6.1545


 k-point   1 :       0.0000    0.0000    0.0000
  band No.  band energies     occupation 
      1      -6.4767      2.00000
      2      -5.6830      2.00000
      3      -4.8469      2.00000
      4      -4.7961      2.00000
      5      -4.7961      2.00000
      6      -4.7790      2.00000
      7      -4.6085      2.00000
      8      -4.5461      2.00000
      9      -4.5461      2.00000
     10      -4.3246      2.00000
     11      -4.3246      2.00000
     12      -4.3235      2.00000
     13      -4.2768      2.00000
     14      -4.1340      2.00000
     15      -4.0229      2.00000
     16      -4.0229      2.00000
     17      -3.8413      2.00000
     18      -3.7342      2.00000
     19      -3.7342      2.00000
     20      -3.3176      2.00000
     21      -3.2346      2.00000
     22      -3.2346      2.00000
     23      -2.8799      2.00000
     24      -2.6679      2.00000
     25      -2.4661      2.00000
     26      -2.4661      2.00000
     27      -2.1813      2.00000
     28      -2.1813      2.00000
     29      -2.0525      2.00000
     30      -2.0525      2.00000
     31      -1.5799      2.00000
     32      -1.4597      2.00000
     33      -1.4597      2.00000
     34      -1.4117      2.00000
     35      -1.1575      2.00000
     36      -1.0488      2.00000
     37      -1.0488      2.00000
     38      -1.0410      2.00000
     39      -1.0284      2.00000
     40      -0.9148      2.00000
     41      -0.9148      2.00000
     42      -0.8110      2.00000
     43      -0.7410      2.00000
     44      -0.7410      2.00000
     45      -0.5588      2.00000
     46      -0.4155      2.00000
     47      -0.4154      2.00000
     48      -0.2742      2.00000
     49      -0.1231      2.00000
     50      -0.1231      2.00000
     51      -0.0944      2.00000
     52      -0.0944      2.00000
     53      -0.0909      2.00000
     54      -0.0909      2.00000
     55      -0.0150      2.00000
     56       0.0337      1.84221
     57       0.2066      0.00535
     58       0.2066     -0.62022
     59       0.2792      0.00000
     60       0.2793      0.00000
     61       0.3232      0.00000
     62       0.3233      0.00000
     63       0.3860      0.00000
     64       0.6109      0.00000
     65       0.6109      0.00000
     66       1.9754      0.00000
     67       2.9788      0.00000
     68       4.0512      0.00000
     69       4.0512      0.00000
     70       5.2015      0.00000
     71       5.5091      0.00000
     72       5.5091      0.00000

 k-point   2 :       0.1429    0.0000    0.0000
  band No.  band energies     occupation 
      1      -6.2472      2.00000
      2      -5.4755      2.00000
      3      -4.6937      2.00000
      4      -4.6851      2.00000
      5      -4.6620      2.00000
      6      -4.5991      2.00000
      7      -4.4793      2.00000
      8      -4.4615      2.00000
      9      -4.4592      2.00000
     10      -4.2024      2.00000
     11      -4.1682      2.00000
     12      -4.1624      2.00000
     13      -4.1592      2.00000
     14      -3.9670      2.00000
     15      -3.9558      2.00000
     16      -3.9552      2.00000
     17      -3.7510      2.00000
     18      -3.5997      2.00000
     19      -3.5833      2.00000
     20      -3.2600      2.00000
     21      -3.2405      2.00000
     22      -3.2007      2.00000
     23      -2.8618      2.00000
     24      -2.5715      2.00000
     25      -2.4981      2.00000
     26      -2.3903      2.00000
     27      -2.2908      2.00000
     28      -2.2072      2.00000
     29      -2.1799      2.00000
     30      -2.0834      2.00000
     31      -1.9811      2.00000
     32      -1.5370      2.00000
     33      -1.4876      2.00000
     34      -1.3204      2.00000
     35      -1.2941      2.00000
     36      -1.2547      2.00000
     37      -1.1786      2.00000
     38      -1.1388      2.00000
     39      -1.0268      2.00000
     40      -1.0258      2.00000
     41      -0.9455      2.00000
     42      -0.8689      2.00000
     43      -0.7635      2.00000
     44      -0.6471      2.00000
     45      -0.5945      2.00000
     46      -0.5887      2.00000
     47      -0.5178      2.00000
     48      -0.4928      2.00000
     49      -0.2891      2.00000
     50      -0.2690      2.00000
     51      -0.2479      2.00000
     52      -0.1774      2.00000
     53      -0.1391      2.00000
     54      -0.1378      2.00000
     55      -0.1281      2.00000
     56      -0.1145      2.02137
     57      -0.1030      1.96253
     58      -0.0047      1.70514
     59       0.0706      0.41403
     60       0.0837      0.02611
     61       0.1234     -0.04076
     62       0.2007      0.00000
     63       0.3356      0.00000
     64       0.3834      0.00000
     65       1.0388      0.00000
     66       2.5424      0.00000
     67       2.9449      0.00000
     68       3.6446      0.00000
     69       4.2580      0.00000
     70       4.7868      0.00000
     71       5.4382      0.00000
     72       5.7454      0.00000

 k-point   3 :       0.2857    0.0000    0.0000
  band No.  band energies     occupation 
      1      -5.6032      2.00000
      2      -4.9044      2.00000
      3      -4.4139      2.00000
      4      -4.3129      2.00000
      5      -4.2920      2.00000
      6      -4.2195      2.00000
      7      -4.1670      2.00000
      8      -4.1230      2.00000
      9      -4.0961      2.00000
     10      -3.8867      2.00000
     11      -3.8293      2.00000
     12      -3.7865      2.00000
     13      -3.7764      2.00000
     14      -3.7679      2.00000
     15      -3.7424      2.00000
     16      -3.5078      2.00000
     17      -3.4824      2.00000
     18      -3.2951      2.00000
     19      -3.2263      2.00000
     20      -3.1797      2.00000
     21      -3.1677      2.00000
     22      -3.1228      2.00000
     23      -3.0396      2.00000
     24      -2.5286      2.00000
     25      -2.4972      2.00000
     26      -2.3477      2.00000
     27      -2.3445      2.00000
     28      -2.3173      2.00000
     29      -2.3165      2.00000
     30      -2.1921      2.00000
     31      -2.0920      2.00000
     32      -2.0542      2.00000
     33      -1.7534      2.00000
     34      -1.6986      2.00000
     35      -1.5988      2.00000
     36      -1.5635      2.00000
     37      -1.5277      2.00000
     38      -1.3905      2.00000
     39      -1.3365      2.00000
     40      -1.2513      2.00000
     41      -1.1235      2.00000
     42      -1.0152      2.00000
     43      -0.8975      2.00000
     44      -0.8534      2.00000
     45      -0.8506      2.00000
     46      -0.8494      2.00000
     47      -0.8414      2.00000
     48      -0.8138      2.00000
     49      -0.7407      2.00000
     50      -0.6623      2.00000
     51      -0.5606      2.00000
     52      -0.5054      2.00000
     53      -0.4755      2.00000
     54      -0.4528      2.00000
     55      -0.4226      2.00000
     56      -0.4159      2.00000
     57      -0.2823      2.00000
     58      -0.2790      2.00000
     59      -0.1790      2.16249
     60      -0.0818      2.20733
     61      -0.0654      1.92488
     62       0.1789      0.00000
     63       0.1860      0.00000
     64       0.7438      0.00000
     65       1.0402      0.00000
     66       2.1257      0.00000
     67       2.2577      0.00000
     68       3.5950      0.00000
     69       3.6814      0.00000
     70       4.9003      0.00000
     71       5.0365      0.00000
     72       6.1789      0.00000

 k-point   4 :       0.4286    0.0000    0.0000
  band No.  band energies     occupation 
      1      -4.7487      2.00000
      2      -4.2593      2.00000
      3      -4.1697      2.00000
      4      -3.9137      2.00000
      5      -3.8735      2.00000
      6      -3.8552      2.00000
      7      -3.7044      2.00000
      8      -3.6976      2.00000
      9      -3.5989      2.00000
     10      -3.5036      2.00000
     11      -3.4978      2.00000
     12      -3.4782      2.00000
     13      -3.4316      2.00000
     14      -3.3872      2.00000
     15      -3.3802      2.00000
     16      -3.3287      2.00000
     17      -3.2562      2.00000
     18      -3.2393      2.00000
     19      -3.2111      2.00000
     20      -3.1785      2.00000
     21      -3.0867      2.00000
     22      -2.8844      2.00000
     23      -2.8342      2.00000
     24      -2.7936      2.00000
     25      -2.7435      2.00000
     26      -2.7326      2.00000
     27      -2.6441      2.00000
     28      -2.5154      2.00000
     29      -2.3765      2.00000
     30      -2.3059      2.00000
     31      -2.0796      2.00000
     32      -2.0619      2.00000
     33      -1.9772      2.00000
     34      -1.9694      2.00000
     35      -1.6968      2.00000
     36      -1.6828      2.00000
     37      -1.5982      2.00000
     38      -1.4792      2.00000
     39      -1.4767      2.00000
     40      -1.4214      2.00000
     41      -1.4070      2.00000
     42      -1.3948      2.00000
     43      -1.3326      2.00000
     44      -1.3300      2.00000
     45      -1.2745      2.00000
     46      -1.2066      2.00000
     47      -1.0902      2.00000
     48      -1.0552      2.00000
     49      -1.0345      2.00000
     50      -0.9962      2.00000
     51      -0.9543      2.00000
     52      -0.9537      2.00000
     53      -0.8333      2.00000
     54      -0.8081      2.00000
     55      -0.6928      2.00000
     56      -0.6848      2.00000
     57      -0.6153      2.00000
     58      -0.2875      2.00000
     59      -0.2207      2.00000
     60      -0.2207      2.00000
     61      -0.1706      2.09896
     62       0.1574      0.00000
     63       0.1686      0.00000
     64       0.6569      0.00000
     65       0.6777      0.00000
     66       1.8444      0.00000
     67       1.8540      0.00000
     68       3.2384      0.00000
     69       3.3794      0.00000
     70       4.8230      0.00000
     71       5.0007      0.00000
     72       6.2117      0.00000

 k-point   5 :       0.1429    0.1429    0.0000
  band No.  band energies     occupation 
      1      -6.0322      2.00000
      2      -5.3034      2.00000
      3      -4.6047      2.00000
      4      -4.5527      2.00000
      5      -4.5527      2.00000
      6      -4.5156      2.00000
      7      -4.3864      2.00000
      8      -4.3864      2.00000
      9      -4.3074      2.00000
     10      -4.1293      2.00000
     11      -4.0469      2.00000
     12      -4.0469      2.00000
     13      -3.9640      2.00000
     14      -3.9322      2.00000
     15      -3.9301      2.00000
     16      -3.9301      2.00000
     17      -3.4946      2.00000
     18      -3.4525      2.00000
     19      -3.4525      2.00000
     20      -3.2363      2.00000
     21      -3.2363      2.00000
     22      -3.1084      2.00000
     23      -2.8138      2.00000
     24      -2.4916      2.00000
     25      -2.4835      2.00000
     26      -2.3679      2.00000
     27      -2.2800      2.00000
     28      -2.2447      2.00000
     29      -2.2447      2.00000
     30      -2.1531      2.00000
     31      -2.0853      2.00000
     32      -1.6739      2.00000
     33      -1.6636      2.00000
     34      -1.3627      2.00000
     35      -1.3627      2.00000
     36      -1.2822      2.00000
     37      -1.2285      2.00000
     38      -1.1508      2.00000
     39      -1.0801      2.00000
     40      -1.0698      2.00000
     41      -1.0435      2.00000
     42      -1.0435      2.00000
     43      -0.9682      2.00000
     44      -0.8876      2.00000
     45      -0.6784      2.00000
     46      -0.6784      2.00000
     47      -0.6010      2.00000
     48      -0.5973      2.00000
     49      -0.5242      2.00000
     50      -0.5242      2.00000
     51      -0.4530      2.00000
     52      -0.4100      2.00000
     53      -0.4100      2.00000
     54      -0.1922      2.00000
     55      -0.1139      2.00000
     56      -0.0645      2.00521
     57      -0.0645      1.95148
     58      -0.0433      1.92127
     59       0.0412      0.98237
     60       0.0412      0.29758
     61       0.0951      0.00945
     62       0.1907      0.00000
     63       0.2396      0.00000
     64       0.2396      0.00000
     65       1.3822      0.00000
     66       2.9598      0.00000
     67       3.6295      0.00000
     68       3.6295      0.00000
     69       4.1551      0.00000
     70       4.7426      0.00000
     71       4.7426      0.00000
     72       5.6817      0.00000

 k-point   6 :       0.2857    0.1429    0.0000
  band No.  band energies     occupation 
      1      -5.4356      2.00000
      2      -4.8561      2.00000
      3      -4.3132      2.00000
      4      -4.3029      2.00000
      5      -4.2974      2.00000
      6      -4.2188      2.00000
      7      -4.1937      2.00000
      8      -4.1327      2.00000
      9      -3.8999      2.00000
     10      -3.8842      2.00000
     11      -3.8616      2.00000
     12      -3.8446      2.00000
     13      -3.8133      2.00000
     14      -3.7310      2.00000
     15      -3.6690      2.00000
     16      -3.4982      2.00000
     17      -3.2501      2.00000
     18      -3.1813      2.00000
     19      -3.1195      2.00000
     20      -3.0854      2.00000
     21      -2.9992      2.00000
     22      -2.9045      2.00000
     23      -2.7791      2.00000
     24      -2.4861      2.00000
     25      -2.3726      2.00000
     26      -2.3094      2.00000
     27      -2.2964      2.00000
     28      -2.2647      2.00000
     29      -2.2497      2.00000
     30      -2.2062      2.00000
     31      -2.1535      2.00000
     32      -2.0908      2.00000
     33      -1.8930      2.00000
     34      -1.8108      2.00000
     35      -1.7195      2.00000
     36      -1.5821      2.00000
     37      -1.5666      2.00000
     38      -1.4801      2.00000
     39      -1.3959      2.00000
     40      -1.3646      2.00000
     41      -1.2250      2.00000
     42      -1.2065      2.00000
     43      -1.2055      2.00000
     44      -1.1832      2.00000
     45      -1.0828      2.00000
     46      -0.9896      2.00000
     47      -0.9247      2.00000
     48      -0.8881      2.00000
     49      -0.8483      2.00000
     50      -0.7964      2.00000
     51      -0.6663      2.00000
     52      -0.5779      2.00000
     53      -0.4737      2.00000
     54      -0.4526      2.00000
     55      -0.3481      2.00000
     56      -0.1956      2.00000
     57      -0.1159      2.00000
     58      -0.0981      2.00000
     59      -0.0922      2.07327
     60       0.0119      1.76387
     61       0.0599      0.33512
     62       0.0996      0.00000
     63       0.1116      0.00000
     64       0.7398      0.00000
     65       1.6997      0.00000
     66       2.2797      0.00000
     67       2.6185      0.00000
     68       3.7884      0.00000
     69       3.9361      0.00000
     70       4.9657      0.00000
     71       5.1041      0.00000
     72       5.2252      0.00000

 k-point   7 :       0.4286    0.1429    0.0000
  band No.  band energies     occupation 
      1      -4.6633      2.00000
      2      -4.3545      2.00000
      3      -4.2088      2.00000
      4      -4.0779      2.00000
      5      -4.0527      2.00000
      6      -3.9052      2.00000
      7      -3.8762      2.00000
      8      -3.8715      2.00000
      9      -3.7132      2.00000
     10      -3.7044      2.00000
     11      -3.6445      2.00000
     12      -3.5337      2.00000
     13      -3.4297      2.00000
     14      -3.4001      2.00000
     15      -3.2651      2.00000
     16      -3.2217      2.00000
     17      -3.1526      2.00000
     18      -3.1392      2.00000
     19      -2.9639      2.00000
     20      -2.9106      2.00000
     21      -2.8157      2.00000
     22      -2.7346      2.00000
     23      -2.6635      2.00000
     24      -2.6296      2.00000
     25      -2.5929      2.00000
     26      -2.5072      2.00000
     27      -2.4699      2.00000
     28      -2.3753      2.00000
     29      -2.2986      2.00000
     30      -2.2610      2.00000
     31      -2.1964      2.00000
     32      -2.1095      2.00000
     33      -2.0147      2.00000
     34      -1.9995      2.00000
     35      -1.8214      2.00000
     36      -1.7760      2.00000
     37      -1.7749      2.00000
     38      -1.7528      2.00000
     39      -1.6735      2.00000
     40      -1.6564      2.00000
     41      -1.6308      2.00000
     42      -1.5283      2.00000
     43      -1.4359      2.00000
     44      -1.2942      2.00000
     45      -1.2796      2.00000
     46      -1.2202      2.00000
     47      -1.0659      2.00000
     48      -1.0042      2.00000
     49      -0.9042      2.00000
     50      -0.8236      2.00000
     51      -0.8095      2.00000
     52      -0.7944      2.00000
     53      -0.5826      2.00000
     54      -0.5094      2.00000
     55      -0.4424      2.00000
     56      -0.3618      2.00000
     57      -0.3342      2.00000
     58      -0.2987      2.00000
     59      -0.1386      2.00000
     60      -0.0618      2.00000
     61      -0.0125      1.94002
     62       0.0444      0.00000
     63       0.1803      0.00000
     64       0.6043      0.00000
     65       0.8247      0.00000
     66       1.8352      0.00000
     67       1.8995      0.00000
     68       3.2617      0.00000
     69       3.4566      0.00000
     70       4.8480      0.00000
     71       5.1519      0.00000
     72       6.2528      0.00000

 k-point   8 :       0.2857    0.2857    0.0000
  band No.  band energies     occupation 
      1      -5.0058      2.00000
      2      -4.7453      2.00000
      3      -4.4369      2.00000
      4      -4.2373      2.00000
      5      -4.2158      2.00000
      6      -4.2158      2.00000
      7      -4.0813      2.00000
      8      -4.0813      2.00000
      9      -3.9109      2.00000
     10      -3.8660      2.00000
     11      -3.7955      2.00000
     12      -3.7955      2.00000
     13      -3.4722      2.00000
     14      -3.3933      2.00000
     15      -3.3933      2.00000
     16      -3.1450      2.00000
     17      -3.1450      2.00000
     18      -3.1235      2.00000
     19      -2.8364      2.00000
     20      -2.8364      2.00000
     21      -2.8043      2.00000
     22      -2.6668      2.00000
     23      -2.4369      2.00000
     24      -2.2929      2.00000
     25      -2.2583      2.00000
     26      -2.2572      2.00000
     27      -2.2316      2.00000
     28      -2.2316      2.00000
     29      -2.2237      2.00000
     30      -2.1994      2.00000
     31      -2.0786      2.00000
     32      -2.0786      2.00000
     33      -2.0256      2.00000
     34      -1.9748      2.00000
     35      -1.9598      2.00000
     36      -1.7830      2.00000
     37      -1.7830      2.00000
     38      -1.7615      2.00000
     39      -1.6574      2.00000
     40      -1.6574      2.00000
     41      -1.6091      2.00000
     42      -1.5735      2.00000
     43      -1.3672      2.00000
     44      -1.3112      2.00000
     45      -1.3112      2.00000
     46      -1.2997      2.00000
     47      -0.8810      2.00000
     48      -0.7472      2.00000
     49      -0.7472      2.00000
     50      -0.7295      2.00000
     51      -0.6642      2.00000
     52      -0.5958      2.00000
     53      -0.4102      2.00000
     54      -0.4102      2.00000
     55      -0.4027      2.00000
     56      -0.2695      2.00000
     57      -0.0537      2.00000
     58      -0.0140      2.00000
     59      -0.0140      1.99520
     60       0.0082      1.98570
     61       0.0482      0.02440
     62       0.0482      0.00000
     63       0.0880      0.00000
     64       0.9811      0.00000
     65       2.7913      0.00000
     66       2.8782      0.00000
     67       2.8782      0.00000
     68       3.4458      0.00000
     69       3.4458      0.00000
     70       4.0383      0.00000
     71       4.0383      0.00000
     72       4.5912      0.00000

 k-point   9 :       0.4286    0.2857    0.0000
  band No.  band energies     occupation 
      1      -4.6167      2.00000
      2      -4.6067      2.00000
      3      -4.4248      2.00000
      4      -4.4224      2.00000
      5      -4.3054      2.00000
      6      -4.1072      2.00000
      7      -4.0517      2.00000
      8      -4.0368      2.00000
      9      -3.7006      2.00000
     10      -3.6652      2.00000
     11      -3.5710      2.00000
     12      -3.4546      2.00000
     13      -3.3422      2.00000
     14      -3.2261      2.00000
     15      -3.0639      2.00000
     16      -3.0366      2.00000
     17      -2.9687      2.00000
     18      -2.8489      2.00000
     19      -2.8079      2.00000
     20      -2.6863      2.00000
     21      -2.6665      2.00000
     22      -2.6657      2.00000
     23      -2.6349      2.00000
     24      -2.5015      2.00000
     25      -2.4862      2.00000
     26      -2.4085      2.00000
     27      -2.3886      2.00000
     28      -2.3791      2.00000
     29      -2.2700      2.00000
     30      -2.1594      2.00000
     31      -2.1146      2.00000
     32      -2.0924      2.00000
     33      -2.0844      2.00000
     34      -2.0409      2.00000
     35      -1.9924      2.00000
     36      -1.9379      2.00000
     37      -1.8348      2.00000
     38      -1.8009      2.00000
     39      -1.7300      2.00000
     40      -1.6213      2.00000
     41      -1.4509      2.00000
     42      -1.4478      2.00000
     43      -1.3696      2.00000
     44      -1.3500      2.00000
     45      -1.2662      2.00000
     46      -1.0146      2.00000
     47      -0.9305      2.00000
     48      -0.7449      2.00000
     49      -0.6904      2.00000
     50      -0.6451      2.00000
     51      -0.5954      2.00000
     52      -0.5370      2.00000
     53      -0.3397      2.00000
     54      -0.2386      2.00000
     55      -0.1764      2.00000
     56      -0.1578      2.00000
     57      -0.1531      2.00000
     58      -0.1427      2.00000
     59      -0.0694      2.00000
     60      -0.0610      2.00000
     61       0.0409      0.15692
     62       0.0503      0.00000
     63       0.4752      0.00000
     64       1.1638      0.00000
     65       1.4135      0.00000
     66       1.8406      0.00000
     67       2.0399      0.00000
     68       3.1180      0.00000
     69       3.5972      0.00000
     70       4.1084      0.00000
     71       4.1434      0.00000
     72       5.1329      0.00000

 k-point  10 :       0.4286    0.4286    0.0000
  band No.  band energies     occupation 
      1      -4.7306      2.00000
      2      -4.7228      2.00000
      3      -4.6672      2.00000
      4      -4.6672      2.00000
      5      -4.2732      2.00000
      6      -4.2223      2.00000
      7      -4.1815      2.00000
      8      -4.1815      2.00000
      9      -3.6164      2.00000
     10      -3.6044      2.00000
     11      -3.4999      2.00000
     12      -3.4999      2.00000
     13      -3.0042      2.00000
     14      -2.9377      2.00000
     15      -2.9377      2.00000
     16      -2.8895      2.00000
     17      -2.7975      2.00000
     18      -2.7975      2.00000
     19      -2.6683      2.00000
     20      -2.6481      2.00000
     21      -2.6214      2.00000
     22      -2.5943      2.00000
     23      -2.5943      2.00000
     24      -2.5341      2.00000
     25      -2.5341      2.00000
     26      -2.4688      2.00000
     27      -2.4687      2.00000
     28      -2.4642      2.00000
     29      -2.2658      2.00000
     30      -2.2658      2.00000
     31      -2.2093      2.00000
     32      -2.1402      2.00000
     33      -2.0790      2.00000
     34      -2.0693      2.00000
     35      -2.0403      2.00000
     36      -2.0403      2.00000
     37      -1.5970      2.00000
     38      -1.5679      2.00000
     39      -1.5188      2.00000
     40      -1.5188      2.00000
     41      -1.4332      2.00000
     42      -1.3712      2.00000
     43      -1.3712      2.00000
     44      -1.2762      2.00000
     45      -0.9450      2.00000
     46      -0.6461      2.00000
     47      -0.6461      2.00000
     48      -0.6056      2.00000
     49      -0.5813      2.00000
     50      -0.5550      2.00000
     51      -0.5550      2.00000
     52      -0.3696      2.00000
     53      -0.2091      2.00000
     54      -0.1750      2.00000
     55      -0.1750      2.00000
     56      -0.1552      2.00000
     57      -0.0774      2.00000
     58      -0.0601      2.00000
     59      -0.0601      2.00000
     60       0.0182      2.00000
     61       0.6556      0.00000
     62       0.8138      0.00000
     63       1.0608      0.00000
     64       1.9750      0.00000
     65       2.0196      0.00000
     66       2.0196      0.00000
     67       2.3168      0.00000
     68       2.3168      0.00000
     69       2.4332      0.00000
     70       2.4333      0.00000
     71       3.2787      0.00000
     72       3.6993      0.00000


--------------------------------------------------------------------------------------------------------


 soft charge-density along one line, spin component           1
         0         1         2         3         4         5         6         7         8         9
 total charge-density along one line
 
 pseudopotential strength for first ion, spin component:           1
-11.498   0.000   0.000   0.000   0.000   0.125   0.000   0.000
  0.000 -11.399   0.000   0.000   0.000   0.000   0.109   0.000
  0.000   0.000 -11.370   0.000   0.000   0.000   0.000   0.105
  0.000   0.000   0.000 -11.399   0.000   0.000   0.000   0.000
  0.000   0.000   0.000   0.000 -11.443   0.000   0.000   0.000
  0.125   0.000   0.000   0.000   0.000   0.321   0.000   0.000
  0.000   0.109   0.000   0.000   0.000   0.000   0.324   0.000
  0.000   0.000   0.105   0.000   0.000   0.000   0.000   0.324
  0.000   0.000   0.000   0.109   0.000   0.000   0.000   0.000
  0.000   0.000   0.000   0.000   0.117   0.000   0.000   0.000
  0.000   0.000  -0.021   0.000   0.000   0.000   0.000   0.003
  0.000   0.000   0.002   0.000   0.000   0.000   0.000   0.000
  0.000  -0.016   0.000   0.000   0.000   0.000   0.003   0.000
  0.000   0.000  -0.019   0.000   0.000   0.000   0.000   0.003
  0.000   0.000   0.000  -0.016   0.000   0.000   0.000   0.000
  0.000   0.013   0.000   0.000   0.000   0.000  -0.002   0.000
  0.000   0.000   0.015   0.000   0.000   0.000   0.000  -0.002
  0.000   0.000   0.000   0.013   0.000   0.000   0.000   0.000
 total augmentation occupancy for first ion, spin component:           1
  1.650   0.000   0.000   0.000   0.000   0.184   0.000   0.000   0.000   0.000   0.000   0.000   0.000   0.000   0.000   0.000
  0.000   1.823   0.000   0.000   0.000   0.000   0.082   0.000   0.000   0.000   0.000   0.000  -0.010   0.000   0.000  -0.021
  0.000   0.000   1.863   0.000   0.000   0.000   0.000   0.057   0.000   0.000   0.017  -0.046   0.000   0.008   0.000   0.000
  0.000   0.000   0.000   1.823   0.000   0.000   0.000   0.000   0.082   0.000   0.000   0.000   0.000   0.000  -0.010   0.000
  0.000   0.000   0.000   0.000   1.858   0.000   0.000   0.000   0.000   0.047   0.000   0.000   0.000   0.000   0.000   0.000
  0.184   0.000   0.000   0.000   0.000   0.104   0.000   0.000   0.000   0.000   0.000   0.000   0.000   0.000   0.000   0.000
  0.000   0.082   0.000   0.000   0.000   0.000   0.097   0.000   0.000   0.000   0.000   0.000   0.052   0.000   0.000  -0.002
  0.000   0.000   0.057   0.000   0.000   0.000   0.000   0.092   0.000   0.000  -0.082   0.020   0.000   0.037   0.000   0.000
  0.000   0.000   0.000   0.082   0.000   0.000   0.000   0.000   0.097   0.000   0.000   0.000   0.000   0.000   0.052   0.000
  0.000   0.000   0.000   0.000   0.047   0.000   0.000   0.000   0.000   0.101   0.000   0.000   0.000   0.000   0.000   0.000
  0.000   0.000   0.017   0.000   0.000   0.000   0.000  -0.082   0.000   0.000   0.960  -0.310   0.000   0.096   0.000   0.000
  0.000   0.000  -0.046   0.000   0.000   0.000   0.000   0.020   0.000   0.000  -0.310   0.114   0.000  -0.046   0.000   0.000
  0.000  -0.010   0.000   0.000   0.000   0.000   0.052   0.000   0.000   0.000   0.000   0.000   0.098   0.000   0.000  -0.002
  0.000   0.000   0.008   0.000   0.000   0.000   0.000   0.037   0.000   0.000   0.096  -0.046   0.000   0.060   0.000   0.000
  0.000   0.000   0.000  -0.010   0.000   0.000   0.000   0.000   0.052   0.000   0.000   0.000   0.000   0.000   0.098   0.000
  0.000  -0.021   0.000   0.000   0.000   0.000  -0.002   0.000   0.000   0.000   0.000   0.000  -0.002   0.000   0.000   0.000
  0.000   0.000  -0.028   0.000   0.000   0.000   0.000  -0.001   0.000   0.000  -0.005   0.003   0.000  -0.001   0.000   0.000
  0.000   0.000   0.000  -0.021   0.000   0.000   0.000   0.000  -0.002   0.000   0.000   0.000   0.000   0.000  -0.002   0.000


------------------------ aborting loop because EDIFF is reached ----------------------------------------


    CHARGE:  cpu time    1.70: real time    1.70
    FORLOC:  cpu time    0.06: real time    0.06
    FORNL :  cpu time   26.29: real time   26.29
    STRESS:  cpu time   69.13: real time   69.15
    FORCOR:  cpu time    0.59: real time    0.59
    FORHAR:  cpu time    0.19: real time    0.19
    MIXING:  cpu time    0.03: real time    0.03

  FORCE on cell =-STRESS in cart. coord.  units (eV):
  Direction    XX          YY          ZZ          XY          YZ          ZX
  --------------------------------------------------------------------------------------
  Alpha Z   574.70065   574.70065   574.70065
  Ewald   29524.46005 29524.46005-36106.62560     0.00000     0.00000     0.00000
  Hartree 32393.81603 32393.81603-31386.78298     0.00000     0.00000     0.00000
  E(xc)    -627.18338  -627.18338  -629.15861     0.00000     0.00000     0.00000
  Local  -63368.12504-63368.12504 66032.64441     0.00000     0.00000     0.00000
  n-local  -647.55135  -639.67680  -646.72167     8.99046     0.00000     0.00000
  augment   513.75086   513.75086   518.81040    -0.00003    -0.00001    -0.00002
  Kinetic  1638.97054  1616.10483  1642.26381     7.05934     0.00000     0.00000
  Fock        0.00000     0.00000     0.00000     0.00000     0.00000     0.00000
  -------------------------------------------------------------------------------------
  Total      -4.65722    -4.65722    -0.86961     0.00000     0.00000     0.00000
  in kB     -21.87290   -21.87290    -4.08416     0.00000     0.00000     0.00000
  external pressure =      -15.94 kB  Pullay stress =        0.00 kB


 VOLUME and BASIS-vectors are now :
 -----------------------------------------------------------------------------
  energy-cutoff  :      415.00
  volume of cell :      341.14
      direct lattice vectors                 reciprocal lattice vectors
     3.951020398  0.000000000  0.000000000     0.253099174  0.000000000  0.000000000
     0.000000000  3.951020398  0.000000000     0.000000000  0.253099174  0.000000000
     0.000000000  0.000000000 21.853061195     0.000000000  0.000000000  0.045760179

  length of vectors
     3.951020398  3.951020398 21.853061195     0.253099174  0.253099174  0.045760179


 FORCES acting on ions
    electron-ion (+dipol)            ewald-force                    non-local-force                 convergence-correction
 -----------------------------------------------------------------------------------------------
   0.201E-13 0.131E-13 0.261E+04   0.836E-14 -.301E-14 -.261E+04   0.000E+00 0.103E-24 -.179E+01   -.279E-13 0.118E-13 -.502E-02
   0.116E-13 -.118E-14 0.530E+03   0.570E-14 -.790E-14 -.530E+03   0.724E-24 -.827E-24 0.794E-01   -.359E-13 -.167E-13 -.101E-03
   0.152E-13 0.348E-13 -.159E+04   0.606E-14 -.169E-14 0.159E+04   -.278E-24 -.414E-24 -.191E+00   -.115E-13 -.597E-14 -.552E-02
   -.653E-13 -.181E-12 0.261E+04   -.157E-13 0.116E-13 -.261E+04   0.465E-24 0.000E+00 -.179E+01   -.312E-13 0.248E-13 -.502E-02
   -.598E-13 -.690E-13 0.530E+03   -.200E-13 0.693E-14 -.530E+03   -.414E-24 0.465E-24 0.794E-01   -.289E-13 -.768E-14 -.101E-03
   -.751E-13 0.193E-12 -.159E+04   -.224E-13 0.116E-13 0.159E+04   0.103E-24 0.124E-23 -.191E+00   0.563E-15 -.972E-14 -.552E-02
   -.736E-13 -.340E-13 0.159E+04   0.216E-13 -.119E-13 -.159E+04   0.595E-24 0.414E-24 0.191E+00   -.242E-13 0.275E-13 0.552E-02
   -.543E-13 0.110E-13 -.530E+03   0.191E-13 -.722E-14 0.530E+03   -.401E-24 -.207E-24 -.794E-01   -.114E-13 0.271E-13 0.967E-04
   -.914E-13 0.126E-13 -.261E+04   0.149E-13 -.119E-13 0.261E+04   -.504E-24 0.000E+00 0.179E+01   0.399E-14 0.571E-14 0.502E-02
   0.498E-14 -.744E-13 0.159E+04   -.694E-14 0.141E-14 -.159E+04   0.620E-24 0.414E-24 0.191E+00   -.270E-13 0.119E-13 0.552E-02
   0.163E-13 0.394E-13 -.530E+03   -.658E-14 0.761E-14 0.530E+03   -.103E-23 0.414E-24 -.794E-01   -.351E-13 0.288E-13 0.967E-04
   0.518E-15 -.387E-12 -.261E+04   -.924E-14 0.272E-14 0.261E+04   -.491E-24 0.000E+00 0.179E+01   -.775E-15 -.769E-15 0.502E-02
 -----------------------------------------------------------------------------------------------
   -.351E-12 -.443E-12 -.228E-03   -.523E-14 -.173E-14 -.455E-12   -.614E-24 0.160E-23 -.444E-15   -.229E-12 0.969E-13 -.256E-04
 
 
 POSITION                                       TOTAL-FORCE (eV/Angst)
 -----------------------------------------------------------------------------------
      0.00000      0.00000      0.01101         0.000000      0.000000      0.004181
      0.00000      0.00000      3.95276         0.000000      0.000000     -0.051418
      0.00000      0.00000      7.91248         0.000000      0.000000     -0.051551
      1.97551      1.97551      0.01101         0.000000      0.000000      0.004181
      1.97551      1.97551      3.95276         0.000000      0.000000     -0.051418
      1.97551      1.97551      7.91248         0.000000      0.000000     -0.051551
      1.97551      0.00000      1.96508         0.000000      0.000000      0.051551
      1.97551      0.00000      5.92479         0.000000      0.000000      0.051418
      1.97551      0.00000      9.86654         0.000000      0.000000     -0.004181
      0.00000      1.97551      1.96508         0.000000      0.000000      0.051551
      0.00000      1.97551      5.92479         0.000000      0.000000      0.051418
      0.00000      1.97551      9.86654         0.000000      0.000000     -0.004181
 -----------------------------------------------------------------------------------
    total drift:                                0.000000      0.000000     -0.000254


--------------------------------------------------------------------------------------------------------



  FREE ENERGIE OF THE ION-ELECTRON SYSTEM (eV)
  ---------------------------------------------------
  free  energy   TOTEN  =       -59.186312 eV

  energy  without entropy=      -59.186312  energy(sigma->0) =      -59.186312
 
 d Force = 0.4073560E-03[-0.127E-02, 0.208E-02]  d Energy = 0.3258684E-03 0.815E-04
 d Force =-0.2853210E+02[-0.286E+02,-0.285E+02]  d Ewald  =-0.2853218E+02 0.844E-04


--------------------------------------------------------------------------------------------------------


    POTLOK:  cpu time    0.63: real time    0.63


--------------------------------------------------------------------------------------------------------




--------------------------------------------------------------------------------------------------------


    WAVPRE:  cpu time    0.12: real time    0.12
    FEWALD:  cpu time    0.00: real time    0.00
    ORTHCH:  cpu time    8.43: real time    8.43
     LOOP+:  cpu time  811.73: real time  811.87


----------------------------------------- Iteration    6(   1)  ---------------------------------------


    POTLOK:  cpu time    0.55: real time    0.55
    SETDIJ:  cpu time    0.08: real time    0.07
     EDDAV:  cpu time   58.80: real time   58.81
 BZINTS: Fermi energy:  0.020882;120.000000 electrons
         Band energy:-264.952119;  BLOECHL correction: -0.027318
       DOS:  cpu time    0.04: real time    0.04
    CHARGE:  cpu time    1.70: real time    1.70
    MIXING:  cpu time    0.02: real time    0.02
    --------------------------------------------
      LOOP:  cpu time   61.19: real time   61.20

 eigenvalue-minimisations  :  1440
 total energy-change (2. order) : 0.2910536E-03  (-0.2462558E-01)
 number of electron     120.0000447 magnetization 
 augmentation part       50.8242145 magnetization 

 Broyden mixing:
  rms(total) = 0.70759E-02    rms(broyden)= 0.70735E-02
  rms(prec ) = 0.79240E-02
  weight for this iteration     100.00

 Free energy of the ion-electron system (eV)
  ---------------------------------------------------
  alpha Z        PSCENC =       574.70065014
  Ewald energy   TEWEN  =     22931.49835967
  -1/2 Hartree   DENC   =    -33390.18344780
  -exchange  EXHF       =         0.00000000
  -V(xc)+E(xc)   XCENC  =      -356.32755624
  PAW double counting   =      8304.12994504    -7575.00687555
  entropy T*S    EENTRO =         0.00000000
  eigenvalues    EBANDS =      -264.95211923
  atomic energy  EATOM  =      9716.95502315
  ---------------------------------------------------
  free energy    TOTEN  =       -59.18602083 eV

  energy without entropy =      -59.18602083  energy(sigma->0) =      -59.18602083


--------------------------------------------------------------------------------------------------------




----------------------------------------- Iteration    6(   2)  ---------------------------------------


    POTLOK:  cpu time    0.55: real time    0.55
    SETDIJ:  cpu time    0.07: real time    0.07
     EDDAV:  cpu time   80.04: real time   80.07
 BZINTS: Fermi energy:  0.016985;120.000000 electrons
         Band energy:-265.386936;  BLOECHL correction: -0.026902
       DOS:  cpu time    0.04: real time    0.04
    CHARGE:  cpu time    1.70: real time    1.70
    MIXING:  cpu time    0.02: real time    0.02
    --------------------------------------------
      LOOP:  cpu time   82.43: real time   82.46

 eigenvalue-minimisations  :  2128
 total energy-change (2. order) :-0.8291269E-03  (-0.8994965E-03)
 number of electron     120.0000447 magnetization 
 augmentation part       50.8279688 magnetization 

 Broyden mixing:
  rms(total) = 0.16090E-01    rms(broyden)= 0.16088E-01
  rms(prec ) = 0.23616E-01
  weight for this iteration     100.00

 eigenvalues of (default mixing * dielectric matrix)
  average eigenvalue GAMMA=   0.2796
  0.2796

 Free energy of the ion-electron system (eV)
  ---------------------------------------------------
  alpha Z        PSCENC =       574.70065014
  Ewald energy   TEWEN  =     22931.49835967
  -1/2 Hartree   DENC   =    -33389.76752360
  -exchange  EXHF       =         0.00000000
  -V(xc)+E(xc)   XCENC  =      -356.32522873
  PAW double counting   =      8303.99831980    -7574.85951419
  entropy T*S    EENTRO =         0.00000000
  eigenvalues    EBANDS =      -265.38693620
  atomic energy  EATOM  =      9716.95502315
  ---------------------------------------------------
  free energy    TOTEN  =       -59.18684996 eV

  energy without entropy =      -59.18684996  energy(sigma->0) =      -59.18684996


--------------------------------------------------------------------------------------------------------




----------------------------------------- Iteration    6(   3)  ---------------------------------------


    POTLOK:  cpu time    0.55: real time    0.55
    SETDIJ:  cpu time    0.07: real time    0.07
     EDDAV:  cpu time   70.21: real time   70.22
 BZINTS: Fermi energy:  0.022167;120.000000 electrons
         Band energy:-264.834173;  BLOECHL correction: -0.027582
       DOS:  cpu time    0.04: real time    0.04
    CHARGE:  cpu time    1.72: real time    1.72
    MIXING:  cpu time    0.02: real time    0.02
    --------------------------------------------
      LOOP:  cpu time   72.62: real time   72.62

 eigenvalue-minimisations  :  1808
 total energy-change (2. order) :-0.9527002E-04  (-0.2127715E-03)
 number of electron     120.0000447 magnetization 
 augmentation part       50.8235350 magnetization 

 Broyden mixing:
  rms(total) = 0.15003E-01    rms(broyden)= 0.15001E-01
  rms(prec ) = 0.21723E-01
  weight for this iteration     100.00

 eigenvalues of (default mixing * dielectric matrix)
  average eigenvalue GAMMA=   0.2825
  0.1031  0.4618

 Free energy of the ion-electron system (eV)
  ---------------------------------------------------
  alpha Z        PSCENC =       574.70065014
  Ewald energy   TEWEN  =     22931.49835967
  -1/2 Hartree   DENC   =    -33390.32199957
  -exchange  EXHF       =         0.00000000
  -V(xc)+E(xc)   XCENC  =      -356.32549725
  PAW double counting   =      8304.03104713    -7574.89035516
  entropy T*S    EENTRO =         0.00000000
  eigenvalues    EBANDS =      -264.83417334
  atomic energy  EATOM  =      9716.95502315
  ---------------------------------------------------
  free energy    TOTEN  =       -59.18694523 eV

  energy without entropy =      -59.18694523  energy(sigma->0) =      -59.18694523


--------------------------------------------------------------------------------------------------------




----------------------------------------- Iteration    6(   4)  ---------------------------------------


    POTLOK:  cpu time    0.55: real time    0.55
    SETDIJ:  cpu time    0.08: real time    0.07
     EDDAV:  cpu time   78.80: real time   78.80
 BZINTS: Fermi energy:  0.021035;120.000000 electrons
         Band energy:-264.950713;  BLOECHL correction: -0.027260
       DOS:  cpu time    0.04: real time    0.04
    CHARGE:  cpu time    1.75: real time    1.75
    MIXING:  cpu time    0.02: real time    0.02
    --------------------------------------------
      LOOP:  cpu time   81.23: real time   81.24

 eigenvalue-minimisations  :  2088
 total energy-change (2. order) : 0.3248323E-03  (-0.6781347E-04)
 number of electron     120.0000447 magnetization 
 augmentation part       50.8247720 magnetization 

 Broyden mixing:
  rms(total) = 0.49055E-02    rms(broyden)= 0.49032E-02
  rms(prec ) = 0.53881E-02
  weight for this iteration     100.00

 eigenvalues of (default mixing * dielectric matrix)
  average eigenvalue GAMMA=   0.2518
  0.3240  0.3240  0.1075

 Free energy of the ion-electron system (eV)
  ---------------------------------------------------
  alpha Z        PSCENC =       574.70065014
  Ewald energy   TEWEN  =     22931.49835967
  -1/2 Hartree   DENC   =    -33390.20746245
  -exchange  EXHF       =         0.00000000
  -V(xc)+E(xc)   XCENC  =      -356.32541924
  PAW double counting   =      8304.00675033    -7574.86380875
  entropy T*S    EENTRO =         0.00000000
  eigenvalues    EBANDS =      -264.95071324
  atomic energy  EATOM  =      9716.95502315
  ---------------------------------------------------
  free energy    TOTEN  =       -59.18662039 eV

  energy without entropy =      -59.18662039  energy(sigma->0) =      -59.18662039


--------------------------------------------------------------------------------------------------------




----------------------------------------- Iteration    6(   5)  ---------------------------------------


    POTLOK:  cpu time    0.55: real time    0.55
    SETDIJ:  cpu time    0.07: real time    0.07
     EDDAV:  cpu time   79.16: real time   79.17
 BZINTS: Fermi energy:  0.020831;120.000000 electrons
         Band energy:-264.968594;  BLOECHL correction: -0.027276
       DOS:  cpu time    0.04: real time    0.04
    CHARGE:  cpu time    1.69: real time    1.69
    MIXING:  cpu time    0.02: real time    0.02
    --------------------------------------------
      LOOP:  cpu time   81.53: real time   81.54

 eigenvalue-minimisations  :  2096
 total energy-change (2. order) : 0.1063193E-04  (-0.5978659E-05)
 number of electron     120.0000447 magnetization 
 augmentation part       50.8247690 magnetization 

 Broyden mixing:
  rms(total) = 0.35120E-02    rms(broyden)= 0.35118E-02
  rms(prec ) = 0.38052E-02
  weight for this iteration     100.00

 eigenvalues of (default mixing * dielectric matrix)
  average eigenvalue GAMMA=   0.6298
  1.0821  1.0821  0.1048  0.2504

 Free energy of the ion-electron system (eV)
  ---------------------------------------------------
  alpha Z        PSCENC =       574.70065014
  Ewald energy   TEWEN  =     22931.49835967
  -1/2 Hartree   DENC   =    -33390.19053905
  -exchange  EXHF       =         0.00000000
  -V(xc)+E(xc)   XCENC  =      -356.32531077
  PAW double counting   =      8303.98653243    -7574.84273098
  entropy T*S    EENTRO =         0.00000000
  eigenvalues    EBANDS =      -264.96859434
  atomic energy  EATOM  =      9716.95502315
  ---------------------------------------------------
  free energy    TOTEN  =       -59.18660976 eV

  energy without entropy =      -59.18660976  energy(sigma->0) =      -59.18660976


--------------------------------------------------------------------------------------------------------




----------------------------------------- Iteration    6(   6)  ---------------------------------------


    POTLOK:  cpu time    0.56: real time    0.55
    SETDIJ:  cpu time    0.07: real time    0.07
     EDDAV:  cpu time   67.94: real time   67.95
 BZINTS: Fermi energy:  0.021032;120.000000 electrons
         Band energy:-264.940003;  BLOECHL correction: -0.027278
       DOS:  cpu time    0.04: real time    0.04
    CHARGE:  cpu time    1.71: real time    1.71
    MIXING:  cpu time    0.02: real time    0.02
    --------------------------------------------
      LOOP:  cpu time   70.35: real time   70.35

 eigenvalue-minimisations  :  1736
 total energy-change (2. order) : 0.2780441E-04  (-0.6136426E-05)
 number of electron     120.0000447 magnetization 
 augmentation part       50.8246488 magnetization 

 Broyden mixing:
  rms(total) = 0.15817E-02    rms(broyden)= 0.15816E-02
  rms(prec ) = 0.17364E-02
  weight for this iteration     100.00

 eigenvalues of (default mixing * dielectric matrix)
  average eigenvalue GAMMA=   0.9130
  2.5700  0.8185  0.8185  0.1049  0.2532

 Free energy of the ion-electron system (eV)
  ---------------------------------------------------
  alpha Z        PSCENC =       574.70065014
  Ewald energy   TEWEN  =     22931.49835967
  -1/2 Hartree   DENC   =    -33390.22415945
  -exchange  EXHF       =         0.00000000
  -V(xc)+E(xc)   XCENC  =      -356.32541507
  PAW double counting   =      8303.86455539    -7574.71559248
  entropy T*S    EENTRO =         0.00000000
  eigenvalues    EBANDS =      -264.94000330
  atomic energy  EATOM  =      9716.95502315
  ---------------------------------------------------
  free energy    TOTEN  =       -59.18658196 eV

  energy without entropy =      -59.18658196  energy(sigma->0) =      -59.18658196


--------------------------------------------------------------------------------------------------------




----------------------------------------- Iteration    6(   7)  ---------------------------------------


    POTLOK:  cpu time    0.55: real time    0.55
    SETDIJ:  cpu time    0.07: real time    0.07
     EDDAV:  cpu time   76.79: real time   76.79
 BZINTS: Fermi energy:  0.021069;120.000000 electrons
         Band energy:-264.934622;  BLOECHL correction: -0.027272
       DOS:  cpu time    0.04: real time    0.04
    CHARGE:  cpu time    1.69: real time    1.69
    MIXING:  cpu time    0.02: real time    0.02
    --------------------------------------------
      LOOP:  cpu time   79.17: real time   79.18

 eigenvalue-minimisations  :  2024
 total energy-change (2. order) : 0.7677058E-05  (-0.4352127E-05)
 number of electron     120.0000447 magnetization 
 augmentation part       50.8245833 magnetization 

 Broyden mixing:
  rms(total) = 0.55194E-03    rms(broyden)= 0.55174E-03
  rms(prec ) = 0.58506E-03
  weight for this iteration     100.00

 eigenvalues of (default mixing * dielectric matrix)
  average eigenvalue GAMMA=   0.9215
  2.4810  0.9675  0.9675  0.1049  0.2529  0.7551

 Free energy of the ion-electron system (eV)
  ---------------------------------------------------
  alpha Z        PSCENC =       574.70065014
  Ewald energy   TEWEN  =     22931.49835967
  -1/2 Hartree   DENC   =    -33390.23612364
  -exchange  EXHF       =         0.00000000
  -V(xc)+E(xc)   XCENC  =      -356.32534037
  PAW double counting   =      8303.72188959    -7574.56641130
  entropy T*S    EENTRO =         0.00000000
  eigenvalues    EBANDS =      -264.93462152
  atomic energy  EATOM  =      9716.95502315
  ---------------------------------------------------
  free energy    TOTEN  =       -59.18657428 eV

  energy without entropy =      -59.18657428  energy(sigma->0) =      -59.18657428


--------------------------------------------------------------------------------------------------------




----------------------------------------- Iteration    6(   8)  ---------------------------------------


    POTLOK:  cpu time    0.55: real time    0.55
    SETDIJ:  cpu time    0.08: real time    0.07
     EDDAV:  cpu time   41.17: real time   41.18
 BZINTS: Fermi energy:  0.021096;120.000000 electrons
         Band energy:-264.932410;  BLOECHL correction: -0.027271
       DOS:  cpu time    0.04: real time    0.04
    --------------------------------------------
      LOOP:  cpu time   41.84: real time   41.85

 eigenvalue-minimisations  :   864
 total energy-change (2. order) : 0.6133505E-06  (-0.1110344E-06)
 number of electron     120.0000447 magnetization 
 augmentation part       50.8245833 magnetization 

 Free energy of the ion-electron system (eV)
  ---------------------------------------------------
  alpha Z        PSCENC =       574.70065014
  Ewald energy   TEWEN  =     22931.49835967
  -1/2 Hartree   DENC   =    -33390.23838650
  -exchange  EXHF       =         0.00000000
  -V(xc)+E(xc)   XCENC  =      -356.32523701
  PAW double counting   =      8303.73247693    -7574.57704992
  entropy T*S    EENTRO =         0.00000000
  eigenvalues    EBANDS =      -264.93241012
  atomic energy  EATOM  =      9716.95502315
  ---------------------------------------------------
  free energy    TOTEN  =       -59.18657367 eV

  energy without entropy =      -59.18657367  energy(sigma->0) =      -59.18657367


--------------------------------------------------------------------------------------------------------




 average (electrostatic) potential at core
  the test charge radii are     1.1199
  (the norm of the test charge is              1.0000)
       1 -51.0503       2 -51.5373       3 -51.5109       4 -51.0503       5 -51.5373
       6 -51.5109       7 -51.5109       8 -51.5372       9 -51.0503      10 -51.5109
      11 -51.5372      12 -51.0503
 
 
 
 E-fermi :   0.0211     XC(G=0):  -7.8039     alpha+bet : -6.1545


 k-point   1 :       0.0000    0.0000    0.0000
  band No.  band energies     occupation 
      1      -6.4778      2.00000
      2      -5.6804      2.00000
      3      -4.8486      2.00000
      4      -4.7974      2.00000
      5      -4.7974      2.00000
      6      -4.7768      2.00000
      7      -4.6097      2.00000
      8      -4.5474      2.00000
      9      -4.5474      2.00000
     10      -4.3225      2.00000
     11      -4.3225      2.00000
     12      -4.3183      2.00000
     13      -4.2737      2.00000
     14      -4.1296      2.00000
     15      -4.0197      2.00000
     16      -4.0197      2.00000
     17      -3.8346      2.00000
     18      -3.7282      2.00000
     19      -3.7282      2.00000
     20      -3.3181      2.00000
     21      -3.2272      2.00000
     22      -3.2272      2.00000
     23      -2.8819      2.00000
     24      -2.6687      2.00000
     25      -2.4675      2.00000
     26      -2.4675      2.00000
     27      -2.1814      2.00000
     28      -2.1814      2.00000
     29      -2.0500      2.00000
     30      -2.0500      2.00000
     31      -1.5834      2.00000
     32      -1.4536      2.00000
     33      -1.4536      2.00000
     34      -1.4116      2.00000
     35      -1.1594      2.00000
     36      -1.0509      2.00000
     37      -1.0509      2.00000
     38      -1.0424      2.00000
     39      -1.0299      2.00000
     40      -0.9155      2.00000
     41      -0.9155      2.00000
     42      -0.8094      2.00000
     43      -0.7407      2.00000
     44      -0.7407      2.00000
     45      -0.5538      2.00000
     46      -0.4164      2.00000
     47      -0.4163      2.00000
     48      -0.2732      2.00000
     49      -0.1241      2.00000
     50      -0.1241      2.00000
     51      -0.0951      2.00000
     52      -0.0951      2.00000
     53      -0.0915      2.00000
     54      -0.0915      2.00000
     55      -0.0151      2.00000
     56       0.0334      1.83373
     57       0.2060      0.00150
     58       0.2060     -0.62648
     59       0.2778      0.00000
     60       0.2779      0.00000
     61       0.3237      0.00000
     62       0.3238      0.00000
     63       0.3850      0.00000
     64       0.6140      0.00000
     65       0.6140      0.00000
     66       1.9693      0.00000
     67       2.9746      0.00000
     68       4.0509      0.00000
     69       4.0509      0.00000
     70       5.1667      0.00000
     71       5.5119      0.00000
     72       5.5119      0.00000

 k-point   2 :       0.1429    0.0000    0.0000
  band No.  band energies     occupation 
      1      -6.2483      2.00000
      2      -5.4730      2.00000
      3      -4.6954      2.00000
      4      -4.6864      2.00000
      5      -4.6633      2.00000
      6      -4.5970      2.00000
      7      -4.4805      2.00000
      8      -4.4629      2.00000
      9      -4.4605      2.00000
     10      -4.2004      2.00000
     11      -4.1661      2.00000
     12      -4.1594      2.00000
     13      -4.1539      2.00000
     14      -3.9637      2.00000
     15      -3.9527      2.00000
     16      -3.9507      2.00000
     17      -3.7444      2.00000
     18      -3.5939      2.00000
     19      -3.5778      2.00000
     20      -3.2600      2.00000
     21      -3.2337      2.00000
     22      -3.1934      2.00000
     23      -2.8636      2.00000
     24      -2.5722      2.00000
     25      -2.4993      2.00000
     26      -2.3918      2.00000
     27      -2.2904      2.00000
     28      -2.2069      2.00000
     29      -2.1799      2.00000
     30      -2.0809      2.00000
     31      -1.9759      2.00000
     32      -1.5368      2.00000
     33      -1.4816      2.00000
     34      -1.3238      2.00000
     35      -1.2951      2.00000
     36      -1.2537      2.00000
     37      -1.1802      2.00000
     38      -1.1410      2.00000
     39      -1.0274      2.00000
     40      -1.0236      2.00000
     41      -0.9459      2.00000
     42      -0.8707      2.00000
     43      -0.7636      2.00000
     44      -0.6476      2.00000
     45      -0.5915      2.00000
     46      -0.5857      2.00000
     47      -0.5183      2.00000
     48      -0.4928      2.00000
     49      -0.2898      2.00000
     50      -0.2715      2.00000
     51      -0.2477      2.00000
     52      -0.1763      2.00000
     53      -0.1403      2.00000
     54      -0.1386      2.00000
     55      -0.1283      2.00000
     56      -0.1146      2.02221
     57      -0.1035      1.96206
     58      -0.0050      1.70252
     59       0.0690      0.41963
     60       0.0841      0.02233
     61       0.1246     -0.04150
     62       0.2001      0.00000
     63       0.3371      0.00000
     64       0.3846      0.00000
     65       1.0371      0.00000
     66       2.5370      0.00000
     67       2.9445      0.00000
     68       3.6407      0.00000
     69       4.2600      0.00000
     70       4.7864      0.00000
     71       5.4033      0.00000
     72       5.7458      0.00000

 k-point   3 :       0.2857    0.0000    0.0000
  band No.  band energies     occupation 
      1      -5.6044      2.00000
      2      -4.9022      2.00000
      3      -4.4151      2.00000
      4      -4.3142      2.00000
      5      -4.2935      2.00000
      6      -4.2209      2.00000
      7      -4.1683      2.00000
      8      -4.1210      2.00000
      9      -4.0974      2.00000
     10      -3.8848      2.00000
     11      -3.8269      2.00000
     12      -3.7841      2.00000
     13      -3.7738      2.00000
     14      -3.7651      2.00000
     15      -3.7374      2.00000
     16      -3.5012      2.00000
     17      -3.4780      2.00000
     18      -3.2906      2.00000
     19      -3.2213      2.00000
     20      -3.1736      2.00000
     21      -3.1663      2.00000
     22      -3.1155      2.00000
     23      -3.0410      2.00000
     24      -2.5255      2.00000
     25      -2.4955      2.00000
     26      -2.3464      2.00000
     27      -2.3448      2.00000
     28      -2.3192      2.00000
     29      -2.3174      2.00000
     30      -2.1931      2.00000
     31      -2.0885      2.00000
     32      -2.0522      2.00000
     33      -1.7545      2.00000
     34      -1.6978      2.00000
     35      -1.5974      2.00000
     36      -1.5568      2.00000
     37      -1.5225      2.00000
     38      -1.3942      2.00000
     39      -1.3327      2.00000
     40      -1.2548      2.00000
     41      -1.1235      2.00000
     42      -1.0178      2.00000
     43      -0.8994      2.00000
     44      -0.8519      2.00000
     45      -0.8482      2.00000
     46      -0.8470      2.00000
     47      -0.8406      2.00000
     48      -0.8150      2.00000
     49      -0.7394      2.00000
     50      -0.6653      2.00000
     51      -0.5592      2.00000
     52      -0.5060      2.00000
     53      -0.4760      2.00000
     54      -0.4537      2.00000
     55      -0.4220      2.00000
     56      -0.4142      2.00000
     57      -0.2829      2.00000
     58      -0.2797      2.00000
     59      -0.1809      2.16302
     60      -0.0827      2.20111
     61      -0.0681      1.93597
     62       0.1779      0.00000
     63       0.1852      0.00000
     64       0.7432      0.00000
     65       1.0400      0.00000
     66       2.1233      0.00000
     67       2.2589      0.00000
     68       3.5948      0.00000
     69       3.6769      0.00000
     70       4.8942      0.00000
     71       5.0312      0.00000
     72       6.1453      0.00000

 k-point   4 :       0.4286    0.0000    0.0000
  band No.  band energies     occupation 
      1      -4.7499      2.00000
      2      -4.2605      2.00000
      3      -4.1680      2.00000
      4      -3.9151      2.00000
      5      -3.8748      2.00000
      6      -3.8568      2.00000
      7      -3.7026      2.00000
      8      -3.6983      2.00000
      9      -3.5969      2.00000
     10      -3.5014      2.00000
     11      -3.4968      2.00000
     12      -3.4791      2.00000
     13      -3.4346      2.00000
     14      -3.3844      2.00000
     15      -3.3775      2.00000
     16      -3.3313      2.00000
     17      -3.2540      2.00000
     18      -3.2319      2.00000
     19      -3.2027      2.00000
     20      -3.1777      2.00000
     21      -3.0799      2.00000
     22      -2.8801      2.00000
     23      -2.8344      2.00000
     24      -2.7892      2.00000
     25      -2.7409      2.00000
     26      -2.7280      2.00000
     27      -2.6445      2.00000
     28      -2.5110      2.00000
     29      -2.3752      2.00000
     30      -2.3020      2.00000
     31      -2.0755      2.00000
     32      -2.0558      2.00000
     33      -1.9752      2.00000
     34      -1.9676      2.00000
     35      -1.6919      2.00000
     36      -1.6824      2.00000
     37      -1.5985      2.00000
     38      -1.4758      2.00000
     39      -1.4734      2.00000
     40      -1.4182      2.00000
     41      -1.4072      2.00000
     42      -1.3960      2.00000
     43      -1.3347      2.00000
     44      -1.3258      2.00000
     45      -1.2745      2.00000
     46      -1.2076      2.00000
     47      -1.0904      2.00000
     48      -1.0545      2.00000
     49      -1.0378      2.00000
     50      -0.9946      2.00000
     51      -0.9557      2.00000
     52      -0.9537      2.00000
     53      -0.8359      2.00000
     54      -0.8081      2.00000
     55      -0.6960      2.00000
     56      -0.6847      2.00000
     57      -0.6162      2.00000
     58      -0.2880      2.00000
     59      -0.2242      2.00000
     60      -0.2234      2.00000
     61      -0.1712      2.10027
     62       0.1564      0.00000
     63       0.1677      0.00000
     64       0.6557      0.00000
     65       0.6778      0.00000
     66       1.8418      0.00000
     67       1.8532      0.00000
     68       3.2339      0.00000
     69       3.3766      0.00000
     70       4.8199      0.00000
     71       4.9972      0.00000
     72       6.2005      0.00000

 k-point   5 :       0.1429    0.1429    0.0000
  band No.  band energies     occupation 
      1      -6.0333      2.00000
      2      -5.3011      2.00000
      3      -4.6064      2.00000
      4      -4.5539      2.00000
      5      -4.5539      2.00000
      6      -4.5143      2.00000
      7      -4.3877      2.00000
      8      -4.3877      2.00000
      9      -4.3086      2.00000
     10      -4.1234      2.00000
     11      -4.0449      2.00000
     12      -4.0448      2.00000
     13      -3.9583      2.00000
     14      -3.9293      2.00000
     15      -3.9273      2.00000
     16      -3.9273      2.00000
     17      -3.4889      2.00000
     18      -3.4470      2.00000
     19      -3.4470      2.00000
     20      -3.2292      2.00000
     21      -3.2292      2.00000
     22      -3.1080      2.00000
     23      -2.8152      2.00000
     24      -2.4923      2.00000
     25      -2.4846      2.00000
     26      -2.3695      2.00000
     27      -2.2801      2.00000
     28      -2.2441      2.00000
     29      -2.2441      2.00000
     30      -2.1482      2.00000
     31      -2.0838      2.00000
     32      -1.6695      2.00000
     33      -1.6624      2.00000
     34      -1.3632      2.00000
     35      -1.3632      2.00000
     36      -1.2877      2.00000
     37      -1.2261      2.00000
     38      -1.1495      2.00000
     39      -1.0786      2.00000
     40      -1.0747      2.00000
     41      -1.0446      2.00000
     42      -1.0446      2.00000
     43      -0.9659      2.00000
     44      -0.8811      2.00000
     45      -0.6789      2.00000
     46      -0.6789      2.00000
     47      -0.6017      2.00000
     48      -0.5989      2.00000
     49      -0.5219      2.00000
     50      -0.5219      2.00000
     51      -0.4508      2.00000
     52      -0.4122      2.00000
     53      -0.4122      2.00000
     54      -0.1929      2.00000
     55      -0.1152      2.00000
     56      -0.0647      2.00539
     57      -0.0647      1.95090
     58      -0.0429      1.91926
     59       0.0409      0.97694
     60       0.0409      0.30508
     61       0.0941      0.01273
     62       0.1900      0.00000
     63       0.2404      0.00000
     64       0.2404      0.00000
     65       1.3801      0.00000
     66       2.9547      0.00000
     67       3.6291      0.00000
     68       3.6291      0.00000
     69       4.1509      0.00000
     70       4.7442      0.00000
     71       4.7442      0.00000
     72       5.6471      0.00000

 k-point   6 :       0.2857    0.1429    0.0000
  band No.  band energies     occupation 
      1      -5.4368      2.00000
      2      -4.8544      2.00000
      3      -4.3150      2.00000
      4      -4.3027      2.00000
      5      -4.2984      2.00000
      6      -4.2198      2.00000
      7      -4.1955      2.00000
      8      -4.1342      2.00000
      9      -3.9008      2.00000
     10      -3.8772      2.00000
     11      -3.8597      2.00000
     12      -3.8429      2.00000
     13      -3.8067      2.00000
     14      -3.7288      2.00000
     15      -3.6667      2.00000
     16      -3.4954      2.00000
     17      -3.2432      2.00000
     18      -3.1737      2.00000
     19      -3.1140      2.00000
     20      -3.0799      2.00000
     21      -2.9965      2.00000
     22      -2.9029      2.00000
     23      -2.7783      2.00000
     24      -2.4830      2.00000
     25      -2.3743      2.00000
     26      -2.3103      2.00000
     27      -2.2956      2.00000
     28      -2.2644      2.00000
     29      -2.2496      2.00000
     30      -2.2074      2.00000
     31      -2.1526      2.00000
     32      -2.0885      2.00000
     33      -1.8932      2.00000
     34      -1.8072      2.00000
     35      -1.7180      2.00000
     36      -1.5804      2.00000
     37      -1.5661      2.00000
     38      -1.4772      2.00000
     39      -1.3954      2.00000
     40      -1.3661      2.00000
     41      -1.2248      2.00000
     42      -1.2052      2.00000
     43      -1.2038      2.00000
     44      -1.1797      2.00000
     45      -1.0829      2.00000
     46      -0.9911      2.00000
     47      -0.9239      2.00000
     48      -0.8861      2.00000
     49      -0.8497      2.00000
     50      -0.7988      2.00000
     51      -0.6656      2.00000
     52      -0.5785      2.00000
     53      -0.4748      2.00000
     54      -0.4516      2.00000
     55      -0.3500      2.00000
     56      -0.1967      2.00000
     57      -0.1157      2.00000
     58      -0.0987      2.00000
     59      -0.0933      2.07422
     60       0.0103      1.77274
     61       0.0588      0.33384
     62       0.1001      0.00000
     63       0.1105      0.00000
     64       0.7391      0.00000
     65       1.6993      0.00000
     66       2.2773      0.00000
     67       2.6196      0.00000
     68       3.7884      0.00000
     69       3.9319      0.00000
     70       4.9651      0.00000
     71       5.0999      0.00000
     72       5.2179      0.00000

 k-point   7 :       0.4286    0.1429    0.0000
  band No.  band energies     occupation 
      1      -4.6647      2.00000
      2      -4.3539      2.00000
      3      -4.2100      2.00000
      4      -4.0792      2.00000
      5      -4.0529      2.00000
      6      -3.9056      2.00000
      7      -3.8758      2.00000
      8      -3.8732      2.00000
      9      -3.7138      2.00000
     10      -3.7016      2.00000
     11      -3.6433      2.00000
     12      -3.5266      2.00000
     13      -3.4260      2.00000
     14      -3.3964      2.00000
     15      -3.2634      2.00000
     16      -3.2193      2.00000
     17      -3.1449      2.00000
     18      -3.1403      2.00000
     19      -2.9597      2.00000
     20      -2.9059      2.00000
     21      -2.8129      2.00000
     22      -2.7341      2.00000
     23      -2.6602      2.00000
     24      -2.6288      2.00000
     25      -2.5916      2.00000
     26      -2.5035      2.00000
     27      -2.4698      2.00000
     28      -2.3758      2.00000
     29      -2.2960      2.00000
     30      -2.2590      2.00000
     31      -2.1949      2.00000
     32      -2.1068      2.00000
     33      -2.0161      2.00000
     34      -1.9975      2.00000
     35      -1.8185      2.00000
     36      -1.7744      2.00000
     37      -1.7724      2.00000
     38      -1.7507      2.00000
     39      -1.6727      2.00000
     40      -1.6523      2.00000
     41      -1.6283      2.00000
     42      -1.5277      2.00000
     43      -1.4383      2.00000
     44      -1.2940      2.00000
     45      -1.2766      2.00000
     46      -1.2229      2.00000
     47      -1.0618      2.00000
     48      -1.0068      2.00000
     49      -0.9043      2.00000
     50      -0.8228      2.00000
     51      -0.8078      2.00000
     52      -0.7946      2.00000
     53      -0.5832      2.00000
     54      -0.5116      2.00000
     55      -0.4450      2.00000
     56      -0.3613      2.00000
     57      -0.3355      2.00000
     58      -0.2987      2.00000
     59      -0.1408      2.00000
     60      -0.0645      2.00000
     61      -0.0111      1.92934
     62       0.0436      0.00000
     63       0.1782      0.00000
     64       0.6033      0.00000
     65       0.8248      0.00000
     66       1.8325      0.00000
     67       1.8991      0.00000
     68       3.2576      0.00000
     69       3.4539      0.00000
     70       4.8450      0.00000
     71       5.1486      0.00000
     72       6.2511      0.00000

 k-point   8 :       0.2857    0.2857    0.0000
  band No.  band energies     occupation 
      1      -5.0073      2.00000
      2      -4.7446      2.00000
      3      -4.4368      2.00000
      4      -4.2390      2.00000
      5      -4.2173      2.00000
      6      -4.2173      2.00000
      7      -4.0810      2.00000
      8      -4.0810      2.00000
      9      -3.9040      2.00000
     10      -3.8585      2.00000
     11      -3.7952      2.00000
     12      -3.7951      2.00000
     13      -3.4725      2.00000
     14      -3.3891      2.00000
     15      -3.3891      2.00000
     16      -3.1396      2.00000
     17      -3.1396      2.00000
     18      -3.1208      2.00000
     19      -2.8312      2.00000
     20      -2.8312      2.00000
     21      -2.8035      2.00000
     22      -2.6630      2.00000
     23      -2.4375      2.00000
     24      -2.2927      2.00000
     25      -2.2593      2.00000
     26      -2.2591      2.00000
     27      -2.2314      2.00000
     28      -2.2314      2.00000
     29      -2.2223      2.00000
     30      -2.1982      2.00000
     31      -2.0780      2.00000
     32      -2.0780      2.00000
     33      -2.0277      2.00000
     34      -1.9713      2.00000
     35      -1.9630      2.00000
     36      -1.7824      2.00000
     37      -1.7824      2.00000
     38      -1.7576      2.00000
     39      -1.6556      2.00000
     40      -1.6556      2.00000
     41      -1.6068      2.00000
     42      -1.5716      2.00000
     43      -1.3609      2.00000
     44      -1.3127      2.00000
     45      -1.3127      2.00000
     46      -1.2939      2.00000
     47      -0.8801      2.00000
     48      -0.7481      2.00000
     49      -0.7481      2.00000
     50      -0.7307      2.00000
     51      -0.6648      2.00000
     52      -0.5962      2.00000
     53      -0.4099      2.00000
     54      -0.4098      2.00000
     55      -0.4040      2.00000
     56      -0.2710      2.00000
     57      -0.0552      2.00000
     58      -0.0141      2.00000
     59      -0.0141      1.99451
     60       0.0068      1.98644
     61       0.0479      0.01279
     62       0.0479      0.00000
     63       0.0867      0.00000
     64       0.9798      0.00000
     65       2.7889      0.00000
     66       2.8777      0.00000
     67       2.8777      0.00000
     68       3.4462      0.00000
     69       3.4462      0.00000
     70       4.0379      0.00000
     71       4.0379      0.00000
     72       4.5877      0.00000

 k-point   9 :       0.4286    0.2857    0.0000
  band No.  band energies     occupation 
      1      -4.6191      2.00000
      2      -4.6068      2.00000
      3      -4.4265      2.00000
      4      -4.4233      2.00000
      5      -4.3034      2.00000
      6      -4.1064      2.00000
      7      -4.0495      2.00000
      8      -4.0351      2.00000
      9      -3.6956      2.00000
     10      -3.6584      2.00000
     11      -3.5685      2.00000
     12      -3.4524      2.00000
     13      -3.3397      2.00000
     14      -3.2259      2.00000
     15      -3.0609      2.00000
     16      -3.0355      2.00000
     17      -2.9649      2.00000
     18      -2.8487      2.00000
     19      -2.8080      2.00000
     20      -2.6861      2.00000
     21      -2.6651      2.00000
     22      -2.6623      2.00000
     23      -2.6297      2.00000
     24      -2.4994      2.00000
     25      -2.4865      2.00000
     26      -2.4090      2.00000
     27      -2.3871      2.00000
     28      -2.3792      2.00000
     29      -2.2725      2.00000
     30      -2.1596      2.00000
     31      -2.1168      2.00000
     32      -2.0897      2.00000
     33      -2.0816      2.00000
     34      -2.0415      2.00000
     35      -1.9883      2.00000
     36      -1.9345      2.00000
     37      -1.8333      2.00000
     38      -1.8008      2.00000
     39      -1.7304      2.00000
     40      -1.6204      2.00000
     41      -1.4482      2.00000
     42      -1.4453      2.00000
     43      -1.3689      2.00000
     44      -1.3456      2.00000
     45      -1.2641      2.00000
     46      -1.0132      2.00000
     47      -0.9290      2.00000
     48      -0.7438      2.00000
     49      -0.6876      2.00000
     50      -0.6463      2.00000
     51      -0.5953      2.00000
     52      -0.5392      2.00000
     53      -0.3407      2.00000
     54      -0.2399      2.00000
     55      -0.1759      2.00000
     56      -0.1577      2.00000
     57      -0.1543      2.00000
     58      -0.1419      2.00000
     59      -0.0695      2.00000
     60      -0.0627      2.00000
     61       0.0384      0.16294
     62       0.0497      0.00000
     63       0.4750      0.00000
     64       1.1633      0.00000
     65       1.4135      0.00000
     66       1.8379      0.00000
     67       2.0402      0.00000
     68       3.1153      0.00000
     69       3.5949      0.00000
     70       4.1073      0.00000
     71       4.1426      0.00000
     72       5.1309      0.00000

 k-point  10 :       0.4286    0.4286    0.0000
  band No.  band energies     occupation 
      1      -4.7312      2.00000
      2      -4.7246      2.00000
      3      -4.6685      2.00000
      4      -4.6685      2.00000
      5      -4.2700      2.00000
      6      -4.2203      2.00000
      7      -4.1787      2.00000
      8      -4.1787      2.00000
      9      -3.6102      2.00000
     10      -3.5982      2.00000
     11      -3.4937      2.00000
     12      -3.4937      2.00000
     13      -3.0056      2.00000
     14      -2.9400      2.00000
     15      -2.9400      2.00000
     16      -2.8884      2.00000
     17      -2.7961      2.00000
     18      -2.7961      2.00000
     19      -2.6686      2.00000
     20      -2.6467      2.00000
     21      -2.6229      2.00000
     22      -2.5939      2.00000
     23      -2.5939      2.00000
     24      -2.5343      2.00000
     25      -2.5343      2.00000
     26      -2.4711      2.00000
     27      -2.4703      2.00000
     28      -2.4654      2.00000
     29      -2.2661      2.00000
     30      -2.2661      2.00000
     31      -2.2084      2.00000
     32      -2.1416      2.00000
     33      -2.0754      2.00000
     34      -2.0663      2.00000
     35      -2.0355      2.00000
     36      -2.0355      2.00000
     37      -1.5898      2.00000
     38      -1.5607      2.00000
     39      -1.5167      2.00000
     40      -1.5166      2.00000
     41      -1.4312      2.00000
     42      -1.3691      2.00000
     43      -1.3691      2.00000
     44      -1.2747      2.00000
     45      -0.9455      2.00000
     46      -0.6471      2.00000
     47      -0.6471      2.00000
     48      -0.6057      2.00000
     49      -0.5779      2.00000
     50      -0.5540      2.00000
     51      -0.5540      2.00000
     52      -0.3716      2.00000
     53      -0.2098      2.00000
     54      -0.1755      2.00000
     55      -0.1755      2.00000
     56      -0.1573      2.00000
     57      -0.0779      2.00000
     58      -0.0606      2.00000
     59      -0.0606      2.00000
     60       0.0167      2.00000
     61       0.6568      0.00000
     62       0.8133      0.00000
     63       1.0608      0.00000
     64       1.9731      0.00000
     65       2.0192      0.00000
     66       2.0192      0.00000
     67       2.3162      0.00000
     68       2.3163      0.00000
     69       2.4332      0.00000
     70       2.4332      0.00000
     71       3.2776      0.00000
     72       3.6986      0.00000


--------------------------------------------------------------------------------------------------------


 soft charge-density along one line, spin component           1
         0         1         2         3         4         5         6         7         8         9
 total charge-density along one line
 
 pseudopotential strength for first ion, spin component:           1
-11.497   0.000   0.000   0.000   0.000   0.125   0.000   0.000
  0.000 -11.397   0.000   0.000   0.000   0.000   0.109   0.000
  0.000   0.000 -11.368   0.000   0.000   0.000   0.000   0.104
  0.000   0.000   0.000 -11.397   0.000   0.000   0.000   0.000
  0.000   0.000   0.000   0.000 -11.441   0.000   0.000   0.000
  0.125   0.000   0.000   0.000   0.000   0.321   0.000   0.000
  0.000   0.109   0.000   0.000   0.000   0.000   0.324   0.000
  0.000   0.000   0.104   0.000   0.000   0.000   0.000   0.324
  0.000   0.000   0.000   0.109   0.000   0.000   0.000   0.000
  0.000   0.000   0.000   0.000   0.117   0.000   0.000   0.000
  0.000   0.000  -0.021   0.000   0.000   0.000   0.000   0.003
  0.000   0.000   0.002   0.000   0.000   0.000   0.000   0.000
  0.000  -0.016   0.000   0.000   0.000   0.000   0.003   0.000
  0.000   0.000  -0.019   0.000   0.000   0.000   0.000   0.003
  0.000   0.000   0.000  -0.016   0.000   0.000   0.000   0.000
  0.000   0.013   0.000   0.000   0.000   0.000  -0.002   0.000
  0.000   0.000   0.015   0.000   0.000   0.000   0.000  -0.002
  0.000   0.000   0.000   0.013   0.000   0.000   0.000   0.000
 total augmentation occupancy for first ion, spin component:           1
  1.650   0.000   0.000   0.000   0.000   0.184   0.000   0.000   0.000   0.000   0.000   0.000   0.000   0.000   0.000   0.000
  0.000   1.824   0.000   0.000   0.000   0.000   0.081   0.000   0.000   0.000   0.000   0.000  -0.011   0.000   0.000  -0.021
  0.000   0.000   1.862   0.000   0.000   0.000   0.000   0.058   0.000   0.000   0.017  -0.045   0.000   0.008   0.000   0.000
  0.000   0.000   0.000   1.824   0.000   0.000   0.000   0.000   0.081   0.000   0.000   0.000   0.000   0.000  -0.011   0.000
  0.000   0.000   0.000   0.000   1.859   0.000   0.000   0.000   0.000   0.046   0.000   0.000   0.000   0.000   0.000   0.000
  0.184   0.000   0.000   0.000   0.000   0.104   0.000   0.000   0.000   0.000   0.000   0.000   0.000   0.000   0.000   0.000
  0.000   0.081   0.000   0.000   0.000   0.000   0.096   0.000   0.000   0.000   0.000   0.000   0.051   0.000   0.000  -0.002
  0.000   0.000   0.058   0.000   0.000   0.000   0.000   0.092   0.000   0.000  -0.082   0.020   0.000   0.036   0.000   0.000
  0.000   0.000   0.000   0.081   0.000   0.000   0.000   0.000   0.096   0.000   0.000   0.000   0.000   0.000   0.051   0.000
  0.000   0.000   0.000   0.000   0.046   0.000   0.000   0.000   0.000   0.101   0.000   0.000   0.000   0.000   0.000   0.000
  0.000   0.000   0.017   0.000   0.000   0.000   0.000  -0.082   0.000   0.000   0.958  -0.309   0.000   0.095   0.000   0.000
  0.000   0.000  -0.045   0.000   0.000   0.000   0.000   0.020   0.000   0.000  -0.309   0.114   0.000  -0.046   0.000   0.000
  0.000  -0.011   0.000   0.000   0.000   0.000   0.051   0.000   0.000   0.000   0.000   0.000   0.097   0.000   0.000  -0.002
  0.000   0.000   0.008   0.000   0.000   0.000   0.000   0.036   0.000   0.000   0.095  -0.046   0.000   0.059   0.000   0.000
  0.000   0.000   0.000  -0.011   0.000   0.000   0.000   0.000   0.051   0.000   0.000   0.000   0.000   0.000   0.097   0.000
  0.000  -0.021   0.000   0.000   0.000   0.000  -0.002   0.000   0.000   0.000   0.000   0.000  -0.002   0.000   0.000   0.000
  0.000   0.000  -0.028   0.000   0.000   0.000   0.000  -0.001   0.000   0.000  -0.005   0.003   0.000  -0.001   0.000   0.000
  0.000   0.000   0.000  -0.021   0.000   0.000   0.000   0.000  -0.002   0.000   0.000   0.000   0.000   0.000  -0.002   0.000


------------------------ aborting loop because EDIFF is reached ----------------------------------------


    CHARGE:  cpu time    1.71: real time    1.71
    FORLOC:  cpu time    0.06: real time    0.06
    FORNL :  cpu time   26.53: real time   26.54
    STRESS:  cpu time   69.12: real time   69.14
    FORCOR:  cpu time    0.58: real time    0.59
    FORHAR:  cpu time    0.20: real time    0.19
    MIXING:  cpu time    0.02: real time    0.02

  FORCE on cell =-STRESS in cart. coord.  units (eV):
  Direction    XX          YY          ZZ          XY          YZ          ZX
  --------------------------------------------------------------------------------------
  Alpha Z   574.70065   574.70065   574.70065
  Ewald   29512.74208 29512.74208-36093.99963     0.00000     0.00000     0.00000
  Hartree 32382.81118 32382.81118-31375.35680     0.00000     0.00000     0.00000
  E(xc)    -627.17056  -627.17056  -629.14164     0.00000     0.00000     0.00000
  Local  -63345.36920-63345.36920 66008.62942     0.00000     0.00000     0.00000
  n-local  -647.63584  -639.83372  -646.84757     8.97752     0.00000     0.00000
  augment   513.75029   513.75029   518.80221    -0.00003    -0.00005    -0.00005
  Kinetic  1638.88236  1616.20313  1642.23951     7.10481     0.00000     0.00000
  Fock        0.00000     0.00000     0.00000     0.00000     0.00000     0.00000
  -------------------------------------------------------------------------------------
  Total      -4.72759    -4.72759    -0.97386     0.00000     0.00000     0.00000
  in kB     -22.20343   -22.20343    -4.57380     0.00000     0.00000     0.00000
  external pressure =      -16.33 kB  Pullay stress =        0.00 kB


 VOLUME and BASIS-vectors are now :
 -----------------------------------------------------------------------------
  energy-cutoff  :      415.00
  volume of cell :      341.14
      direct lattice vectors                 reciprocal lattice vectors
     3.951020398  0.000000000  0.000000000     0.253099174  0.000000000  0.000000000
     0.000000000  3.951020398  0.000000000     0.000000000  0.253099174  0.000000000
     0.000000000  0.000000000 21.853061195     0.000000000  0.000000000  0.045760179

  length of vectors
     3.951020398  3.951020398 21.853061195     0.253099174  0.253099174  0.045760179


 FORCES acting on ions
    electron-ion (+dipol)            ewald-force                    non-local-force                 convergence-correction
 -----------------------------------------------------------------------------------------------
   0.126E-13 -.308E-14 0.261E+04   0.169E-13 -.475E-14 -.261E+04   0.646E-24 0.000E+00 -.179E+01   -.116E-13 0.106E-13 0.130E-01
   0.134E-13 0.997E-14 0.530E+03   0.620E-14 -.892E-14 -.530E+03   -.310E-24 0.827E-24 0.868E-01   -.251E-13 -.866E-15 -.326E-02
   0.240E-13 0.151E-13 -.159E+04   0.110E-13 -.146E-13 0.159E+04   0.517E-25 0.000E+00 -.175E+00   0.546E-14 -.304E-13 0.226E-01
   -.622E-13 -.313E-13 0.261E+04   -.162E-13 0.705E-14 -.261E+04   0.147E-23 0.827E-24 -.179E+01   0.139E-14 -.445E-14 0.130E-01
   -.474E-13 0.872E-13 0.530E+03   -.216E-13 0.191E-14 -.530E+03   0.827E-24 0.114E-23 0.868E-01   0.110E-14 0.104E-13 -.326E-02
   -.735E-13 -.885E-13 -.159E+04   -.107E-13 -.248E-14 0.159E+04   0.517E-25 0.000E+00 -.175E+00   0.271E-13 -.158E-13 0.226E-01
   -.810E-13 0.270E-13 0.159E+04   0.951E-14 -.101E-13 -.159E+04   -.149E-24 0.414E-24 0.175E+00   0.289E-13 -.597E-14 -.226E-01
   -.383E-13 0.632E-14 -.530E+03   0.243E-13 -.168E-16 0.530E+03   -.362E-24 -.414E-24 -.868E-01   0.295E-13 -.282E-13 0.326E-02
   -.606E-13 0.198E-13 -.261E+04   0.173E-13 0.120E-14 0.261E+04   -.132E-23 -.724E-24 0.179E+01   0.471E-13 -.427E-13 -.130E-01
   0.189E-13 0.441E-13 0.159E+04   -.173E-13 0.362E-14 -.159E+04   0.517E-25 0.207E-24 0.175E+00   -.155E-14 -.417E-14 -.226E-01
   0.207E-13 0.101E-12 -.530E+03   -.868E-14 0.124E-13 0.530E+03   0.672E-24 -.620E-24 -.868E-01   0.186E-14 -.196E-13 0.326E-02
   0.275E-13 -.676E-13 -.261E+04   -.158E-13 0.130E-13 0.261E+04   -.491E-24 0.000E+00 0.179E+01   0.220E-13 -.398E-13 -.130E-01
 -----------------------------------------------------------------------------------------------
   -.246E-12 0.120E-12 -.265E-03   -.523E-14 -.173E-14 0.455E-12   0.114E-23 0.165E-23 -.333E-14   0.126E-12 -.171E-12 0.661E-05
 
 
 POSITION                                       TOTAL-FORCE (eV/Angst)
 -----------------------------------------------------------------------------------
      0.00000      0.00000      0.00874         0.000000      0.000000      0.026728
      0.00000      0.00000      3.95240         0.000000      0.000000     -0.037413
      0.00000      0.00000      7.91032         0.000000      0.000000     -0.018293
      1.97551      1.97551      0.00874         0.000000      0.000000      0.026728
      1.97551      1.97551      3.95240         0.000000      0.000000     -0.037413
      1.97551      1.97551      7.91032         0.000000      0.000000     -0.018293
      1.97551      0.00000      1.96723         0.000000      0.000000      0.018293
      1.97551      0.00000      5.92515         0.000000      0.000000      0.037413
      1.97551      0.00000      9.86881         0.000000      0.000000     -0.026728
      0.00000      1.97551      1.96723         0.000000      0.000000      0.018293
      0.00000      1.97551      5.92515         0.000000      0.000000      0.037413
      0.00000      1.97551      9.86881         0.000000      0.000000     -0.026728
 -----------------------------------------------------------------------------------
    total drift:                                0.000000      0.000000     -0.000259


--------------------------------------------------------------------------------------------------------



  FREE ENERGIE OF THE ION-ELECTRON SYSTEM (eV)
  ---------------------------------------------------
  free  energy   TOTEN  =       -59.186574 eV

  energy  without entropy=      -59.186574  energy(sigma->0) =      -59.186574
 
 d Force = 0.2240749E-03[-0.317E-04, 0.480E-03]  d Energy = 0.2616416E-03-0.376E-04
 d Force = 0.1080997E+02[ 0.108E+02, 0.108E+02]  d Ewald  = 0.1080997E+02-0.462E-05


--------------------------------------------------------------------------------------------------------


    POTLOK:  cpu time    0.63: real time    0.63


--------------------------------------------------------------------------------------------------------




--------------------------------------------------------------------------------------------------------


    WAVPRE:  cpu time    0.13: real time    0.13
    FEWALD:  cpu time    0.00: real time    0.00
    ORTHCH:  cpu time    8.43: real time    8.43
     LOOP+:  cpu time  677.87: real time  677.97


----------------------------------------- Iteration    7(   1)  ---------------------------------------


    POTLOK:  cpu time    0.56: real time    0.55
    SETDIJ:  cpu time    0.07: real time    0.07
     EDDAV:  cpu time   58.80: real time   58.81
 BZINTS: Fermi energy:  0.021392;120.000000 electrons
         Band energy:-264.971077;  BLOECHL correction: -0.027198
       DOS:  cpu time    0.04: real time    0.04
    CHARGE:  cpu time    1.70: real time    1.70
    MIXING:  cpu time    0.02: real time    0.02
    --------------------------------------------
      LOOP:  cpu time   61.18: real time   61.19

 eigenvalue-minimisations  :  1440
 total energy-change (2. order) :-0.1024783E-03  (-0.2885729E-02)
 number of electron     120.0000448 magnetization 
 augmentation part       50.8243855 magnetization 

 Broyden mixing:
  rms(total) = 0.23367E-02    rms(broyden)= 0.23357E-02
  rms(prec ) = 0.27327E-02
  weight for this iteration     100.00

 Free energy of the ion-electron system (eV)
  ---------------------------------------------------
  alpha Z        PSCENC =       574.70065014
  Ewald energy   TEWEN  =     22939.07401727
  -1/2 Hartree   DENC   =    -33397.78089907
  -exchange  EXHF       =         0.00000000
  -V(xc)+E(xc)   XCENC  =      -356.31980510
  PAW double counting   =      8303.73232728    -7574.57691311
  entropy T*S    EENTRO =         0.00000000
  eigenvalues    EBANDS =      -264.97107731
  atomic energy  EATOM  =      9716.95502315
  ---------------------------------------------------
  free energy    TOTEN  =       -59.18667676 eV

  energy without entropy =      -59.18667676  energy(sigma->0) =      -59.18667676


--------------------------------------------------------------------------------------------------------




----------------------------------------- Iteration    7(   2)  ---------------------------------------


    POTLOK:  cpu time    0.55: real time    0.55
    SETDIJ:  cpu time    0.07: real time    0.07
     EDDAV:  cpu time   80.34: real time   80.34
 BZINTS: Fermi energy:  0.023167;120.000000 electrons
         Band energy:-264.777658;  BLOECHL correction: -0.027386
       DOS:  cpu time    0.04: real time    0.04
    CHARGE:  cpu time    1.70: real time    1.71
    MIXING:  cpu time    0.02: real time    0.02
    --------------------------------------------
      LOOP:  cpu time   82.73: real time   82.73

 eigenvalue-minimisations  :  2136
 total energy-change (2. order) :-0.1733330E-03  (-0.1123548E-03)
 number of electron     120.0000448 magnetization 
 augmentation part       50.8230203 magnetization 

 Broyden mixing:
  rms(total) = 0.69141E-02    rms(broyden)= 0.69136E-02
  rms(prec ) = 0.10371E-01
  weight for this iteration     100.00

 eigenvalues of (default mixing * dielectric matrix)
  average eigenvalue GAMMA=   0.2197
  0.2197

 Free energy of the ion-electron system (eV)
  ---------------------------------------------------
  alpha Z        PSCENC =       574.70065014
  Ewald energy   TEWEN  =     22939.07401727
  -1/2 Hartree   DENC   =    -33397.96980314
  -exchange  EXHF       =         0.00000000
  -V(xc)+E(xc)   XCENC  =      -356.32049147
  PAW double counting   =      8303.79069033    -7574.63927819
  entropy T*S    EENTRO =         0.00000000
  eigenvalues    EBANDS =      -264.77765817
  atomic energy  EATOM  =      9716.95502315
  ---------------------------------------------------
  free energy    TOTEN  =       -59.18685009 eV

  energy without entropy =      -59.18685009  energy(sigma->0) =      -59.18685009


--------------------------------------------------------------------------------------------------------




----------------------------------------- Iteration    7(   3)  ---------------------------------------


    POTLOK:  cpu time    0.56: real time    0.55
    SETDIJ:  cpu time    0.07: real time    0.07
     EDDAV:  cpu time   70.78: real time   70.79
 BZINTS: Fermi energy:  0.021259;120.000000 electrons
         Band energy:-264.979870;  BLOECHL correction: -0.027136
       DOS:  cpu time    0.04: real time    0.04
    CHARGE:  cpu time    1.70: real time    1.70
    MIXING:  cpu time    0.02: real time    0.02
    --------------------------------------------
      LOOP:  cpu time   73.17: real time   73.18

 eigenvalue-minimisations  :  1824
 total energy-change (2. order) : 0.1027434E-03  (-0.2870793E-04)
 number of electron     120.0000448 magnetization 
 augmentation part       50.8246213 magnetization 

 Broyden mixing:
  rms(total) = 0.45567E-02    rms(broyden)= 0.45558E-02
  rms(prec ) = 0.63523E-02
  weight for this iteration     100.00

 eigenvalues of (default mixing * dielectric matrix)
  average eigenvalue GAMMA=   0.2528
  0.1056  0.4000

 Free energy of the ion-electron system (eV)
  ---------------------------------------------------
  alpha Z        PSCENC =       574.70065014
  Ewald energy   TEWEN  =     22939.07401727
  -1/2 Hartree   DENC   =    -33397.76718612
  -exchange  EXHF       =         0.00000000
  -V(xc)+E(xc)   XCENC  =      -356.32034392
  PAW double counting   =      8303.78014336    -7574.62918088
  entropy T*S    EENTRO =         0.00000000
  eigenvalues    EBANDS =      -264.97987035
  atomic energy  EATOM  =      9716.95502315
  ---------------------------------------------------
  free energy    TOTEN  =       -59.18674735 eV

  energy without entropy =      -59.18674735  energy(sigma->0) =      -59.18674735


--------------------------------------------------------------------------------------------------------




----------------------------------------- Iteration    7(   4)  ---------------------------------------


    POTLOK:  cpu time    0.55: real time    0.55
    SETDIJ:  cpu time    0.07: real time    0.07
     EDDAV:  cpu time   78.96: real time   78.97
 BZINTS: Fermi energy:  0.021496;120.000000 electrons
         Band energy:-264.955947;  BLOECHL correction: -0.027225
       DOS:  cpu time    0.04: real time    0.04
    CHARGE:  cpu time    1.74: real time    1.75
    MIXING:  cpu time    0.02: real time    0.02
    --------------------------------------------
      LOOP:  cpu time   81.39: real time   81.40

 eigenvalue-minimisations  :  2088
 total energy-change (2. order) :-0.1131179E-04  (-0.7361321E-05)
 number of electron     120.0000448 magnetization 
 augmentation part       50.8242755 magnetization 

 Broyden mixing:
  rms(total) = 0.18164E-02    rms(broyden)= 0.18156E-02
  rms(prec ) = 0.19908E-02
  weight for this iteration     100.00

 eigenvalues of (default mixing * dielectric matrix)
  average eigenvalue GAMMA=   0.2501
  0.3219  0.3219  0.1065

 Free energy of the ion-electron system (eV)
  ---------------------------------------------------
  alpha Z        PSCENC =       574.70065014
  Ewald energy   TEWEN  =     22939.07401727
  -1/2 Hartree   DENC   =    -33397.79063834
  -exchange  EXHF       =         0.00000000
  -V(xc)+E(xc)   XCENC  =      -356.32029187
  PAW double counting   =      8303.79015157    -7574.63972399
  entropy T*S    EENTRO =         0.00000000
  eigenvalues    EBANDS =      -264.95594658
  atomic energy  EATOM  =      9716.95502315
  ---------------------------------------------------
  free energy    TOTEN  =       -59.18675866 eV

  energy without entropy =      -59.18675866  energy(sigma->0) =      -59.18675866


--------------------------------------------------------------------------------------------------------




----------------------------------------- Iteration    7(   5)  ---------------------------------------


    POTLOK:  cpu time    0.55: real time    0.55
    SETDIJ:  cpu time    0.07: real time    0.07
     EDDAV:  cpu time   59.10: real time   59.13
 BZINTS: Fermi energy:  0.021556;120.000000 electrons
         Band energy:-264.951372;  BLOECHL correction: -0.027218
       DOS:  cpu time    0.04: real time    0.04
    CHARGE:  cpu time    1.71: real time    1.71
    MIXING:  cpu time    0.02: real time    0.02
    --------------------------------------------
      LOOP:  cpu time   61.50: real time   61.53

 eigenvalue-minimisations  :  1448
 total energy-change (2. order) : 0.8067022E-05  (-0.8167293E-06)
 number of electron     120.0000448 magnetization 
 augmentation part       50.8242663 magnetization 

 Broyden mixing:
  rms(total) = 0.12716E-02    rms(broyden)= 0.12715E-02
  rms(prec ) = 0.13733E-02
  weight for this iteration     100.00

 eigenvalues of (default mixing * dielectric matrix)
  average eigenvalue GAMMA=   0.6662
  1.1564  1.1564  0.1052  0.2466

 Free energy of the ion-electron system (eV)
  ---------------------------------------------------
  alpha Z        PSCENC =       574.70065014
  Ewald energy   TEWEN  =     22939.07401727
  -1/2 Hartree   DENC   =    -33397.79489526
  -exchange  EXHF       =         0.00000000
  -V(xc)+E(xc)   XCENC  =      -356.32031615
  PAW double counting   =      8303.79937354    -7574.64923154
  entropy T*S    EENTRO =         0.00000000
  eigenvalues    EBANDS =      -264.95137173
  atomic energy  EATOM  =      9716.95502315
  ---------------------------------------------------
  free energy    TOTEN  =       -59.18675059 eV

  energy without entropy =      -59.18675059  energy(sigma->0) =      -59.18675059


--------------------------------------------------------------------------------------------------------




----------------------------------------- Iteration    7(   6)  ---------------------------------------


    POTLOK:  cpu time    0.56: real time    0.55
    SETDIJ:  cpu time    0.07: real time    0.07
     EDDAV:  cpu time   62.44: real time   62.45
 BZINTS: Fermi energy:  0.021500;120.000000 electrons
         Band energy:-264.960667;  BLOECHL correction: -0.027220
       DOS:  cpu time    0.04: real time    0.04
    CHARGE:  cpu time    1.70: real time    1.70
    MIXING:  cpu time    0.02: real time    0.02
    --------------------------------------------
      LOOP:  cpu time   64.82: real time   64.84

 eigenvalue-minimisations  :  1560
 total energy-change (2. order) : 0.2692705E-06  (-0.1288939E-05)
 number of electron     120.0000448 magnetization 
 augmentation part       50.8242519 magnetization 

 Broyden mixing:
  rms(total) = 0.54446E-03    rms(broyden)= 0.54443E-03
  rms(prec ) = 0.59696E-03
  weight for this iteration     100.00

 eigenvalues of (default mixing * dielectric matrix)
  average eigenvalue GAMMA=   0.8944
  2.5529  0.1052  0.2541  0.7798  0.7798

 Free energy of the ion-electron system (eV)
  ---------------------------------------------------
  alpha Z        PSCENC =       574.70065014
  Ewald energy   TEWEN  =     22939.07401727
  -1/2 Hartree   DENC   =    -33397.78433938
  -exchange  EXHF       =         0.00000000
  -V(xc)+E(xc)   XCENC  =      -356.32022970
  PAW double counting   =      8303.84538693    -7574.69659175
  entropy T*S    EENTRO =         0.00000000
  eigenvalues    EBANDS =      -264.96066698
  atomic energy  EATOM  =      9716.95502315
  ---------------------------------------------------
  free energy    TOTEN  =       -59.18675032 eV

  energy without entropy =      -59.18675032  energy(sigma->0) =      -59.18675032


--------------------------------------------------------------------------------------------------------




----------------------------------------- Iteration    7(   7)  ---------------------------------------


    POTLOK:  cpu time    0.55: real time    0.55
    SETDIJ:  cpu time    0.07: real time    0.07
     EDDAV:  cpu time   50.04: real time   50.04
 BZINTS: Fermi energy:  0.021482;120.000000 electrons
         Band energy:-264.961963;  BLOECHL correction: -0.027219
       DOS:  cpu time    0.04: real time    0.04
    --------------------------------------------
      LOOP:  cpu time   50.71: real time   50.71

 eigenvalue-minimisations  :  1152
 total energy-change (2. order) :-0.9891082E-06  (-0.3956576E-06)
 number of electron     120.0000448 magnetization 
 augmentation part       50.8242519 magnetization 

 Free energy of the ion-electron system (eV)
  ---------------------------------------------------
  alpha Z        PSCENC =       574.70065014
  Ewald energy   TEWEN  =     22939.07401727
  -1/2 Hartree   DENC   =    -33397.78148329
  -exchange  EXHF       =         0.00000000
  -V(xc)+E(xc)   XCENC  =      -356.32020068
  PAW double counting   =      8303.88749624    -7574.74029089
  entropy T*S    EENTRO =         0.00000000
  eigenvalues    EBANDS =      -264.96196325
  atomic energy  EATOM  =      9716.95502315
  ---------------------------------------------------
  free energy    TOTEN  =       -59.18675131 eV

  energy without entropy =      -59.18675131  energy(sigma->0) =      -59.18675131


--------------------------------------------------------------------------------------------------------




 average (electrostatic) potential at core
  the test charge radii are     1.1199
  (the norm of the test charge is              1.0000)
       1 -51.0507       2 -51.5365       3 -51.5115       4 -51.0507       5 -51.5365
       6 -51.5115       7 -51.5116       8 -51.5365       9 -51.0507      10 -51.5116
      11 -51.5365      12 -51.0507
 
 
 
 E-fermi :   0.0215     XC(G=0):  -7.8040     alpha+bet : -6.1545


 k-point   1 :       0.0000    0.0000    0.0000
  band No.  band energies     occupation 
      1      -6.4778      2.00000
      2      -5.6820      2.00000
      3      -4.8483      2.00000
      4      -4.7974      2.00000
      5      -4.7974      2.00000
      6      -4.7771      2.00000
      7      -4.6096      2.00000
      8      -4.5474      2.00000
      9      -4.5474      2.00000
     10      -4.3240      2.00000
     11      -4.3240      2.00000
     12      -4.3195      2.00000
     13      -4.2756      2.00000
     14      -4.1301      2.00000
     15      -4.0218      2.00000
     16      -4.0218      2.00000
     17      -3.8341      2.00000
     18      -3.7285      2.00000
     19      -3.7285      2.00000
     20      -3.3189      2.00000
     21      -3.2269      2.00000
     22      -3.2269      2.00000
     23      -2.8812      2.00000
     24      -2.6683      2.00000
     25      -2.4673      2.00000
     26      -2.4673      2.00000
     27      -2.1826      2.00000
     28      -2.1826      2.00000
     29      -2.0518      2.00000
     30      -2.0518      2.00000
     31      -1.5844      2.00000
     32      -1.4532      2.00000
     33      -1.4532      2.00000
     34      -1.4098      2.00000
     35      -1.1586      2.00000
     36      -1.0502      2.00000
     37      -1.0502      2.00000
     38      -1.0414      2.00000
     39      -1.0296      2.00000
     40      -0.9154      2.00000
     41      -0.9154      2.00000
     42      -0.8109      2.00000
     43      -0.7415      2.00000
     44      -0.7415      2.00000
     45      -0.5536      2.00000
     46      -0.4161      2.00000
     47      -0.4161      2.00000
     48      -0.2736      2.00000
     49      -0.1238      2.00000
     50      -0.1238      2.00000
     51      -0.0948      2.00000
     52      -0.0948      2.00000
     53      -0.0910      2.00000
     54      -0.0910      2.00000
     55      -0.0150      2.00000
     56       0.0336      1.83712
     57       0.2064      0.00326
     58       0.2064     -0.62812
     59       0.2784      0.00000
     60       0.2785      0.00000
     61       0.3232      0.00000
     62       0.3232      0.00000
     63       0.3851      0.00000
     64       0.6137      0.00000
     65       0.6137      0.00000
     66       1.9708      0.00000
     67       2.9759      0.00000
     68       4.0508      0.00000
     69       4.0508      0.00000
     70       5.1649      0.00000
     71       5.5110      0.00000
     72       5.5110      0.00000

 k-point   2 :       0.1429    0.0000    0.0000
  band No.  band energies     occupation 
      1      -6.2484      2.00000
      2      -5.4746      2.00000
      3      -4.6951      2.00000
      4      -4.6864      2.00000
      5      -4.6633      2.00000
      6      -4.5973      2.00000
      7      -4.4804      2.00000
      8      -4.4629      2.00000
      9      -4.4604      2.00000
     10      -4.2020      2.00000
     11      -4.1676      2.00000
     12      -4.1612      2.00000
     13      -4.1552      2.00000
     14      -3.9656      2.00000
     15      -3.9548      2.00000
     16      -3.9512      2.00000
     17      -3.7440      2.00000
     18      -3.5942      2.00000
     19      -3.5780      2.00000
     20      -3.2609      2.00000
     21      -3.2334      2.00000
     22      -3.1931      2.00000
     23      -2.8631      2.00000
     24      -2.5718      2.00000
     25      -2.4991      2.00000
     26      -2.3916      2.00000
     27      -2.2915      2.00000
     28      -2.2081      2.00000
     29      -2.1813      2.00000
     30      -2.0826      2.00000
     31      -1.9751      2.00000
     32      -1.5382      2.00000
     33      -1.4811      2.00000
     34      -1.3228      2.00000
     35      -1.2949      2.00000
     36      -1.2525      2.00000
     37      -1.1798      2.00000
     38      -1.1415      2.00000
     39      -1.0271      2.00000
     40      -1.0241      2.00000
     41      -0.9458      2.00000
     42      -0.8704      2.00000
     43      -0.7643      2.00000
     44      -0.6482      2.00000
     45      -0.5915      2.00000
     46      -0.5854      2.00000
     47      -0.5178      2.00000
     48      -0.4927      2.00000
     49      -0.2894      2.00000
     50      -0.2716      2.00000
     51      -0.2476      2.00000
     52      -0.1758      2.00000
     53      -0.1399      2.00000
     54      -0.1383      2.00000
     55      -0.1282      2.00000
     56      -0.1145      2.02187
     57      -0.1032      1.96225
     58      -0.0046      1.70221
     59       0.0692      0.42112
     60       0.0844      0.02298
     61       0.1244     -0.04097
     62       0.2005      0.00000
     63       0.3370      0.00000
     64       0.3846      0.00000
     65       1.0373      0.00000
     66       2.5384      0.00000
     67       2.9445      0.00000
     68       3.6418      0.00000
     69       4.2594      0.00000
     70       4.7864      0.00000
     71       5.4016      0.00000
     72       5.7472      0.00000

 k-point   3 :       0.2857    0.0000    0.0000
  band No.  band energies     occupation 
      1      -5.6044      2.00000
      2      -4.9037      2.00000
      3      -4.4151      2.00000
      4      -4.3142      2.00000
      5      -4.2934      2.00000
      6      -4.2208      2.00000
      7      -4.1682      2.00000
      8      -4.1215      2.00000
      9      -4.0972      2.00000
     10      -3.8865      2.00000
     11      -3.8286      2.00000
     12      -3.7857      2.00000
     13      -3.7755      2.00000
     14      -3.7672      2.00000
     15      -3.7388      2.00000
     16      -3.5009      2.00000
     17      -3.4785      2.00000
     18      -3.2903      2.00000
     19      -3.2214      2.00000
     20      -3.1738      2.00000
     21      -3.1676      2.00000
     22      -3.1153      2.00000
     23      -3.0409      2.00000
     24      -2.5247      2.00000
     25      -2.4965      2.00000
     26      -2.3478      2.00000
     27      -2.3447      2.00000
     28      -2.3200      2.00000
     29      -2.3174      2.00000
     30      -2.1933      2.00000
     31      -2.0894      2.00000
     32      -2.0532      2.00000
     33      -1.7544      2.00000
     34      -1.6981      2.00000
     35      -1.5962      2.00000
     36      -1.5576      2.00000
     37      -1.5216      2.00000
     38      -1.3936      2.00000
     39      -1.3337      2.00000
     40      -1.2548      2.00000
     41      -1.1231      2.00000
     42      -1.0176      2.00000
     43      -0.8996      2.00000
     44      -0.8515      2.00000
     45      -0.8485      2.00000
     46      -0.8474      2.00000
     47      -0.8405      2.00000
     48      -0.8157      2.00000
     49      -0.7395      2.00000
     50      -0.6657      2.00000
     51      -0.5595      2.00000
     52      -0.5058      2.00000
     53      -0.4754      2.00000
     54      -0.4537      2.00000
     55      -0.4218      2.00000
     56      -0.4135      2.00000
     57      -0.2832      2.00000
     58      -0.2794      2.00000
     59      -0.1803      2.16289
     60      -0.0825      2.20265
     61      -0.0675      1.93667
     62       0.1784      0.00000
     63       0.1856      0.00000
     64       0.7439      0.00000
     65       1.0400      0.00000
     66       2.1239      0.00000
     67       2.2587      0.00000
     68       3.5961      0.00000
     69       3.6782      0.00000
     70       4.8950      0.00000
     71       5.0316      0.00000
     72       6.1437      0.00000

 k-point   4 :       0.4286    0.0000    0.0000
  band No.  band energies     occupation 
      1      -4.7499      2.00000
      2      -4.2605      2.00000
      3      -4.1693      2.00000
      4      -3.9150      2.00000
      5      -3.8748      2.00000
      6      -3.8566      2.00000
      7      -3.7040      2.00000
      8      -3.6982      2.00000
      9      -3.5971      2.00000
     10      -3.5034      2.00000
     11      -3.4980      2.00000
     12      -3.4782      2.00000
     13      -3.4345      2.00000
     14      -3.3861      2.00000
     15      -3.3789      2.00000
     16      -3.3331      2.00000
     17      -3.2543      2.00000
     18      -3.2337      2.00000
     19      -3.2035      2.00000
     20      -3.1783      2.00000
     21      -3.0797      2.00000
     22      -2.8803      2.00000
     23      -2.8347      2.00000
     24      -2.7889      2.00000
     25      -2.7425      2.00000
     26      -2.7281      2.00000
     27      -2.6447      2.00000
     28      -2.5120      2.00000
     29      -2.3753      2.00000
     30      -2.3032      2.00000
     31      -2.0764      2.00000
     32      -2.0564      2.00000
     33      -1.9756      2.00000
     34      -1.9679      2.00000
     35      -1.6919      2.00000
     36      -1.6825      2.00000
     37      -1.5986      2.00000
     38      -1.4761      2.00000
     39      -1.4737      2.00000
     40      -1.4170      2.00000
     41      -1.4064      2.00000
     42      -1.3959      2.00000
     43      -1.3347      2.00000
     44      -1.3259      2.00000
     45      -1.2747      2.00000
     46      -1.2074      2.00000
     47      -1.0904      2.00000
     48      -1.0546      2.00000
     49      -1.0382      2.00000
     50      -0.9936      2.00000
     51      -0.9559      2.00000
     52      -0.9534      2.00000
     53      -0.8365      2.00000
     54      -0.8080      2.00000
     55      -0.6964      2.00000
     56      -0.6848      2.00000
     57      -0.6161      2.00000
     58      -0.2879      2.00000
     59      -0.2232      2.00000
     60      -0.2227      2.00000
     61      -0.1709      2.10057
     62       0.1569      0.00000
     63       0.1681      0.00000
     64       0.6563      0.00000
     65       0.6779      0.00000
     66       1.8424      0.00000
     67       1.8543      0.00000
     68       3.2344      0.00000
     69       3.3777      0.00000
     70       4.8213      0.00000
     71       4.9983      0.00000
     72       6.2007      0.00000

 k-point   5 :       0.1429    0.1429    0.0000
  band No.  band energies     occupation 
      1      -6.0333      2.00000
      2      -5.3026      2.00000
      3      -4.6061      2.00000
      4      -4.5539      2.00000
      5      -4.5539      2.00000
      6      -4.5148      2.00000
      7      -4.3877      2.00000
      8      -4.3877      2.00000
      9      -4.3085      2.00000
     10      -4.1246      2.00000
     11      -4.0464      2.00000
     12      -4.0464      2.00000
     13      -3.9587      2.00000
     14      -3.9311      2.00000
     15      -3.9291      2.00000
     16      -3.9291      2.00000
     17      -3.4886      2.00000
     18      -3.4472      2.00000
     19      -3.4472      2.00000
     20      -3.2291      2.00000
     21      -3.2291      2.00000
     22      -3.1088      2.00000
     23      -2.8149      2.00000
     24      -2.4920      2.00000
     25      -2.4844      2.00000
     26      -2.3692      2.00000
     27      -2.2813      2.00000
     28      -2.2451      2.00000
     29      -2.2451      2.00000
     30      -2.1469      2.00000
     31      -2.0853      2.00000
     32      -1.6701      2.00000
     33      -1.6632      2.00000
     34      -1.3631      2.00000
     35      -1.3631      2.00000
     36      -1.2868      2.00000
     37      -1.2278      2.00000
     38      -1.1491      2.00000
     39      -1.0772      2.00000
     40      -1.0747      2.00000
     41      -1.0444      2.00000
     42      -1.0444      2.00000
     43      -0.9657      2.00000
     44      -0.8816      2.00000
     45      -0.6787      2.00000
     46      -0.6787      2.00000
     47      -0.6018      2.00000
     48      -0.5997      2.00000
     49      -0.5218      2.00000
     50      -0.5218      2.00000
     51      -0.4513      2.00000
     52      -0.4122      2.00000
     53      -0.4122      2.00000
     54      -0.1927      2.00000
     55      -0.1148      2.00000
     56      -0.0647      2.00533
     57      -0.0647      1.95120
     58      -0.0420      1.91848
     59       0.0411      0.98055
     60       0.0411      0.30692
     61       0.0945      0.01219
     62       0.1904      0.00000
     63       0.2406      0.00000
     64       0.2406      0.00000
     65       1.3804      0.00000
     66       2.9561      0.00000
     67       3.6291      0.00000
     68       3.6291      0.00000
     69       4.1519      0.00000
     70       4.7437      0.00000
     71       4.7437      0.00000
     72       5.6454      0.00000

 k-point   6 :       0.2857    0.1429    0.0000
  band No.  band energies     occupation 
      1      -5.4368      2.00000
      2      -4.8556      2.00000
      3      -4.3146      2.00000
      4      -4.3036      2.00000
      5      -4.2984      2.00000
      6      -4.2197      2.00000
      7      -4.1954      2.00000
      8      -4.1340      2.00000
      9      -3.9006      2.00000
     10      -3.8785      2.00000
     11      -3.8614      2.00000
     12      -3.8443      2.00000
     13      -3.8078      2.00000
     14      -3.7304      2.00000
     15      -3.6683      2.00000
     16      -3.4973      2.00000
     17      -3.2438      2.00000
     18      -3.1743      2.00000
     19      -3.1140      2.00000
     20      -3.0801      2.00000
     21      -2.9959      2.00000
     22      -2.9031      2.00000
     23      -2.7793      2.00000
     24      -2.4819      2.00000
     25      -2.3749      2.00000
     26      -2.3103      2.00000
     27      -2.2961      2.00000
     28      -2.2651      2.00000
     29      -2.2496      2.00000
     30      -2.2072      2.00000
     31      -2.1528      2.00000
     32      -2.0896      2.00000
     33      -1.8932      2.00000
     34      -1.8078      2.00000
     35      -1.7185      2.00000
     36      -1.5806      2.00000
     37      -1.5656      2.00000
     38      -1.4783      2.00000
     39      -1.3951      2.00000
     40      -1.3662      2.00000
     41      -1.2247      2.00000
     42      -1.2048      2.00000
     43      -1.2040      2.00000
     44      -1.1799      2.00000
     45      -1.0827      2.00000
     46      -0.9909      2.00000
     47      -0.9238      2.00000
     48      -0.8860      2.00000
     49      -0.8501      2.00000
     50      -0.7988      2.00000
     51      -0.6661      2.00000
     52      -0.5786      2.00000
     53      -0.4745      2.00000
     54      -0.4516      2.00000
     55      -0.3501      2.00000
     56      -0.1968      2.00000
     57      -0.1147      2.00000
     58      -0.0985      2.00000
     59      -0.0933      2.07433
     60       0.0109      1.77145
     61       0.0590      0.33394
     62       0.1006      0.00000
     63       0.1110      0.00000
     64       0.7399      0.00000
     65       1.6993      0.00000
     66       2.2779      0.00000
     67       2.6193      0.00000
     68       3.7895      0.00000
     69       3.9331      0.00000
     70       4.9652      0.00000
     71       5.1003      0.00000
     72       5.2185      0.00000

 k-point   7 :       0.4286    0.1429    0.0000
  band No.  band energies     occupation 
      1      -4.6646      2.00000
      2      -4.3545      2.00000
      3      -4.2100      2.00000
      4      -4.0788      2.00000
      5      -4.0539      2.00000
      6      -3.9060      2.00000
      7      -3.8764      2.00000
      8      -3.8732      2.00000
      9      -3.7148      2.00000
     10      -3.7023      2.00000
     11      -3.6446      2.00000
     12      -3.5280      2.00000
     13      -3.4268      2.00000
     14      -3.3966      2.00000
     15      -3.2648      2.00000
     16      -3.2209      2.00000
     17      -3.1462      2.00000
     18      -3.1406      2.00000
     19      -2.9612      2.00000
     20      -2.9056      2.00000
     21      -2.8127      2.00000
     22      -2.7354      2.00000
     23      -2.6599      2.00000
     24      -2.6290      2.00000
     25      -2.5914      2.00000
     26      -2.5034      2.00000
     27      -2.4703      2.00000
     28      -2.3758      2.00000
     29      -2.2966      2.00000
     30      -2.2592      2.00000
     31      -2.1952      2.00000
     32      -2.1077      2.00000
     33      -2.0160      2.00000
     34      -1.9977      2.00000
     35      -1.8192      2.00000
     36      -1.7745      2.00000
     37      -1.7725      2.00000
     38      -1.7506      2.00000
     39      -1.6727      2.00000
     40      -1.6525      2.00000
     41      -1.6291      2.00000
     42      -1.5279      2.00000
     43      -1.4379      2.00000
     44      -1.2939      2.00000
     45      -1.2758      2.00000
     46      -1.2235      2.00000
     47      -1.0619      2.00000
     48      -1.0074      2.00000
     49      -0.9046      2.00000
     50      -0.8229      2.00000
     51      -0.8080      2.00000
     52      -0.7939      2.00000
     53      -0.5829      2.00000
     54      -0.5120      2.00000
     55      -0.4450      2.00000
     56      -0.3603      2.00000
     57      -0.3355      2.00000
     58      -0.2985      2.00000
     59      -0.1403      2.00000
     60      -0.0638      2.00000
     61      -0.0103      1.92676
     62       0.0439      0.00000
     63       0.1781      0.00000
     64       0.6039      0.00000
     65       0.8248      0.00000
     66       1.8331      0.00000
     67       1.9000      0.00000
     68       3.2580      0.00000
     69       3.4549      0.00000
     70       4.8463      0.00000
     71       5.1497      0.00000
     72       6.2516      0.00000

 k-point   8 :       0.2857    0.2857    0.0000
  band No.  band energies     occupation 
      1      -5.0072      2.00000
      2      -4.7452      2.00000
      3      -4.4381      2.00000
      4      -4.2389      2.00000
      5      -4.2171      2.00000
      6      -4.2171      2.00000
      7      -4.0814      2.00000
      8      -4.0813      2.00000
      9      -3.9051      2.00000
     10      -3.8598      2.00000
     11      -3.7963      2.00000
     12      -3.7963      2.00000
     13      -3.4725      2.00000
     14      -3.3906      2.00000
     15      -3.3906      2.00000
     16      -3.1406      2.00000
     17      -3.1406      2.00000
     18      -3.1225      2.00000
     19      -2.8312      2.00000
     20      -2.8312      2.00000
     21      -2.8035      2.00000
     22      -2.6621      2.00000
     23      -2.4380      2.00000
     24      -2.2929      2.00000
     25      -2.2596      2.00000
     26      -2.2586      2.00000
     27      -2.2314      2.00000
     28      -2.2314      2.00000
     29      -2.2218      2.00000
     30      -2.1981      2.00000
     31      -2.0780      2.00000
     32      -2.0780      2.00000
     33      -2.0272      2.00000
     34      -1.9734      2.00000
     35      -1.9628      2.00000
     36      -1.7826      2.00000
     37      -1.7826      2.00000
     38      -1.7595      2.00000
     39      -1.6561      2.00000
     40      -1.6561      2.00000
     41      -1.6071      2.00000
     42      -1.5720      2.00000
     43      -1.3606      2.00000
     44      -1.3127      2.00000
     45      -1.3126      2.00000
     46      -1.2934      2.00000
     47      -0.8808      2.00000
     48      -0.7480      2.00000
     49      -0.7480      2.00000
     50      -0.7302      2.00000
     51      -0.6654      2.00000
     52      -0.5959      2.00000
     53      -0.4097      2.00000
     54      -0.4097      2.00000
     55      -0.4043      2.00000
     56      -0.2706      2.00000
     57      -0.0546      2.00000
     58      -0.0140      2.00000
     59      -0.0140      1.99477
     60       0.0072      1.98767
     61       0.0483      0.01140
     62       0.0483      0.00000
     63       0.0872      0.00000
     64       0.9804      0.00000
     65       2.7896      0.00000
     66       2.8777      0.00000
     67       2.8777      0.00000
     68       3.4460      0.00000
     69       3.4460      0.00000
     70       4.0385      0.00000
     71       4.0385      0.00000
     72       4.5888      0.00000

 k-point   9 :       0.4286    0.2857    0.0000
  band No.  band energies     occupation 
      1      -4.6189      2.00000
      2      -4.6068      2.00000
      3      -4.4265      2.00000
      4      -4.4230      2.00000
      5      -4.3050      2.00000
      6      -4.1077      2.00000
      7      -4.0507      2.00000
      8      -4.0366      2.00000
      9      -3.6957      2.00000
     10      -3.6593      2.00000
     11      -3.5693      2.00000
     12      -3.4530      2.00000
     13      -3.3393      2.00000
     14      -3.2259      2.00000
     15      -3.0615      2.00000
     16      -3.0365      2.00000
     17      -2.9657      2.00000
     18      -2.8503      2.00000
     19      -2.8079      2.00000
     20      -2.6865      2.00000
     21      -2.6649      2.00000
     22      -2.6624      2.00000
     23      -2.6301      2.00000
     24      -2.5005      2.00000
     25      -2.4858      2.00000
     26      -2.4091      2.00000
     27      -2.3874      2.00000
     28      -2.3792      2.00000
     29      -2.2729      2.00000
     30      -2.1596      2.00000
     31      -2.1167      2.00000
     32      -2.0894      2.00000
     33      -2.0817      2.00000
     34      -2.0412      2.00000
     35      -1.9892      2.00000
     36      -1.9353      2.00000
     37      -1.8345      2.00000
     38      -1.8009      2.00000
     39      -1.7311      2.00000
     40      -1.6217      2.00000
     41      -1.4480      2.00000
     42      -1.4451      2.00000
     43      -1.3687      2.00000
     44      -1.3454      2.00000
     45      -1.2641      2.00000
     46      -1.0132      2.00000
     47      -0.9293      2.00000
     48      -0.7442      2.00000
     49      -0.6874      2.00000
     50      -0.6469      2.00000
     51      -0.5955      2.00000
     52      -0.5394      2.00000
     53      -0.3403      2.00000
     54      -0.2398      2.00000
     55      -0.1758      2.00000
     56      -0.1577      2.00000
     57      -0.1540      2.00000
     58      -0.1413      2.00000
     59      -0.0686      2.00000
     60      -0.0627      2.00000
     61       0.0387      0.16161
     62       0.0500      0.00000
     63       0.4755      0.00000
     64       1.1635      0.00000
     65       1.4134      0.00000
     66       1.8383      0.00000
     67       2.0408      0.00000
     68       3.1155      0.00000
     69       3.5957      0.00000
     70       4.1076      0.00000
     71       4.1428      0.00000
     72       5.1315      0.00000

 k-point  10 :       0.4286    0.4286    0.0000
  band No.  band energies     occupation 
      1      -4.7311      2.00000
      2      -4.7246      2.00000
      3      -4.6684      2.00000
      4      -4.6684      2.00000
      5      -4.2718      2.00000
      6      -4.2220      2.00000
      7      -4.1805      2.00000
      8      -4.1805      2.00000
      9      -3.6100      2.00000
     10      -3.5983      2.00000
     11      -3.4936      2.00000
     12      -3.4936      2.00000
     13      -3.0057      2.00000
     14      -2.9401      2.00000
     15      -2.9401      2.00000
     16      -2.8891      2.00000
     17      -2.7965      2.00000
     18      -2.7964      2.00000
     19      -2.6685      2.00000
     20      -2.6465      2.00000
     21      -2.6230      2.00000
     22      -2.5949      2.00000
     23      -2.5949      2.00000
     24      -2.5341      2.00000
     25      -2.5341      2.00000
     26      -2.4708      2.00000
     27      -2.4702      2.00000
     28      -2.4653      2.00000
     29      -2.2659      2.00000
     30      -2.2659      2.00000
     31      -2.2086      2.00000
     32      -2.1418      2.00000
     33      -2.0775      2.00000
     34      -2.0685      2.00000
     35      -2.0366      2.00000
     36      -2.0366      2.00000
     37      -1.5893      2.00000
     38      -1.5605      2.00000
     39      -1.5175      2.00000
     40      -1.5175      2.00000
     41      -1.4320      2.00000
     42      -1.3687      2.00000
     43      -1.3687      2.00000
     44      -1.2751      2.00000
     45      -0.9460      2.00000
     46      -0.6469      2.00000
     47      -0.6469      2.00000
     48      -0.6066      2.00000
     49      -0.5775      2.00000
     50      -0.5545      2.00000
     51      -0.5545      2.00000
     52      -0.3707      2.00000
     53      -0.2098      2.00000
     54      -0.1751      2.00000
     55      -0.1751      2.00000
     56      -0.1569      2.00000
     57      -0.0773      2.00000
     58      -0.0602      2.00000
     59      -0.0602      2.00000
     60       0.0172      2.00000
     61       0.6569      0.00000
     62       0.8134      0.00000
     63       1.0609      0.00000
     64       1.9731      0.00000
     65       2.0193      0.00000
     66       2.0193      0.00000
     67       2.3166      0.00000
     68       2.3166      0.00000
     69       2.4329      0.00000
     70       2.4329      0.00000
     71       3.2779      0.00000
     72       3.6987      0.00000


--------------------------------------------------------------------------------------------------------


 soft charge-density along one line, spin component           1
         0         1         2         3         4         5         6         7         8         9
 total charge-density along one line
 
 pseudopotential strength for first ion, spin component:           1
-11.497   0.000   0.000   0.000   0.000   0.125   0.000   0.000
  0.000 -11.397   0.000   0.000   0.000   0.000   0.109   0.000
  0.000   0.000 -11.369   0.000   0.000   0.000   0.000   0.104
  0.000   0.000   0.000 -11.397   0.000   0.000   0.000   0.000
  0.000   0.000   0.000   0.000 -11.441   0.000   0.000   0.000
  0.125   0.000   0.000   0.000   0.000   0.321   0.000   0.000
  0.000   0.109   0.000   0.000   0.000   0.000   0.324   0.000
  0.000   0.000   0.104   0.000   0.000   0.000   0.000   0.324
  0.000   0.000   0.000   0.109   0.000   0.000   0.000   0.000
  0.000   0.000   0.000   0.000   0.117   0.000   0.000   0.000
  0.000   0.000  -0.021   0.000   0.000   0.000   0.000   0.003
  0.000   0.000   0.002   0.000   0.000   0.000   0.000   0.000
  0.000  -0.016   0.000   0.000   0.000   0.000   0.003   0.000
  0.000   0.000  -0.019   0.000   0.000   0.000   0.000   0.003
  0.000   0.000   0.000  -0.016   0.000   0.000   0.000   0.000
  0.000   0.013   0.000   0.000   0.000   0.000  -0.002   0.000
  0.000   0.000   0.015   0.000   0.000   0.000   0.000  -0.002
  0.000   0.000   0.000   0.013   0.000   0.000   0.000   0.000
 total augmentation occupancy for first ion, spin component:           1
  1.650   0.000   0.000   0.000   0.000   0.184   0.000   0.000   0.000   0.000   0.000   0.000   0.000   0.000   0.000   0.000
  0.000   1.824   0.000   0.000   0.000   0.000   0.081   0.000   0.000   0.000   0.000   0.000  -0.011   0.000   0.000  -0.021
  0.000   0.000   1.862   0.000   0.000   0.000   0.000   0.058   0.000   0.000   0.017  -0.045   0.000   0.008   0.000   0.000
  0.000   0.000   0.000   1.824   0.000   0.000   0.000   0.000   0.081   0.000   0.000   0.000   0.000   0.000  -0.011   0.000
  0.000   0.000   0.000   0.000   1.859   0.000   0.000   0.000   0.000   0.046   0.000   0.000   0.000   0.000   0.000   0.000
  0.184   0.000   0.000   0.000   0.000   0.104   0.000   0.000   0.000   0.000   0.000   0.000   0.000   0.000   0.000   0.000
  0.000   0.081   0.000   0.000   0.000   0.000   0.096   0.000   0.000   0.000   0.000   0.000   0.051   0.000   0.000  -0.002
  0.000   0.000   0.058   0.000   0.000   0.000   0.000   0.092   0.000   0.000  -0.082   0.020   0.000   0.037   0.000   0.000
  0.000   0.000   0.000   0.081   0.000   0.000   0.000   0.000   0.096   0.000   0.000   0.000   0.000   0.000   0.051   0.000
  0.000   0.000   0.000   0.000   0.046   0.000   0.000   0.000   0.000   0.101   0.000   0.000   0.000   0.000   0.000   0.000
  0.000   0.000   0.017   0.000   0.000   0.000   0.000  -0.082   0.000   0.000   0.958  -0.309   0.000   0.095   0.000   0.000
  0.000   0.000  -0.045   0.000   0.000   0.000   0.000   0.020   0.000   0.000  -0.309   0.114   0.000  -0.046   0.000   0.000
  0.000  -0.011   0.000   0.000   0.000   0.000   0.051   0.000   0.000   0.000   0.000   0.000   0.098   0.000   0.000  -0.002
  0.000   0.000   0.008   0.000   0.000   0.000   0.000   0.037   0.000   0.000   0.095  -0.046   0.000   0.060   0.000   0.000
  0.000   0.000   0.000  -0.011   0.000   0.000   0.000   0.000   0.051   0.000   0.000   0.000   0.000   0.000   0.098   0.000
  0.000  -0.021   0.000   0.000   0.000   0.000  -0.002   0.000   0.000   0.000   0.000   0.000  -0.002   0.000   0.000   0.000
  0.000   0.000  -0.028   0.000   0.000   0.000   0.000  -0.001   0.000   0.000  -0.005   0.003   0.000  -0.001   0.000   0.000
  0.000   0.000   0.000  -0.021   0.000   0.000   0.000   0.000  -0.002   0.000   0.000   0.000   0.000   0.000  -0.002   0.000


------------------------ aborting loop because EDIFF is reached ----------------------------------------


    CHARGE:  cpu time    1.72: real time    1.72
    FORLOC:  cpu time    0.06: real time    0.06
    FORNL :  cpu time   26.34: real time   26.35
    STRESS:  cpu time   69.14: real time   69.15
    FORCOR:  cpu time    0.58: real time    0.59
    FORHAR:  cpu time    0.19: real time    0.19
    MIXING:  cpu time    0.02: real time    0.02

  FORCE on cell =-STRESS in cart. coord.  units (eV):
  Direction    XX          YY          ZZ          XY          YZ          ZX
  --------------------------------------------------------------------------------------
  Alpha Z   574.70065   574.70065   574.70065
  Ewald   29520.59370 29520.59370-36102.12722     0.00000     0.00000     0.00000
  Hartree 32390.42225 32390.42225-31383.09177     0.00000     0.00000     0.00000
  E(xc)    -627.17623  -627.17623  -629.14719     0.00000     0.00000     0.00000
  Local  -63360.84396-63360.84396 66024.49349     0.00000     0.00000     0.00000
  n-local  -647.64780  -639.76347  -646.80841     8.96980     0.00000     0.00000
  augment   513.75184   513.75184   518.79785    -0.00005    -0.00005    -0.00005
  Kinetic  1639.02564  1616.07774  1642.24451     7.12294     0.00000     0.00000
  Fock        0.00000     0.00000     0.00000     0.00000     0.00000     0.00000
  -------------------------------------------------------------------------------------
  Total      -4.70569    -4.70569    -0.93810     0.00000     0.00000     0.00000
  in kB     -22.10056   -22.10056    -4.40583     0.00000     0.00000     0.00000
  external pressure =      -16.20 kB  Pullay stress =        0.00 kB


 VOLUME and BASIS-vectors are now :
 -----------------------------------------------------------------------------
  energy-cutoff  :      415.00
  volume of cell :      341.14
      direct lattice vectors                 reciprocal lattice vectors
     3.951020398  0.000000000  0.000000000     0.253099174  0.000000000  0.000000000
     0.000000000  3.951020398  0.000000000     0.000000000  0.253099174  0.000000000
     0.000000000  0.000000000 21.853061195     0.000000000  0.000000000  0.045760179

  length of vectors
     3.951020398  3.951020398 21.853061195     0.253099174  0.253099174  0.045760179


 FORCES acting on ions
    electron-ion (+dipol)            ewald-force                    non-local-force                 convergence-correction
 -----------------------------------------------------------------------------------------------
   0.810E-14 -.171E-13 0.261E+04   0.675E-14 -.375E-14 -.261E+04   0.504E-24 -.249E-24 -.178E+01   0.361E-13 0.267E-13 -.407E-02
   0.130E-13 0.437E-13 0.530E+03   0.158E-13 -.425E-14 -.530E+03   -.569E-24 0.000E+00 0.857E-01   0.632E-14 -.287E-14 0.791E-02
   0.147E-13 0.279E-13 -.159E+04   0.114E-13 -.843E-14 0.159E+04   -.258E-24 -.207E-24 -.175E+00   -.171E-13 -.289E-13 -.205E-02
   -.811E-13 -.117E-12 0.261E+04   -.165E-13 0.957E-14 -.261E+04   -.775E-25 -.414E-24 -.178E+01   0.396E-13 0.344E-13 -.407E-02
   -.781E-13 -.113E-13 0.530E+03   -.652E-14 0.981E-14 -.530E+03   -.982E-24 -.827E-24 0.857E-01   -.168E-14 -.108E-13 0.791E-02
   -.647E-13 0.746E-13 -.159E+04   -.146E-13 0.543E-14 0.159E+04   -.388E-25 0.000E+00 -.175E+00   -.214E-13 -.394E-13 -.205E-02
   -.884E-13 0.361E-13 0.159E+04   0.138E-13 -.572E-14 -.159E+04   0.129E-25 0.000E+00 0.175E+00   0.264E-13 0.839E-15 0.205E-02
   -.562E-13 0.184E-13 -.530E+03   0.566E-14 -.101E-13 0.530E+03   0.750E-24 0.414E-24 -.857E-01   -.810E-14 -.301E-13 -.791E-02
   -.491E-13 0.319E-13 -.261E+04   0.157E-13 -.986E-14 0.261E+04   0.517E-25 0.207E-24 0.178E+01   -.281E-13 -.644E-13 0.407E-02
   0.377E-15 -.182E-12 0.159E+04   -.122E-13 0.814E-14 -.159E+04   0.233E-24 0.207E-24 0.175E+00   0.229E-13 0.914E-14 0.205E-02
   0.246E-13 -.166E-12 -.530E+03   -.166E-13 0.397E-14 0.530E+03   0.106E-23 -.129E-24 -.857E-01   -.510E-14 0.586E-14 -.791E-02
   0.307E-13 -.187E-12 -.261E+04   -.763E-14 0.347E-14 0.261E+04   -.452E-24 0.310E-24 0.178E+01   -.253E-13 -.505E-13 0.407E-02
 -----------------------------------------------------------------------------------------------
   -.326E-12 -.448E-12 -.250E-03   -.523E-14 -.173E-14 -.182E-11   0.233E-24 -.688E-24 0.222E-15   0.245E-13 -.150E-12 -.104E-04
 
 
 POSITION                                       TOTAL-FORCE (eV/Angst)
 -----------------------------------------------------------------------------------
      0.00000      0.00000      0.00951         0.000000      0.000000      0.025195
      0.00000      0.00000      3.95166         0.000000      0.000000     -0.029267
      0.00000      0.00000      7.91015         0.000000      0.000000     -0.018481
      1.97551      1.97551      0.00951         0.000000      0.000000      0.025195
      1.97551      1.97551      3.95166         0.000000      0.000000     -0.029267
      1.97551      1.97551      7.91015         0.000000      0.000000     -0.018481
      1.97551      0.00000      1.96740         0.000000      0.000000      0.018481
      1.97551      0.00000      5.92589         0.000000      0.000000      0.029267
      1.97551      0.00000      9.86804         0.000000      0.000000     -0.025195
      0.00000      1.97551      1.96740         0.000000      0.000000      0.018481
      0.00000      1.97551      5.92589         0.000000      0.000000      0.029267
      0.00000      1.97551      9.86804         0.000000      0.000000     -0.025195
 -----------------------------------------------------------------------------------
    total drift:                                0.000000      0.000000     -0.000260


--------------------------------------------------------------------------------------------------------



  FREE ENERGIE OF THE ION-ELECTRON SYSTEM (eV)
  ---------------------------------------------------
  free  energy   TOTEN  =       -59.186751 eV

  energy  without entropy=      -59.186751  energy(sigma->0) =      -59.186751
 
 d Force = 0.1914649E-03[ 0.177E-03, 0.206E-03]  d Energy = 0.1776459E-03 0.138E-04
 d Force =-0.7575658E+01[-0.758E+01,-0.757E+01]  d Ewald  =-0.7575658E+01-0.448E-07


--------------------------------------------------------------------------------------------------------


    POTLOK:  cpu time    0.64: real time    0.63


--------------------------------------------------------------------------------------------------------


 Conjugate gradient step on ions:
 trial-energy change:   -0.000178  1 .order   -0.000191   -0.000206   -0.000177
  (g-gl).g = 0.403E-04      g.g   = 0.473E-04  gl.gl    = 0.399E-03
 g(Force)  = 0.473E-04   g(Stress)= 0.000E+00 ortho     = 0.698E-05
 gamma     =   0.10084
 trial     =   4.29177
 opt step  =  17.16707  (harmonic =  30.75726) maximal distance =0.00307990
 next E    =   -59.187311   (d E  =  -0.00074)


--------------------------------------------------------------------------------------------------------


    WAVPRE:  cpu time    0.12: real time    0.13
    FEWALD:  cpu time    0.00: real time    0.00
    ORTHCH:  cpu time    8.41: real time    8.41
     LOOP+:  cpu time  582.82: real time  582.94


----------------------------------------- Iteration    8(   1)  ---------------------------------------


    POTLOK:  cpu time    0.56: real time    0.56
    SETDIJ:  cpu time    0.07: real time    0.07
     EDDAV:  cpu time   58.78: real time   58.78
 BZINTS: Fermi energy:  0.022389;120.000000 electrons
         Band energy:-265.077274;  BLOECHL correction: -0.027000
       DOS:  cpu time    0.04: real time    0.04
    CHARGE:  cpu time    1.73: real time    1.73
    MIXING:  cpu time    0.02: real time    0.02
    --------------------------------------------
      LOOP:  cpu time   61.20: real time   61.20

 eigenvalue-minimisations  :  1440
 total energy-change (2. order) : 0.3353561E-03  (-0.2593809E-01)
 number of electron     120.0000449 magnetization 
 augmentation part       50.8235947 magnetization 

 Broyden mixing:
  rms(total) = 0.72149E-02    rms(broyden)= 0.72121E-02
  rms(prec ) = 0.84097E-02
  weight for this iteration     100.00

 Free energy of the ion-electron system (eV)
  ---------------------------------------------------
  alpha Z        PSCENC =       574.70065014
  Ewald energy   TEWEN  =     22961.81379480
  -1/2 Hartree   DENC   =    -33420.42190607
  -exchange  EXHF       =         0.00000000
  -V(xc)+E(xc)   XCENC  =      -356.30385922
  PAW double counting   =      8303.88326421    -7574.73610847
  entropy T*S    EENTRO =         0.00000000
  eigenvalues    EBANDS =      -265.07727351
  atomic energy  EATOM  =      9716.95502315
  ---------------------------------------------------
  free energy    TOTEN  =       -59.18641497 eV

  energy without entropy =      -59.18641497  energy(sigma->0) =      -59.18641497


--------------------------------------------------------------------------------------------------------




----------------------------------------- Iteration    8(   2)  ---------------------------------------


    POTLOK:  cpu time    0.55: real time    0.55
    SETDIJ:  cpu time    0.07: real time    0.07
     EDDAV:  cpu time   80.28: real time   80.29
 BZINTS: Fermi energy:  0.027700;120.000000 electrons
         Band energy:-264.496284;  BLOECHL correction: -0.027576
       DOS:  cpu time    0.04: real time    0.04
    CHARGE:  cpu time    1.75: real time    1.75
    MIXING:  cpu time    0.02: real time    0.02
    --------------------------------------------
      LOOP:  cpu time   82.72: real time   82.73

 eigenvalue-minimisations  :  2136
 total energy-change (2. order) :-0.1318513E-02  (-0.1025930E-02)
 number of electron     120.0000449 magnetization 
 augmentation part       50.8197415 magnetization 

 Broyden mixing:
  rms(total) = 0.20715E-01    rms(broyden)= 0.20714E-01
  rms(prec ) = 0.31019E-01
  weight for this iteration     100.00

 eigenvalues of (default mixing * dielectric matrix)
  average eigenvalue GAMMA=   0.2252
  0.2252

 Free energy of the ion-electron system (eV)
  ---------------------------------------------------
  alpha Z        PSCENC =       574.70065014
  Ewald energy   TEWEN  =     22961.81379480
  -1/2 Hartree   DENC   =    -33420.98985380
  -exchange  EXHF       =         0.00000000
  -V(xc)+E(xc)   XCENC  =      -356.30611339
  PAW double counting   =      8304.05877178    -7574.92372254
  entropy T*S    EENTRO =         0.00000000
  eigenvalues    EBANDS =      -264.49628361
  atomic energy  EATOM  =      9716.95502315
  ---------------------------------------------------
  free energy    TOTEN  =       -59.18773348 eV

  energy without entropy =      -59.18773348  energy(sigma->0) =      -59.18773348


--------------------------------------------------------------------------------------------------------




----------------------------------------- Iteration    8(   3)  ---------------------------------------


    POTLOK:  cpu time    0.56: real time    0.55
    SETDIJ:  cpu time    0.07: real time    0.07
     EDDAV:  cpu time   70.95: real time   70.95
 BZINTS: Fermi energy:  0.021859;120.000000 electrons
         Band energy:-265.114515;  BLOECHL correction: -0.026808
       DOS:  cpu time    0.04: real time    0.04
    CHARGE:  cpu time    1.71: real time    1.71
    MIXING:  cpu time    0.02: real time    0.02
    --------------------------------------------
      LOOP:  cpu time   73.34: real time   73.35

 eigenvalue-minimisations  :  1832
 total energy-change (2. order) : 0.5357674E-03  (-0.2676881E-03)
 number of electron     120.0000449 magnetization 
 augmentation part       50.8246571 magnetization 

 Broyden mixing:
  rms(total) = 0.14052E-01    rms(broyden)= 0.14049E-01
  rms(prec ) = 0.19694E-01
  weight for this iteration     100.00

 eigenvalues of (default mixing * dielectric matrix)
  average eigenvalue GAMMA=   0.2566
  0.1067  0.4066

 Free energy of the ion-electron system (eV)
  ---------------------------------------------------
  alpha Z        PSCENC =       574.70065014
  Ewald energy   TEWEN  =     22961.81379480
  -1/2 Hartree   DENC   =    -33420.37017653
  -exchange  EXHF       =         0.00000000
  -V(xc)+E(xc)   XCENC  =      -356.30565086
  PAW double counting   =      8304.02791401    -7574.89423730
  entropy T*S    EENTRO =         0.00000000
  eigenvalues    EBANDS =      -265.11451512
  atomic energy  EATOM  =      9716.95502315
  ---------------------------------------------------
  free energy    TOTEN  =       -59.18719771 eV

  energy without entropy =      -59.18719771  energy(sigma->0) =      -59.18719771


--------------------------------------------------------------------------------------------------------




----------------------------------------- Iteration    8(   4)  ---------------------------------------


    POTLOK:  cpu time    0.55: real time    0.55
    SETDIJ:  cpu time    0.07: real time    0.07
     EDDAV:  cpu time   78.66: real time   78.68
 BZINTS: Fermi energy:  0.022675;120.000000 electrons
         Band energy:-265.033274;  BLOECHL correction: -0.027086
       DOS:  cpu time    0.04: real time    0.04
    CHARGE:  cpu time    1.70: real time    1.70
    MIXING:  cpu time    0.02: real time    0.02
    --------------------------------------------
      LOOP:  cpu time   81.05: real time   81.07

 eigenvalue-minimisations  :  2080
 total energy-change (2. order) : 0.9308500E-04  (-0.7267008E-04)
 number of electron     120.0000449 magnetization 
 augmentation part       50.8235663 magnetization 

 Broyden mixing:
  rms(total) = 0.55410E-02    rms(broyden)= 0.55385E-02
  rms(prec ) = 0.61077E-02
  weight for this iteration     100.00

 eigenvalues of (default mixing * dielectric matrix)
  average eigenvalue GAMMA=   0.2536
  0.3271  0.3271  0.1068

 Free energy of the ion-electron system (eV)
  ---------------------------------------------------
  alpha Z        PSCENC =       574.70065014
  Ewald energy   TEWEN  =     22961.81379480
  -1/2 Hartree   DENC   =    -33420.44988472
  -exchange  EXHF       =         0.00000000
  -V(xc)+E(xc)   XCENC  =      -356.30547675
  PAW double counting   =      8304.06165875    -7574.92959628
  entropy T*S    EENTRO =         0.00000000
  eigenvalues    EBANDS =      -265.03327371
  atomic energy  EATOM  =      9716.95502315
  ---------------------------------------------------
  free energy    TOTEN  =       -59.18710463 eV

  energy without entropy =      -59.18710463  energy(sigma->0) =      -59.18710463


--------------------------------------------------------------------------------------------------------




----------------------------------------- Iteration    8(   5)  ---------------------------------------


    POTLOK:  cpu time    0.55: real time    0.55
    SETDIJ:  cpu time    0.07: real time    0.07
     EDDAV:  cpu time   76.90: real time   76.91
 BZINTS: Fermi energy:  0.022851;120.000000 electrons
         Band energy:-265.020265;  BLOECHL correction: -0.027059
       DOS:  cpu time    0.04: real time    0.04
    CHARGE:  cpu time    1.73: real time    1.74
    MIXING:  cpu time    0.02: real time    0.02
    --------------------------------------------
      LOOP:  cpu time   79.32: real time   79.33

 eigenvalue-minimisations  :  2024
 total energy-change (2. order) : 0.4693031E-04  (-0.8841471E-05)
 number of electron     120.0000449 magnetization 
 augmentation part       50.8235432 magnetization 

 Broyden mixing:
  rms(total) = 0.36261E-02    rms(broyden)= 0.36258E-02
  rms(prec ) = 0.39191E-02
  weight for this iteration     100.00

 eigenvalues of (default mixing * dielectric matrix)
  average eigenvalue GAMMA=   0.6664
  1.1562  1.1562  0.1056  0.2476

 Free energy of the ion-electron system (eV)
  ---------------------------------------------------
  alpha Z        PSCENC =       574.70065014
  Ewald energy   TEWEN  =     22961.81379480
  -1/2 Hartree   DENC   =    -33420.46189535
  -exchange  EXHF       =         0.00000000
  -V(xc)+E(xc)   XCENC  =      -356.30553711
  PAW double counting   =      8304.09278839    -7574.96161686
  entropy T*S    EENTRO =         0.00000000
  eigenvalues    EBANDS =      -265.02026486
  atomic energy  EATOM  =      9716.95502315
  ---------------------------------------------------
  free energy    TOTEN  =       -59.18705770 eV

  energy without entropy =      -59.18705770  energy(sigma->0) =      -59.18705770


--------------------------------------------------------------------------------------------------------




----------------------------------------- Iteration    8(   6)  ---------------------------------------


    POTLOK:  cpu time    0.55: real time    0.55
    SETDIJ:  cpu time    0.07: real time    0.07
     EDDAV:  cpu time   68.22: real time   68.23
 BZINTS: Fermi energy:  0.022749;120.000000 electrons
         Band energy:-265.040656;  BLOECHL correction: -0.027068
       DOS:  cpu time    0.04: real time    0.04
    CHARGE:  cpu time    1.74: real time    1.75
    MIXING:  cpu time    0.02: real time    0.02
    --------------------------------------------
      LOOP:  cpu time   70.66: real time   70.67

 eigenvalue-minimisations  :  1744
 total energy-change (2. order) : 0.1592686E-04  (-0.9608450E-05)
 number of electron     120.0000449 magnetization 
 augmentation part       50.8233551 magnetization 

 Broyden mixing:
  rms(total) = 0.15142E-02    rms(broyden)= 0.15141E-02
  rms(prec ) = 0.16646E-02
  weight for this iteration     100.00

 eigenvalues of (default mixing * dielectric matrix)
  average eigenvalue GAMMA=   0.9033
  2.6077  0.1056  0.2543  0.7744  0.7744

 Free energy of the ion-electron system (eV)
  ---------------------------------------------------
  alpha Z        PSCENC =       574.70065014
  Ewald energy   TEWEN  =     22961.81379480
  -1/2 Hartree   DENC   =    -33420.43757323
  -exchange  EXHF       =         0.00000000
  -V(xc)+E(xc)   XCENC  =      -356.30519307
  PAW double counting   =      8304.24554987    -7575.11863725
  entropy T*S    EENTRO =         0.00000000
  eigenvalues    EBANDS =      -265.04065618
  atomic energy  EATOM  =      9716.95502315
  ---------------------------------------------------
  free energy    TOTEN  =       -59.18704177 eV

  energy without entropy =      -59.18704177  energy(sigma->0) =      -59.18704177


--------------------------------------------------------------------------------------------------------




----------------------------------------- Iteration    8(   7)  ---------------------------------------


    POTLOK:  cpu time    0.55: real time    0.55
    SETDIJ:  cpu time    0.07: real time    0.07
     EDDAV:  cpu time   79.22: real time   79.23
 BZINTS: Fermi energy:  0.022546;120.000000 electrons
         Band energy:-265.062344;  BLOECHL correction: -0.027058
       DOS:  cpu time    0.04: real time    0.04
    CHARGE:  cpu time    1.70: real time    1.70
    MIXING:  cpu time    0.02: real time    0.02
    --------------------------------------------
      LOOP:  cpu time   81.61: real time   81.62

 eigenvalue-minimisations  :  2096
 total energy-change (2. order) :-0.1592656E-05  (-0.4378740E-05)
 number of electron     120.0000449 magnetization 
 augmentation part       50.8234456 magnetization 

 Broyden mixing:
  rms(total) = 0.69922E-03    rms(broyden)= 0.69902E-03
  rms(prec ) = 0.75062E-03
  weight for this iteration     100.00

 eigenvalues of (default mixing * dielectric matrix)
  average eigenvalue GAMMA=   0.9095
  2.4514  0.9502  0.9502  0.1056  0.2537  0.7462

 Free energy of the ion-electron system (eV)
  ---------------------------------------------------
  alpha Z        PSCENC =       574.70065014
  Ewald energy   TEWEN  =     22961.81379480
  -1/2 Hartree   DENC   =    -33420.41076907
  -exchange  EXHF       =         0.00000000
  -V(xc)+E(xc)   XCENC  =      -356.30519681
  PAW double counting   =      8304.37367740    -7575.25187854
  entropy T*S    EENTRO =         0.00000000
  eigenvalues    EBANDS =      -265.06234443
  atomic energy  EATOM  =      9716.95502315
  ---------------------------------------------------
  free energy    TOTEN  =       -59.18704336 eV

  energy without entropy =      -59.18704336  energy(sigma->0) =      -59.18704336


--------------------------------------------------------------------------------------------------------




----------------------------------------- Iteration    8(   8)  ---------------------------------------


    POTLOK:  cpu time    0.55: real time    0.55
    SETDIJ:  cpu time    0.07: real time    0.07
     EDDAV:  cpu time   40.22: real time   40.23
 BZINTS: Fermi energy:  0.022502;120.000000 electrons
         Band energy:-265.066395;  BLOECHL correction: -0.027060
       DOS:  cpu time    0.04: real time    0.04
    --------------------------------------------
      LOOP:  cpu time   40.88: real time   40.89

 eigenvalue-minimisations  :   832
 total energy-change (2. order) : 0.6079754E-06  (-0.1783086E-06)
 number of electron     120.0000449 magnetization 
 augmentation part       50.8234456 magnetization 

 Free energy of the ion-electron system (eV)
  ---------------------------------------------------
  alpha Z        PSCENC =       574.70065014
  Ewald energy   TEWEN  =     22961.81379480
  -1/2 Hartree   DENC   =    -33420.40669363
  -exchange  EXHF       =         0.00000000
  -V(xc)+E(xc)   XCENC  =      -356.30533053
  PAW double counting   =      8304.35639277    -7575.23448410
  entropy T*S    EENTRO =         0.00000000
  eigenvalues    EBANDS =      -265.06639536
  atomic energy  EATOM  =      9716.95502315
  ---------------------------------------------------
  free energy    TOTEN  =       -59.18704276 eV

  energy without entropy =      -59.18704276  energy(sigma->0) =      -59.18704276


--------------------------------------------------------------------------------------------------------




 average (electrostatic) potential at core
  the test charge radii are     1.1199
  (the norm of the test charge is              1.0000)
       1 -51.0518       2 -51.5347       3 -51.5136       4 -51.0518       5 -51.5347
       6 -51.5136       7 -51.5136       8 -51.5347       9 -51.0518      10 -51.5136
      11 -51.5347      12 -51.0518
 
 
 
 E-fermi :   0.0225     XC(G=0):  -7.7997     alpha+bet : -6.1545


 k-point   1 :       0.0000    0.0000    0.0000
  band No.  band energies     occupation 
      1      -6.4781      2.00000
      2      -5.6868      2.00000
      3      -4.8479      2.00000
      4      -4.7975      2.00000
      5      -4.7975      2.00000
      6      -4.7778      2.00000
      7      -4.6095      2.00000
      8      -4.5474      2.00000
      9      -4.5474      2.00000
     10      -4.3286      2.00000
     11      -4.3286      2.00000
     12      -4.3234      2.00000
     13      -4.2812      2.00000
     14      -4.1314      2.00000
     15      -4.0281      2.00000
     16      -4.0281      2.00000
     17      -3.8328      2.00000
     18      -3.7295      2.00000
     19      -3.7295      2.00000
     20      -3.3215      2.00000
     21      -3.2259      2.00000
     22      -3.2259      2.00000
     23      -2.8794      2.00000
     24      -2.6671      2.00000
     25      -2.4672      2.00000
     26      -2.4672      2.00000
     27      -2.1864      2.00000
     28      -2.1864      2.00000
     29      -2.0575      2.00000
     30      -2.0575      2.00000
     31      -1.5877      2.00000
     32      -1.4523      2.00000
     33      -1.4523      2.00000
     34      -1.4043      2.00000
     35      -1.1561      2.00000
     36      -1.0484      2.00000
     37      -1.0484      2.00000
     38      -1.0387      2.00000
     39      -1.0289      2.00000
     40      -0.9153      2.00000
     41      -0.9153      2.00000
     42      -0.8155      2.00000
     43      -0.7440      2.00000
     44      -0.7440      2.00000
     45      -0.5530      2.00000
     46      -0.4153      2.00000
     47      -0.4153      2.00000
     48      -0.2750      2.00000
     49      -0.1229      2.00000
     50      -0.1229      2.00000
     51      -0.0941      2.00000
     52      -0.0940      2.00000
     53      -0.0898      2.00000
     54      -0.0898      2.00000
     55      -0.0148      2.00000
     56       0.0341      1.84686
     57       0.2072      0.00869
     58       0.2072     -0.63264
     59       0.2800      0.00000
     60       0.2800      0.00000
     61       0.3214      0.00000
     62       0.3215      0.00000
     63       0.3851      0.00000
     64       0.6127      0.00000
     65       0.6127      0.00000
     66       1.9752      0.00000
     67       2.9797      0.00000
     68       4.0504      0.00000
     69       4.0504      0.00000
     70       5.1755      0.00000
     71       5.5083      0.00000
     72       5.5083      0.00000

 k-point   2 :       0.1429    0.0000    0.0000
  band No.  band energies     occupation 
      1      -6.2486      2.00000
      2      -5.4793      2.00000
      3      -4.6948      2.00000
      4      -4.6865      2.00000
      5      -4.6634      2.00000
      6      -4.5983      2.00000
      7      -4.4803      2.00000
      8      -4.4629      2.00000
      9      -4.4605      2.00000
     10      -4.2067      2.00000
     11      -4.1722      2.00000
     12      -4.1668      2.00000
     13      -4.1591      2.00000
     14      -3.9716      2.00000
     15      -3.9611      2.00000
     16      -3.9526      2.00000
     17      -3.7428      2.00000
     18      -3.5950      2.00000
     19      -3.5788      2.00000
     20      -3.2638      2.00000
     21      -3.2325      2.00000
     22      -3.1922      2.00000
     23      -2.8618      2.00000
     24      -2.5708      2.00000
     25      -2.4989      2.00000
     26      -2.3913      2.00000
     27      -2.2950      2.00000
     28      -2.2120      2.00000
     29      -2.1858      2.00000
     30      -2.0879      2.00000
     31      -1.9728      2.00000
     32      -1.5424      2.00000
     33      -1.4798      2.00000
     34      -1.3201      2.00000
     35      -1.2945      2.00000
     36      -1.2493      2.00000
     37      -1.1785      2.00000
     38      -1.1433      2.00000
     39      -1.0264      2.00000
     40      -1.0257      2.00000
     41      -0.9456      2.00000
     42      -0.8695      2.00000
     43      -0.7668      2.00000
     44      -0.6503      2.00000
     45      -0.5918      2.00000
     46      -0.5849      2.00000
     47      -0.5165      2.00000
     48      -0.4925      2.00000
     49      -0.2884      2.00000
     50      -0.2722      2.00000
     51      -0.2474      2.00000
     52      -0.1743      2.00000
     53      -0.1389      2.00000
     54      -0.1375      2.00000
     55      -0.1282      2.00000
     56      -0.1145      2.02087
     57      -0.1026      1.96280
     58      -0.0035      1.70143
     59       0.0696      0.42639
     60       0.0849      0.02502
     61       0.1234     -0.03939
     62       0.2014      0.00000
     63       0.3365      0.00000
     64       0.3846      0.00000
     65       1.0376      0.00000
     66       2.5427      0.00000
     67       2.9442      0.00000
     68       3.6454      0.00000
     69       4.2576      0.00000
     70       4.7862      0.00000
     71       5.4124      0.00000
     72       5.7514      0.00000

 k-point   3 :       0.2857    0.0000    0.0000
  band No.  band energies     occupation 
      1      -5.6046      2.00000
      2      -4.9082      2.00000
      3      -4.4151      2.00000
      4      -4.3142      2.00000
      5      -4.2931      2.00000
      6      -4.2208      2.00000
      7      -4.1682      2.00000
      8      -4.1229      2.00000
      9      -4.0969      2.00000
     10      -3.8914      2.00000
     11      -3.8341      2.00000
     12      -3.7907      2.00000
     13      -3.7805      2.00000
     14      -3.7734      2.00000
     15      -3.7431      2.00000
     16      -3.5000      2.00000
     17      -3.4801      2.00000
     18      -3.2895      2.00000
     19      -3.2216      2.00000
     20      -3.1744      2.00000
     21      -3.1716      2.00000
     22      -3.1147      2.00000
     23      -3.0409      2.00000
     24      -2.5225      2.00000
     25      -2.4996      2.00000
     26      -2.3520      2.00000
     27      -2.3446      2.00000
     28      -2.3224      2.00000
     29      -2.3173      2.00000
     30      -2.1941      2.00000
     31      -2.0924      2.00000
     32      -2.0565      2.00000
     33      -1.7541      2.00000
     34      -1.6992      2.00000
     35      -1.5925      2.00000
     36      -1.5601      2.00000
     37      -1.5193      2.00000
     38      -1.3919      2.00000
     39      -1.3367      2.00000
     40      -1.2548      2.00000
     41      -1.1220      2.00000
     42      -1.0173      2.00000
     43      -0.9006      2.00000
     44      -0.8503      2.00000
     45      -0.8497      2.00000
     46      -0.8486      2.00000
     47      -0.8403      2.00000
     48      -0.8180      2.00000
     49      -0.7401      2.00000
     50      -0.6670      2.00000
     51      -0.5607      2.00000
     52      -0.5054      2.00000
     53      -0.4739      2.00000
     54      -0.4538      2.00000
     55      -0.4212      2.00000
     56      -0.4114      2.00000
     57      -0.2842      2.00000
     58      -0.2788      2.00000
     59      -0.1788      2.16252
     60      -0.0821      2.20757
     61      -0.0657      1.93843
     62       0.1798      0.00000
     63       0.1867      0.00000
     64       0.7459      0.00000
     65       1.0398      0.00000
     66       2.1253      0.00000
     67       2.2578      0.00000
     68       3.5999      0.00000
     69       3.6821      0.00000
     70       4.8988      0.00000
     71       5.0327      0.00000
     72       6.1546      0.00000

 k-point   4 :       0.4286    0.0000    0.0000
  band No.  band energies     occupation 
      1      -4.7499      2.00000
      2      -4.2605      2.00000
      3      -4.1733      2.00000
      4      -3.9149      2.00000
      5      -3.8748      2.00000
      6      -3.8563      2.00000
      7      -3.7081      2.00000
      8      -3.6983      2.00000
      9      -3.5978      2.00000
     10      -3.5095      2.00000
     11      -3.5018      2.00000
     12      -3.4766      2.00000
     13      -3.4338      2.00000
     14      -3.3913      2.00000
     15      -3.3830      2.00000
     16      -3.3386      2.00000
     17      -3.2553      2.00000
     18      -3.2389      2.00000
     19      -3.2055      2.00000
     20      -3.1801      2.00000
     21      -3.0790      2.00000
     22      -2.8809      2.00000
     23      -2.8358      2.00000
     24      -2.7883      2.00000
     25      -2.7473      2.00000
     26      -2.7283      2.00000
     27      -2.6455      2.00000
     28      -2.5151      2.00000
     29      -2.3759      2.00000
     30      -2.3071      2.00000
     31      -2.0790      2.00000
     32      -2.0582      2.00000
     33      -1.9766      2.00000
     34      -1.9687      2.00000
     35      -1.6918      2.00000
     36      -1.6832      2.00000
     37      -1.5989      2.00000
     38      -1.4773      2.00000
     39      -1.4749      2.00000
     40      -1.4136      2.00000
     41      -1.4042      2.00000
     42      -1.3956      2.00000
     43      -1.3349      2.00000
     44      -1.3263      2.00000
     45      -1.2754      2.00000
     46      -1.2070      2.00000
     47      -1.0908      2.00000
     48      -1.0547      2.00000
     49      -1.0393      2.00000
     50      -0.9907      2.00000
     51      -0.9565      2.00000
     52      -0.9527      2.00000
     53      -0.8385      2.00000
     54      -0.8079      2.00000
     55      -0.6978      2.00000
     56      -0.6849      2.00000
     57      -0.6159      2.00000
     58      -0.2876      2.00000
     59      -0.2206      2.00000
     60      -0.2205      2.00000
     61      -0.1700      2.10147
     62       0.1583      0.00000
     63       0.1693      0.00000
     64       0.6577      0.00000
     65       0.6782      0.00000
     66       1.8441      0.00000
     67       1.8573      0.00000
     68       3.2357      0.00000
     69       3.3806      0.00000
     70       4.8255      0.00000
     71       5.0014      0.00000
     72       6.2056      0.00000

 k-point   5 :       0.1429    0.1429    0.0000
  band No.  band energies     occupation 
      1      -6.0336      2.00000
      2      -5.3072      2.00000
      3      -4.6056      2.00000
      4      -4.5540      2.00000
      5      -4.5539      2.00000
      6      -4.5165      2.00000
      7      -4.3877      2.00000
      8      -4.3877      2.00000
      9      -4.3084      2.00000
     10      -4.1285      2.00000
     11      -4.0511      2.00000
     12      -4.0511      2.00000
     13      -3.9601      2.00000
     14      -3.9367      2.00000
     15      -3.9348      2.00000
     16      -3.9348      2.00000
     17      -3.4878      2.00000
     18      -3.4479      2.00000
     19      -3.4479      2.00000
     20      -3.2290      2.00000
     21      -3.2290      2.00000
     22      -3.1113      2.00000
     23      -2.8142      2.00000
     24      -2.4910      2.00000
     25      -2.4841      2.00000
     26      -2.3688      2.00000
     27      -2.2852      2.00000
     28      -2.2483      2.00000
     29      -2.2483      2.00000
     30      -2.1430      2.00000
     31      -2.0899      2.00000
     32      -1.6720      2.00000
     33      -1.6656      2.00000
     34      -1.3629      2.00000
     35      -1.3629      2.00000
     36      -1.2842      2.00000
     37      -1.2330      2.00000
     38      -1.1479      2.00000
     39      -1.0746      2.00000
     40      -1.0733      2.00000
     41      -1.0438      2.00000
     42      -1.0438      2.00000
     43      -0.9651      2.00000
     44      -0.8829      2.00000
     45      -0.6782      2.00000
     46      -0.6782      2.00000
     47      -0.6024      2.00000
     48      -0.6020      2.00000
     49      -0.5217      2.00000
     50      -0.5217      2.00000
     51      -0.4532      2.00000
     52      -0.4124      2.00000
     53      -0.4124      2.00000
     54      -0.1922      2.00000
     55      -0.1138      2.00000
     56      -0.0646      2.00514
     57      -0.0646      1.95214
     58      -0.0395      1.91627
     59       0.0415      0.99233
     60       0.0415      0.31305
     61       0.0957      0.01049
     62       0.1914      0.00000
     63       0.2413      0.00000
     64       0.2413      0.00000
     65       1.3809      0.00000
     66       2.9603      0.00000
     67       3.6290      0.00000
     68       3.6290      0.00000
     69       4.1554      0.00000
     70       4.7421      0.00000
     71       4.7421      0.00000
     72       5.6562      0.00000

 k-point   6 :       0.2857    0.1429    0.0000
  band No.  band energies     occupation 
      1      -5.4369      2.00000
      2      -4.8594      2.00000
      3      -4.3138      2.00000
      4      -4.3064      2.00000
      5      -4.2985      2.00000
      6      -4.2197      2.00000
      7      -4.1952      2.00000
      8      -4.1336      2.00000
      9      -3.9001      2.00000
     10      -3.8825      2.00000
     11      -3.8665      2.00000
     12      -3.8487      2.00000
     13      -3.8110      2.00000
     14      -3.7352      2.00000
     15      -3.6733      2.00000
     16      -3.5030      2.00000
     17      -3.2455      2.00000
     18      -3.1763      2.00000
     19      -3.1141      2.00000
     20      -3.0805      2.00000
     21      -2.9941      2.00000
     22      -2.9039      2.00000
     23      -2.7821      2.00000
     24      -2.4789      2.00000
     25      -2.3769      2.00000
     26      -2.3104      2.00000
     27      -2.2978      2.00000
     28      -2.2674      2.00000
     29      -2.2496      2.00000
     30      -2.2071      2.00000
     31      -2.1536      2.00000
     32      -2.0928      2.00000
     33      -1.8931      2.00000
     34      -1.8097      2.00000
     35      -1.7200      2.00000
     36      -1.5811      2.00000
     37      -1.5643      2.00000
     38      -1.4818      2.00000
     39      -1.3946      2.00000
     40      -1.3666      2.00000
     41      -1.2242      2.00000
     42      -1.2049      2.00000
     43      -1.2036      2.00000
     44      -1.1806      2.00000
     45      -1.0820      2.00000
     46      -0.9903      2.00000
     47      -0.9235      2.00000
     48      -0.8857      2.00000
     49      -0.8513      2.00000
     50      -0.7991      2.00000
     51      -0.6676      2.00000
     52      -0.5788      2.00000
     53      -0.4735      2.00000
     54      -0.4517      2.00000
     55      -0.3508      2.00000
     56      -0.1973      2.00000
     57      -0.1119      2.00000
     58      -0.0981      2.00000
     59      -0.0933      2.07471
     60       0.0124      1.76730
     61       0.0594      0.33408
     62       0.1020      0.00000
     63       0.1122      0.00000
     64       0.7418      0.00000
     65       1.6992      0.00000
     66       2.2794      0.00000
     67       2.6183      0.00000
     68       3.7927      0.00000
     69       3.9369      0.00000
     70       4.9654      0.00000
     71       5.1014      0.00000
     72       5.2225      0.00000

 k-point   7 :       0.4286    0.1429    0.0000
  band No.  band energies     occupation 
      1      -4.6645      2.00000
      2      -4.3562      2.00000
      3      -4.2102      2.00000
      4      -4.0780      2.00000
      5      -4.0572      2.00000
      6      -3.9071      2.00000
      7      -3.8784      2.00000
      8      -3.8735      2.00000
      9      -3.7176      2.00000
     10      -3.7047      2.00000
     11      -3.6483      2.00000
     12      -3.5322      2.00000
     13      -3.4292      2.00000
     14      -3.3972      2.00000
     15      -3.2693      2.00000
     16      -3.2256      2.00000
     17      -3.1501      2.00000
     18      -3.1416      2.00000
     19      -2.9656      2.00000
     20      -2.9049      2.00000
     21      -2.8120      2.00000
     22      -2.7393      2.00000
     23      -2.6592      2.00000
     24      -2.6297      2.00000
     25      -2.5912      2.00000
     26      -2.5033      2.00000
     27      -2.4720      2.00000
     28      -2.3756      2.00000
     29      -2.2985      2.00000
     30      -2.2599      2.00000
     31      -2.1963      2.00000
     32      -2.1104      2.00000
     33      -2.0158      2.00000
     34      -1.9986      2.00000
     35      -1.8213      2.00000
     36      -1.7752      2.00000
     37      -1.7728      2.00000
     38      -1.7506      2.00000
     39      -1.6727      2.00000
     40      -1.6533      2.00000
     41      -1.6317      2.00000
     42      -1.5286      2.00000
     43      -1.4369      2.00000
     44      -1.2935      2.00000
     45      -1.2735      2.00000
     46      -1.2254      2.00000
     47      -1.0621      2.00000
     48      -1.0094      2.00000
     49      -0.9054      2.00000
     50      -0.8235      2.00000
     51      -0.8086      2.00000
     52      -0.7917      2.00000
     53      -0.5821      2.00000
     54      -0.5132      2.00000
     55      -0.4451      2.00000
     56      -0.3576      2.00000
     57      -0.3356      2.00000
     58      -0.2980      2.00000
     59      -0.1391      2.00000
     60      -0.0620      2.00000
     61      -0.0082      1.91854
     62       0.0446      0.00000
     63       0.1776      0.00000
     64       0.6054      0.00000
     65       0.8247      0.00000
     66       1.8345      0.00000
     67       1.9028      0.00000
     68       3.2591      0.00000
     69       3.4577      0.00000
     70       4.8499      0.00000
     71       5.1527      0.00000
     72       6.2529      0.00000

 k-point   8 :       0.2857    0.2857    0.0000
  band No.  band energies     occupation 
      1      -5.0069      2.00000
      2      -4.7471      2.00000
      3      -4.4419      2.00000
      4      -4.2388      2.00000
      5      -4.2169      2.00000
      6      -4.2169      2.00000
      7      -4.0825      2.00000
      8      -4.0825      2.00000
      9      -3.9085      2.00000
     10      -3.8637      2.00000
     11      -3.7999      2.00000
     12      -3.7999      2.00000
     13      -3.4729      2.00000
     14      -3.3950      2.00000
     15      -3.3950      2.00000
     16      -3.1435      2.00000
     17      -3.1435      2.00000
     18      -3.1278      2.00000
     19      -2.8313      2.00000
     20      -2.8313      2.00000
     21      -2.8037      2.00000
     22      -2.6596      2.00000
     23      -2.4396      2.00000
     24      -2.2935      2.00000
     25      -2.2613      2.00000
     26      -2.2567      2.00000
     27      -2.2315      2.00000
     28      -2.2315      2.00000
     29      -2.2204      2.00000
     30      -2.1978      2.00000
     31      -2.0780      2.00000
     32      -2.0780      2.00000
     33      -2.0258      2.00000
     34      -1.9798      2.00000
     35      -1.9625      2.00000
     36      -1.7835      2.00000
     37      -1.7835      2.00000
     38      -1.7652      2.00000
     39      -1.6575      2.00000
     40      -1.6575      2.00000
     41      -1.6080      2.00000
     42      -1.5733      2.00000
     43      -1.3599      2.00000
     44      -1.3128      2.00000
     45      -1.3127      2.00000
     46      -1.2919      2.00000
     47      -0.8831      2.00000
     48      -0.7477      2.00000
     49      -0.7477      2.00000
     50      -0.7289      2.00000
     51      -0.6672      2.00000
     52      -0.5951      2.00000
     53      -0.4093      2.00000
     54      -0.4093      2.00000
     55      -0.4051      2.00000
     56      -0.2694      2.00000
     57      -0.0532      2.00000
     58      -0.0139      2.00000
     59      -0.0139      1.99555
     60       0.0080      1.99165
     61       0.0493      0.00742
     62       0.0493      0.00000
     63       0.0886      0.00000
     64       0.9820      0.00000
     65       2.7915      0.00000
     66       2.8778      0.00000
     67       2.8778      0.00000
     68       3.4455      0.00000
     69       3.4455      0.00000
     70       4.0402      0.00000
     71       4.0402      0.00000
     72       4.5920      0.00000

 k-point   9 :       0.4286    0.2857    0.0000
  band No.  band energies     occupation 
      1      -4.6184      2.00000
      2      -4.6069      2.00000
      3      -4.4268      2.00000
      4      -4.4225      2.00000
      5      -4.3100      2.00000
      6      -4.1118      2.00000
      7      -4.0544      2.00000
      8      -4.0413      2.00000
      9      -3.6961      2.00000
     10      -3.6619      2.00000
     11      -3.5716      2.00000
     12      -3.4551      2.00000
     13      -3.3382      2.00000
     14      -3.2262      2.00000
     15      -3.0635      2.00000
     16      -3.0400      2.00000
     17      -2.9681      2.00000
     18      -2.8551      2.00000
     19      -2.8079      2.00000
     20      -2.6877      2.00000
     21      -2.6646      2.00000
     22      -2.6626      2.00000
     23      -2.6315      2.00000
     24      -2.5041      2.00000
     25      -2.4836      2.00000
     26      -2.4096      2.00000
     27      -2.3885      2.00000
     28      -2.3793      2.00000
     29      -2.2742      2.00000
     30      -2.1594      2.00000
     31      -2.1166      2.00000
     32      -2.0888      2.00000
     33      -2.0824      2.00000
     34      -2.0405      2.00000
     35      -1.9919      2.00000
     36      -1.9379      2.00000
     37      -1.8381      2.00000
     38      -1.8013      2.00000
     39      -1.7335      2.00000
     40      -1.6258      2.00000
     41      -1.4475      2.00000
     42      -1.4445      2.00000
     43      -1.3681      2.00000
     44      -1.3449      2.00000
     45      -1.2643      2.00000
     46      -1.0133      2.00000
     47      -0.9301      2.00000
     48      -0.7457      2.00000
     49      -0.6867      2.00000
     50      -0.6488      2.00000
     51      -0.5960      2.00000
     52      -0.5399      2.00000
     53      -0.3393      2.00000
     54      -0.2396      2.00000
     55      -0.1758      2.00000
     56      -0.1577      2.00000
     57      -0.1531      2.00000
     58      -0.1396      2.00000
     59      -0.0661      2.00000
     60      -0.0629      2.00000
     61       0.0395      0.15693
     62       0.0506      0.00000
     63       0.4768      0.00000
     64       1.1637      0.00000
     65       1.4130      0.00000
     66       1.8390      0.00000
     67       2.0425      0.00000
     68       3.1161      0.00000
     69       3.5980      0.00000
     70       4.1083      0.00000
     71       4.1432      0.00000
     72       5.1331      0.00000

 k-point  10 :       0.4286    0.4286    0.0000
  band No.  band energies     occupation 
      1      -4.7309      2.00000
      2      -4.7248      2.00000
      3      -4.6684      2.00000
      4      -4.6684      2.00000
      5      -4.2772      2.00000
      6      -4.2274      2.00000
      7      -4.1859      2.00000
      8      -4.1859      2.00000
      9      -3.6093      2.00000
     10      -3.5987      2.00000
     11      -3.4930      2.00000
     12      -3.4930      2.00000
     13      -3.0062      2.00000
     14      -2.9405      2.00000
     15      -2.9405      2.00000
     16      -2.8914      2.00000
     17      -2.7977      2.00000
     18      -2.7977      2.00000
     19      -2.6683      2.00000
     20      -2.6459      2.00000
     21      -2.6233      2.00000
     22      -2.5980      2.00000
     23      -2.5980      2.00000
     24      -2.5337      2.00000
     25      -2.5337      2.00000
     26      -2.4702      2.00000
     27      -2.4700      2.00000
     28      -2.4651      2.00000
     29      -2.2653      2.00000
     30      -2.2653      2.00000
     31      -2.2095      2.00000
     32      -2.1422      2.00000
     33      -2.0839      2.00000
     34      -2.0752      2.00000
     35      -2.0402      2.00000
     36      -2.0402      2.00000
     37      -1.5879      2.00000
     38      -1.5601      2.00000
     39      -1.5200      2.00000
     40      -1.5200      2.00000
     41      -1.4344      2.00000
     42      -1.3677      2.00000
     43      -1.3677      2.00000
     44      -1.2763      2.00000
     45      -0.9478      2.00000
     46      -0.6465      2.00000
     47      -0.6465      2.00000
     48      -0.6095      2.00000
     49      -0.5764      2.00000
     50      -0.5560      2.00000
     51      -0.5560      2.00000
     52      -0.3682      2.00000
     53      -0.2103      2.00000
     54      -0.1739      2.00000
     55      -0.1739      2.00000
     56      -0.1556      2.00000
     57      -0.0759      2.00000
     58      -0.0592      2.00000
     59      -0.0592      2.00000
     60       0.0185      2.00000
     61       0.6572      0.00000
     62       0.8134      0.00000
     63       1.0611      0.00000
     64       1.9729      0.00000
     65       2.0194      0.00000
     66       2.0195      0.00000
     67       2.3176      0.00000
     68       2.3176      0.00000
     69       2.4321      0.00000
     70       2.4321      0.00000
     71       3.2786      0.00000
     72       3.6991      0.00000


--------------------------------------------------------------------------------------------------------


 soft charge-density along one line, spin component           1
         0         1         2         3         4         5         6         7         8         9
 total charge-density along one line
 
 pseudopotential strength for first ion, spin component:           1
-11.498   0.000   0.000   0.000   0.000   0.125   0.000   0.000
  0.000 -11.398   0.000   0.000   0.000   0.000   0.109   0.000
  0.000   0.000 -11.369   0.000   0.000   0.000   0.000   0.104
  0.000   0.000   0.000 -11.398   0.000   0.000   0.000   0.000
  0.000   0.000   0.000   0.000 -11.442   0.000   0.000   0.000
  0.125   0.000   0.000   0.000   0.000   0.321   0.000   0.000
  0.000   0.109   0.000   0.000   0.000   0.000   0.324   0.000
  0.000   0.000   0.104   0.000   0.000   0.000   0.000   0.324
  0.000   0.000   0.000   0.109   0.000   0.000   0.000   0.000
  0.000   0.000   0.000   0.000   0.117   0.000   0.000   0.000
  0.000   0.000  -0.021   0.000   0.000   0.000   0.000   0.003
  0.000   0.000   0.002   0.000   0.000   0.000   0.000   0.000
  0.000  -0.016   0.000   0.000   0.000   0.000   0.003   0.000
  0.000   0.000  -0.019   0.000   0.000   0.000   0.000   0.003
  0.000   0.000   0.000  -0.016   0.000   0.000   0.000   0.000
  0.000   0.013   0.000   0.000   0.000   0.000  -0.002   0.000
  0.000   0.000   0.015   0.000   0.000   0.000   0.000  -0.002
  0.000   0.000   0.000   0.013   0.000   0.000   0.000   0.000
 total augmentation occupancy for first ion, spin component:           1
  1.650   0.000   0.000   0.000   0.000   0.184   0.000   0.000   0.000   0.000   0.000   0.000   0.000   0.000   0.000   0.000
  0.000   1.824   0.000   0.000   0.000   0.000   0.082   0.000   0.000   0.000   0.000   0.000  -0.010   0.000   0.000  -0.021
  0.000   0.000   1.862   0.000   0.000   0.000   0.000   0.058   0.000   0.000   0.017  -0.045   0.000   0.008   0.000   0.000
  0.000   0.000   0.000   1.824   0.000   0.000   0.000   0.000   0.082   0.000   0.000   0.000   0.000   0.000  -0.010   0.000
  0.000   0.000   0.000   0.000   1.859   0.000   0.000   0.000   0.000   0.046   0.000   0.000   0.000   0.000   0.000   0.000
  0.184   0.000   0.000   0.000   0.000   0.104   0.000   0.000   0.000   0.000   0.000   0.000   0.000   0.000   0.000   0.000
  0.000   0.082   0.000   0.000   0.000   0.000   0.096   0.000   0.000   0.000   0.000   0.000   0.052   0.000   0.000  -0.002
  0.000   0.000   0.058   0.000   0.000   0.000   0.000   0.092   0.000   0.000  -0.082   0.020   0.000   0.037   0.000   0.000
  0.000   0.000   0.000   0.082   0.000   0.000   0.000   0.000   0.096   0.000   0.000   0.000   0.000   0.000   0.052   0.000
  0.000   0.000   0.000   0.000   0.046   0.000   0.000   0.000   0.000   0.101   0.000   0.000   0.000   0.000   0.000   0.000
  0.000   0.000   0.017   0.000   0.000   0.000   0.000  -0.082   0.000   0.000   0.959  -0.309   0.000   0.096   0.000   0.000
  0.000   0.000  -0.045   0.000   0.000   0.000   0.000   0.020   0.000   0.000  -0.309   0.114   0.000  -0.046   0.000   0.000
  0.000  -0.010   0.000   0.000   0.000   0.000   0.052   0.000   0.000   0.000   0.000   0.000   0.098   0.000   0.000  -0.002
  0.000   0.000   0.008   0.000   0.000   0.000   0.000   0.037   0.000   0.000   0.096  -0.046   0.000   0.060   0.000   0.000
  0.000   0.000   0.000  -0.010   0.000   0.000   0.000   0.000   0.052   0.000   0.000   0.000   0.000   0.000   0.098   0.000
  0.000  -0.021   0.000   0.000   0.000   0.000  -0.002   0.000   0.000   0.000   0.000   0.000  -0.002   0.000   0.000   0.000
  0.000   0.000  -0.028   0.000   0.000   0.000   0.000  -0.001   0.000   0.000  -0.005   0.002   0.000  -0.001   0.000   0.000
  0.000   0.000   0.000  -0.021   0.000   0.000   0.000   0.000  -0.002   0.000   0.000   0.000   0.000   0.000  -0.002   0.000


------------------------ aborting loop because EDIFF is reached ----------------------------------------


    CHARGE:  cpu time    1.71: real time    1.71
    FORLOC:  cpu time    0.06: real time    0.06
    FORNL :  cpu time   25.90: real time   25.90
    STRESS:  cpu time   69.14: real time   69.18
    FORCOR:  cpu time    0.59: real time    0.59
    FORHAR:  cpu time    0.19: real time    0.19
    MIXING:  cpu time    0.02: real time    0.02

  FORCE on cell =-STRESS in cart. coord.  units (eV):
  Direction    XX          YY          ZZ          XY          YZ          ZX
  --------------------------------------------------------------------------------------
  Alpha Z   574.70065   574.70065   574.70065
  Ewald   29544.16849 29544.16849-36126.53701     0.00000     0.00000     0.00000
  Hartree 32413.51386 32413.51386-31406.55243     0.00000     0.00000     0.00000
  E(xc)    -627.19295  -627.19295  -629.16325     0.00000     0.00000     0.00000
  Local  -63407.54187-63407.54187 66072.36968     0.00000     0.00000     0.00000
  n-local  -647.55019  -639.69368  -646.69497     8.99681     0.00000     0.00000
  augment   513.75770   513.75769   518.78634    -0.00006    -0.00004    -0.00005
  Kinetic  1639.00385  1616.15714  1642.26115     7.07107     0.00000     0.00000
  Fock        0.00000     0.00000     0.00000     0.00000     0.00000     0.00000
  -------------------------------------------------------------------------------------
  Total      -4.63557    -4.63557    -0.82984     0.00000     0.00000     0.00000
  in kB     -21.77125   -21.77125    -3.89737     0.00000     0.00000     0.00000
  external pressure =      -15.81 kB  Pullay stress =        0.00 kB


 VOLUME and BASIS-vectors are now :
 -----------------------------------------------------------------------------
  energy-cutoff  :      415.00
  volume of cell :      341.14
      direct lattice vectors                 reciprocal lattice vectors
     3.951020398  0.000000000  0.000000000     0.253099174  0.000000000  0.000000000
     0.000000000  3.951020398  0.000000000     0.000000000  0.253099174  0.000000000
     0.000000000  0.000000000 21.853061195     0.000000000  0.000000000  0.045760179

  length of vectors
     3.951020398  3.951020398 21.853061195     0.253099174  0.253099174  0.045760179


 FORCES acting on ions
    electron-ion (+dipol)            ewald-force                    non-local-force                 convergence-correction
 -----------------------------------------------------------------------------------------------
   0.150E-13 0.781E-14 0.261E+04   -.581E-14 -.386E-15 -.261E+04   -.711E-25 -.517E-25 -.179E+01   0.127E-13 0.146E-14 -.205E-01
   0.154E-13 -.268E-14 0.529E+03   0.145E-13 0.186E-14 -.529E+03   0.000E+00 0.000E+00 0.102E+00   -.406E-14 0.136E-13 0.203E-01
   -.139E-14 -.489E-13 -.159E+04   -.245E-14 0.876E-15 0.159E+04   0.116E-24 0.000E+00 -.171E+00   -.115E-13 0.138E-13 0.329E-02
   -.538E-13 0.136E-13 0.261E+04   -.325E-13 0.125E-13 -.261E+04   -.178E-25 0.000E+00 -.179E+01   0.995E-15 -.340E-14 -.205E-01
   -.700E-13 0.103E-12 0.529E+03   -.127E-13 0.166E-13 -.529E+03   0.000E+00 0.000E+00 0.102E+00   0.433E-14 0.415E-14 0.203E-01
   -.822E-13 0.823E-13 -.159E+04   -.300E-13 0.158E-13 0.159E+04   0.000E+00 0.000E+00 -.171E+00   0.483E-14 0.190E-13 0.329E-02
   -.788E-13 -.903E-14 0.159E+04   0.292E-13 -.161E-13 -.159E+04   0.000E+00 0.000E+00 0.171E+00   0.211E-13 0.875E-14 -.330E-02
   -.672E-13 0.426E-13 -.529E+03   0.118E-13 -.168E-13 0.529E+03   0.000E+00 0.000E+00 -.102E+00   0.111E-13 0.388E-13 -.203E-01
   -.797E-13 0.245E-14 -.261E+04   0.316E-13 -.128E-13 0.261E+04   0.452E-25 0.000E+00 0.179E+01   0.153E-13 0.236E-13 0.205E-01
   0.175E-13 0.149E-13 0.159E+04   0.157E-14 -.116E-14 -.159E+04   -.517E-25 0.000E+00 0.171E+00   0.160E-13 0.135E-13 -.330E-02
   0.100E-13 -.428E-13 -.529E+03   -.154E-13 -.215E-14 0.529E+03   0.000E+00 0.000E+00 -.102E+00   -.123E-13 0.213E-14 -.203E-01
   0.468E-14 -.292E-12 -.261E+04   0.493E-14 0.994E-16 0.261E+04   0.517E-25 0.000E+00 0.179E+01   0.129E-14 0.366E-13 0.205E-01
 -----------------------------------------------------------------------------------------------
   -.370E-12 -.129E-12 -.202E-03   -.523E-14 -.173E-14 -.182E-11   0.727E-25 -.517E-25 -.222E-15   0.597E-13 0.172E-12 -.413E-04
 
 
 POSITION                                       TOTAL-FORCE (eV/Angst)
 -----------------------------------------------------------------------------------
      0.00000      0.00000      0.01182         0.000000      0.000000      0.012775
      0.00000      0.00000      3.94944         0.000000      0.000000      0.004945
      0.00000      0.00000      7.90963         0.000000      0.000000     -0.013772
      1.97551      1.97551      0.01182         0.000000      0.000000      0.012775
      1.97551      1.97551      3.94944         0.000000      0.000000      0.004945
      1.97551      1.97551      7.90963         0.000000      0.000000     -0.013772
      1.97551      0.00000      1.96792         0.000000      0.000000      0.013772
      1.97551      0.00000      5.92811         0.000000      0.000000     -0.004945
      1.97551      0.00000      9.86573         0.000000      0.000000     -0.012775
      0.00000      1.97551      1.96792         0.000000      0.000000      0.013772
      0.00000      1.97551      5.92811         0.000000      0.000000     -0.004945
      0.00000      1.97551      9.86573         0.000000      0.000000     -0.012775
 -----------------------------------------------------------------------------------
    total drift:                                0.000000      0.000000     -0.000243


--------------------------------------------------------------------------------------------------------



  FREE ENERGIE OF THE ION-ELECTRON SYSTEM (eV)
  ---------------------------------------------------
  free  energy   TOTEN  =       -59.187043 eV

  energy  without entropy=      -59.187043  energy(sigma->0) =      -59.187043
 
 d Force = 0.3170405E-03[ 0.103E-03, 0.531E-03]  d Energy = 0.2914433E-03 0.256E-04
 d Force =-0.2273978E+02[-0.227E+02,-0.227E+02]  d Ewald  =-0.2273978E+02-0.119E-05


--------------------------------------------------------------------------------------------------------


    POTLOK:  cpu time    0.63: real time    0.63


--------------------------------------------------------------------------------------------------------




--------------------------------------------------------------------------------------------------------


    WAVPRE:  cpu time    0.13: real time    0.13
    FEWALD:  cpu time    0.00: real time    0.00
    ORTHCH:  cpu time    8.44: real time    8.44
     LOOP+:  cpu time  677.70: real time  677.82


----------------------------------------- Iteration    9(   1)  ---------------------------------------


    POTLOK:  cpu time    0.56: real time    0.55
    SETDIJ:  cpu time    0.07: real time    0.07
     EDDAV:  cpu time   58.79: real time   58.80
 BZINTS: Fermi energy:  0.022569;120.000000 electrons
         Band energy:-265.085581;  BLOECHL correction: -0.027040
       DOS:  cpu time    0.04: real time    0.04
    CHARGE:  cpu time    1.69: real time    1.69
    MIXING:  cpu time    0.02: real time    0.02
    --------------------------------------------
      LOOP:  cpu time   61.17: real time   61.18

 eigenvalue-minimisations  :  1440
 total energy-change (2. order) :-0.2395154E-04  (-0.9707384E-03)
 number of electron     120.0000449 magnetization 
 augmentation part       50.8234751 magnetization 

 Broyden mixing:
  rms(total) = 0.13157E-02    rms(broyden)= 0.13152E-02
  rms(prec ) = 0.15613E-02
  weight for this iteration     100.00

 Free energy of the ion-electron system (eV)
  ---------------------------------------------------
  alpha Z        PSCENC =       574.70065014
  Ewald energy   TEWEN  =     22969.33123135
  -1/2 Hartree   DENC   =    -33427.90772059
  -exchange  EXHF       =         0.00000000
  -V(xc)+E(xc)   XCENC  =      -356.30242789
  PAW double counting   =      8304.35891674    -7575.23715916
  entropy T*S    EENTRO =         0.00000000
  eigenvalues    EBANDS =      -265.08558105
  atomic energy  EATOM  =      9716.95502315
  ---------------------------------------------------
  free energy    TOTEN  =       -59.18706731 eV

  energy without entropy =      -59.18706731  energy(sigma->0) =      -59.18706731


--------------------------------------------------------------------------------------------------------




----------------------------------------- Iteration    9(   2)  ---------------------------------------


    POTLOK:  cpu time    0.55: real time    0.55
    SETDIJ:  cpu time    0.07: real time    0.07
     EDDAV:  cpu time   80.26: real time   80.26
 BZINTS: Fermi energy:  0.023660;120.000000 electrons
         Band energy:-264.966207;  BLOECHL correction: -0.027169
       DOS:  cpu time    0.04: real time    0.04
    CHARGE:  cpu time    1.77: real time    1.77
    MIXING:  cpu time    0.02: real time    0.02
    --------------------------------------------
      LOOP:  cpu time   82.71: real time   82.72

 eigenvalue-minimisations  :  2136
 total energy-change (2. order) :-0.8249734E-04  (-0.3881385E-04)
 number of electron     120.0000449 magnetization 
 augmentation part       50.8225729 magnetization 

 Broyden mixing:
  rms(total) = 0.48512E-02    rms(broyden)= 0.48508E-02
  rms(prec ) = 0.74771E-02
  weight for this iteration     100.00

 eigenvalues of (default mixing * dielectric matrix)
  average eigenvalue GAMMA=   0.1650
  0.1650

 Free energy of the ion-electron system (eV)
  ---------------------------------------------------
  alpha Z        PSCENC =       574.70065014
  Ewald energy   TEWEN  =     22969.33123135
  -1/2 Hartree   DENC   =    -33428.02459513
  -exchange  EXHF       =         0.00000000
  -V(xc)+E(xc)   XCENC  =      -356.30277607
  PAW double counting   =      8304.38919969    -7575.26967562
  entropy T*S    EENTRO =         0.00000000
  eigenvalues    EBANDS =      -264.96620732
  atomic energy  EATOM  =      9716.95502315
  ---------------------------------------------------
  free energy    TOTEN  =       -59.18714981 eV

  energy without entropy =      -59.18714981  energy(sigma->0) =      -59.18714981


--------------------------------------------------------------------------------------------------------




----------------------------------------- Iteration    9(   3)  ---------------------------------------


    POTLOK:  cpu time    0.55: real time    0.55
    SETDIJ:  cpu time    0.07: real time    0.07
     EDDAV:  cpu time   70.95: real time   70.96
 BZINTS: Fermi energy:  0.022604;120.000000 electrons
         Band energy:-265.078357;  BLOECHL correction: -0.027020
       DOS:  cpu time    0.04: real time    0.04
    CHARGE:  cpu time    1.73: real time    1.73
    MIXING:  cpu time    0.02: real time    0.02
    --------------------------------------------
      LOOP:  cpu time   73.37: real time   73.38

 eigenvalue-minimisations  :  1832
 total energy-change (2. order) : 0.6187360E-04  (-0.1027843E-04)
 number of electron     120.0000449 magnetization 
 augmentation part       50.8234462 magnetization 

 Broyden mixing:
  rms(total) = 0.19226E-02    rms(broyden)= 0.19218E-02
  rms(prec ) = 0.24462E-02
  weight for this iteration     100.00

 eigenvalues of (default mixing * dielectric matrix)
  average eigenvalue GAMMA=   0.2797
  0.1060  0.4533

 Free energy of the ion-electron system (eV)
  ---------------------------------------------------
  alpha Z        PSCENC =       574.70065014
  Ewald energy   TEWEN  =     22969.33123135
  -1/2 Hartree   DENC   =    -33427.91224244
  -exchange  EXHF       =         0.00000000
  -V(xc)+E(xc)   XCENC  =      -356.30272074
  PAW double counting   =      8304.38339082    -7575.26406321
  entropy T*S    EENTRO =         0.00000000
  eigenvalues    EBANDS =      -265.07835701
  atomic energy  EATOM  =      9716.95502315
  ---------------------------------------------------
  free energy    TOTEN  =       -59.18708794 eV

  energy without entropy =      -59.18708794  energy(sigma->0) =      -59.18708794


--------------------------------------------------------------------------------------------------------




----------------------------------------- Iteration    9(   4)  ---------------------------------------


    POTLOK:  cpu time    0.55: real time    0.55
    SETDIJ:  cpu time    0.08: real time    0.07
     EDDAV:  cpu time   58.79: real time   58.80
 BZINTS: Fermi energy:  0.022592;120.000000 electrons
         Band energy:-265.081897;  BLOECHL correction: -0.027055
       DOS:  cpu time    0.04: real time    0.04
    CHARGE:  cpu time    1.72: real time    1.73
    MIXING:  cpu time    0.02: real time    0.02
    --------------------------------------------
      LOOP:  cpu time   61.21: real time   61.22

 eigenvalue-minimisations  :  1440
 total energy-change (2. order) :-0.9180871E-05  (-0.1292705E-05)
 number of electron     120.0000449 magnetization 
 augmentation part       50.8233640 magnetization 

 Broyden mixing:
  rms(total) = 0.97296E-03    rms(broyden)= 0.97275E-03
  rms(prec ) = 0.10904E-02
  weight for this iteration     100.00

 eigenvalues of (default mixing * dielectric matrix)
  average eigenvalue GAMMA=   0.2597
  0.3372  0.3372  0.1047

 Free energy of the ion-electron system (eV)
  ---------------------------------------------------
  alpha Z        PSCENC =       574.70065014
  Ewald energy   TEWEN  =     22969.33123135
  -1/2 Hartree   DENC   =    -33427.90834810
  -exchange  EXHF       =         0.00000000
  -V(xc)+E(xc)   XCENC  =      -356.30271596
  PAW double counting   =      8304.38948491    -7575.27052525
  entropy T*S    EENTRO =         0.00000000
  eigenvalues    EBANDS =      -265.08189736
  atomic energy  EATOM  =      9716.95502315
  ---------------------------------------------------
  free energy    TOTEN  =       -59.18709712 eV

  energy without entropy =      -59.18709712  energy(sigma->0) =      -59.18709712


--------------------------------------------------------------------------------------------------------




----------------------------------------- Iteration    9(   5)  ---------------------------------------


    POTLOK:  cpu time    0.55: real time    0.55
    SETDIJ:  cpu time    0.08: real time    0.07
     EDDAV:  cpu time   39.08: real time   39.09
 BZINTS: Fermi energy:  0.022636;120.000000 electrons
         Band energy:-265.078172;  BLOECHL correction: -0.027055
       DOS:  cpu time    0.04: real time    0.04
    CHARGE:  cpu time    1.69: real time    1.69
    MIXING:  cpu time    0.02: real time    0.02
    --------------------------------------------
      LOOP:  cpu time   41.47: real time   41.47

 eigenvalue-minimisations  :   800
 total energy-change (2. order) : 0.2366894E-05  (-0.1742295E-06)
 number of electron     120.0000449 magnetization 
 augmentation part       50.8233375 magnetization 

 Broyden mixing:
  rms(total) = 0.74431E-03    rms(broyden)= 0.74428E-03
  rms(prec ) = 0.81600E-03
  weight for this iteration     100.00

 eigenvalues of (default mixing * dielectric matrix)
  average eigenvalue GAMMA=   0.7135
  1.2518  1.2518  0.1055  0.2449

 Free energy of the ion-electron system (eV)
  ---------------------------------------------------
  alpha Z        PSCENC =       574.70065014
  Ewald energy   TEWEN  =     22969.33123135
  -1/2 Hartree   DENC   =    -33427.91196713
  -exchange  EXHF       =         0.00000000
  -V(xc)+E(xc)   XCENC  =      -356.30273408
  PAW double counting   =      8304.39393507    -7575.27506118
  entropy T*S    EENTRO =         0.00000000
  eigenvalues    EBANDS =      -265.07817206
  atomic energy  EATOM  =      9716.95502315
  ---------------------------------------------------
  free energy    TOTEN  =       -59.18709475 eV

  energy without entropy =      -59.18709475  energy(sigma->0) =      -59.18709475


--------------------------------------------------------------------------------------------------------




----------------------------------------- Iteration    9(   6)  ---------------------------------------


    POTLOK:  cpu time    0.55: real time    0.55
    SETDIJ:  cpu time    0.07: real time    0.07
     EDDAV:  cpu time   58.92: real time   58.92
 BZINTS: Fermi energy:  0.022557;120.000000 electrons
         Band energy:-265.088835;  BLOECHL correction: -0.027056
       DOS:  cpu time    0.04: real time    0.04
    --------------------------------------------
      LOOP:  cpu time   59.58: real time   59.59

 eigenvalue-minimisations  :  1448
 total energy-change (2. order) :-0.4210287E-06  (-0.6816653E-06)
 number of electron     120.0000449 magnetization 
 augmentation part       50.8233375 magnetization 

 Free energy of the ion-electron system (eV)
  ---------------------------------------------------
  alpha Z        PSCENC =       574.70065014
  Ewald energy   TEWEN  =     22969.33123135
  -1/2 Hartree   DENC   =    -33427.90070433
  -exchange  EXHF       =         0.00000000
  -V(xc)+E(xc)   XCENC  =      -356.30272981
  PAW double counting   =      8304.42035897    -7575.30208962
  entropy T*S    EENTRO =         0.00000000
  eigenvalues    EBANDS =      -265.08883501
  atomic energy  EATOM  =      9716.95502315
  ---------------------------------------------------
  free energy    TOTEN  =       -59.18709517 eV

  energy without entropy =      -59.18709517  energy(sigma->0) =      -59.18709517


--------------------------------------------------------------------------------------------------------




 average (electrostatic) potential at core
  the test charge radii are     1.1199
  (the norm of the test charge is              1.0000)
       1 -51.0519       2 -51.5350       3 -51.5135       4 -51.0519       5 -51.5350
       6 -51.5135       7 -51.5136       8 -51.5349       9 -51.0519      10 -51.5136
      11 -51.5349      12 -51.0519
 
 
 
 E-fermi :   0.0226     XC(G=0):  -7.8000     alpha+bet : -6.1545


 k-point   1 :       0.0000    0.0000    0.0000
  band No.  band energies     occupation 
      1      -6.4788      2.00000
      2      -5.6869      2.00000
      3      -4.8487      2.00000
      4      -4.7983      2.00000
      5      -4.7983      2.00000
      6      -4.7781      2.00000
      7      -4.6103      2.00000
      8      -4.5482      2.00000
      9      -4.5482      2.00000
     10      -4.3289      2.00000
     11      -4.3288      2.00000
     12      -4.3234      2.00000
     13      -4.2814      2.00000
     14      -4.1315      2.00000
     15      -4.0283      2.00000
     16      -4.0283      2.00000
     17      -3.8329      2.00000
     18      -3.7295      2.00000
     19      -3.7295      2.00000
     20      -3.3215      2.00000
     21      -3.2261      2.00000
     22      -3.2261      2.00000
     23      -2.8795      2.00000
     24      -2.6669      2.00000
     25      -2.4679      2.00000
     26      -2.4679      2.00000
     27      -2.1866      2.00000
     28      -2.1866      2.00000
     29      -2.0577      2.00000
     30      -2.0577      2.00000
     31      -1.5875      2.00000
     32      -1.4525      2.00000
     33      -1.4525      2.00000
     34      -1.4040      2.00000
     35      -1.1558      2.00000
     36      -1.0486      2.00000
     37      -1.0486      2.00000
     38      -1.0386      2.00000
     39      -1.0295      2.00000
     40      -0.9153      2.00000
     41      -0.9153      2.00000
     42      -0.8156      2.00000
     43      -0.7441      2.00000
     44      -0.7441      2.00000
     45      -0.5531      2.00000
     46      -0.4153      2.00000
     47      -0.4153      2.00000
     48      -0.2751      2.00000
     49      -0.1229      2.00000
     50      -0.1229      2.00000
     51      -0.0940      2.00000
     52      -0.0940      2.00000
     53      -0.0894      2.00000
     54      -0.0894      2.00000
     55      -0.0148      2.00000
     56       0.0342      1.84719
     57       0.2074      0.00825
     58       0.2074     -0.63275
     59       0.2797      0.00000
     60       0.2797      0.00000
     61       0.3215      0.00000
     62       0.3215      0.00000
     63       0.3855      0.00000
     64       0.6126      0.00000
     65       0.6126      0.00000
     66       1.9754      0.00000
     67       2.9805      0.00000
     68       4.0500      0.00000
     69       4.0500      0.00000
     70       5.1739      0.00000
     71       5.5086      0.00000
     72       5.5086      0.00000

 k-point   2 :       0.1429    0.0000    0.0000
  band No.  band energies     occupation 
      1      -6.2493      2.00000
      2      -5.4794      2.00000
      3      -4.6956      2.00000
      4      -4.6872      2.00000
      5      -4.6641      2.00000
      6      -4.5986      2.00000
      7      -4.4810      2.00000
      8      -4.4637      2.00000
      9      -4.4612      2.00000
     10      -4.2069      2.00000
     11      -4.1725      2.00000
     12      -4.1670      2.00000
     13      -4.1591      2.00000
     14      -3.9718      2.00000
     15      -3.9613      2.00000
     16      -3.9526      2.00000
     17      -3.7429      2.00000
     18      -3.5950      2.00000
     19      -3.5789      2.00000
     20      -3.2639      2.00000
     21      -3.2327      2.00000
     22      -3.1924      2.00000
     23      -2.8621      2.00000
     24      -2.5706      2.00000
     25      -2.4994      2.00000
     26      -2.3920      2.00000
     27      -2.2952      2.00000
     28      -2.2123      2.00000
     29      -2.1860      2.00000
     30      -2.0880      2.00000
     31      -1.9727      2.00000
     32      -1.5423      2.00000
     33      -1.4799      2.00000
     34      -1.3201      2.00000
     35      -1.2946      2.00000
     36      -1.2493      2.00000
     37      -1.1788      2.00000
     38      -1.1434      2.00000
     39      -1.0266      2.00000
     40      -1.0257      2.00000
     41      -0.9457      2.00000
     42      -0.8697      2.00000
     43      -0.7669      2.00000
     44      -0.6504      2.00000
     45      -0.5917      2.00000
     46      -0.5849      2.00000
     47      -0.5164      2.00000
     48      -0.4925      2.00000
     49      -0.2884      2.00000
     50      -0.2721      2.00000
     51      -0.2473      2.00000
     52      -0.1742      2.00000
     53      -0.1389      2.00000
     54      -0.1374      2.00000
     55      -0.1283      2.00000
     56      -0.1145      2.02084
     57      -0.1026      1.96272
     58      -0.0035      1.70149
     59       0.0694      0.42791
     60       0.0849      0.02548
     61       0.1236     -0.03944
     62       0.2016      0.00000
     63       0.3365      0.00000
     64       0.3846      0.00000
     65       1.0379      0.00000
     66       2.5429      0.00000
     67       2.9439      0.00000
     68       3.6461      0.00000
     69       4.2579      0.00000
     70       4.7858      0.00000
     71       5.4108      0.00000
     72       5.7516      0.00000

 k-point   3 :       0.2857    0.0000    0.0000
  band No.  band energies     occupation 
      1      -5.6053      2.00000
      2      -4.9083      2.00000
      3      -4.4159      2.00000
      4      -4.3149      2.00000
      5      -4.2939      2.00000
      6      -4.2216      2.00000
      7      -4.1688      2.00000
      8      -4.1233      2.00000
      9      -4.0976      2.00000
     10      -3.8916      2.00000
     11      -3.8343      2.00000
     12      -3.7909      2.00000
     13      -3.7807      2.00000
     14      -3.7737      2.00000
     15      -3.7431      2.00000
     16      -3.5001      2.00000
     17      -3.4802      2.00000
     18      -3.2896      2.00000
     19      -3.2217      2.00000
     20      -3.1746      2.00000
     21      -3.1718      2.00000
     22      -3.1149      2.00000
     23      -3.0416      2.00000
     24      -2.5226      2.00000
     25      -2.4998      2.00000
     26      -2.3523      2.00000
     27      -2.3446      2.00000
     28      -2.3227      2.00000
     29      -2.3172      2.00000
     30      -2.1946      2.00000
     31      -2.0924      2.00000
     32      -2.0563      2.00000
     33      -1.7546      2.00000
     34      -1.6993      2.00000
     35      -1.5928      2.00000
     36      -1.5600      2.00000
     37      -1.5194      2.00000
     38      -1.3920      2.00000
     39      -1.3366      2.00000
     40      -1.2549      2.00000
     41      -1.1222      2.00000
     42      -1.0175      2.00000
     43      -0.9007      2.00000
     44      -0.8502      2.00000
     45      -0.8498      2.00000
     46      -0.8486      2.00000
     47      -0.8403      2.00000
     48      -0.8181      2.00000
     49      -0.7402      2.00000
     50      -0.6670      2.00000
     51      -0.5607      2.00000
     52      -0.5054      2.00000
     53      -0.4739      2.00000
     54      -0.4539      2.00000
     55      -0.4212      2.00000
     56      -0.4113      2.00000
     57      -0.2841      2.00000
     58      -0.2787      2.00000
     59      -0.1788      2.16264
     60      -0.0821      2.20785
     61      -0.0658      1.93900
     62       0.1801      0.00000
     63       0.1869      0.00000
     64       0.7461      0.00000
     65       1.0396      0.00000
     66       2.1256      0.00000
     67       2.2580      0.00000
     68       3.6001      0.00000
     69       3.6824      0.00000
     70       4.8992      0.00000
     71       5.0330      0.00000
     72       6.1532      0.00000

 k-point   4 :       0.4286    0.0000    0.0000
  band No.  band energies     occupation 
      1      -4.7507      2.00000
      2      -4.2612      2.00000
      3      -4.1735      2.00000
      4      -3.9156      2.00000
      5      -3.8756      2.00000
      6      -3.8571      2.00000
      7      -3.7083      2.00000
      8      -3.6988      2.00000
      9      -3.5981      2.00000
     10      -3.5098      2.00000
     11      -3.5021      2.00000
     12      -3.4773      2.00000
     13      -3.4346      2.00000
     14      -3.3914      2.00000
     15      -3.3831      2.00000
     16      -3.3391      2.00000
     17      -3.2556      2.00000
     18      -3.2389      2.00000
     19      -3.2056      2.00000
     20      -3.1804      2.00000
     21      -3.0794      2.00000
     22      -2.8811      2.00000
     23      -2.8360      2.00000
     24      -2.7885      2.00000
     25      -2.7475      2.00000
     26      -2.7285      2.00000
     27      -2.6460      2.00000
     28      -2.5153      2.00000
     29      -2.3762      2.00000
     30      -2.3073      2.00000
     31      -2.0792      2.00000
     32      -2.0583      2.00000
     33      -1.9767      2.00000
     34      -1.9688      2.00000
     35      -1.6919      2.00000
     36      -1.6830      2.00000
     37      -1.5990      2.00000
     38      -1.4773      2.00000
     39      -1.4749      2.00000
     40      -1.4135      2.00000
     41      -1.4044      2.00000
     42      -1.3956      2.00000
     43      -1.3351      2.00000
     44      -1.3263      2.00000
     45      -1.2755      2.00000
     46      -1.2071      2.00000
     47      -1.0907      2.00000
     48      -1.0547      2.00000
     49      -1.0395      2.00000
     50      -0.9906      2.00000
     51      -0.9566      2.00000
     52      -0.9527      2.00000
     53      -0.8385      2.00000
     54      -0.8080      2.00000
     55      -0.6978      2.00000
     56      -0.6850      2.00000
     57      -0.6159      2.00000
     58      -0.2876      2.00000
     59      -0.2206      2.00000
     60      -0.2206      2.00000
     61      -0.1700      2.10165
     62       0.1586      0.00000
     63       0.1696      0.00000
     64       0.6579      0.00000
     65       0.6784      0.00000
     66       1.8444      0.00000
     67       1.8575      0.00000
     68       3.2360      0.00000
     69       3.3810      0.00000
     70       4.8259      0.00000
     71       5.0018      0.00000
     72       6.2056      0.00000

 k-point   5 :       0.1429    0.1429    0.0000
  band No.  band energies     occupation 
      1      -6.0343      2.00000
      2      -5.3073      2.00000
      3      -4.6064      2.00000
      4      -4.5547      2.00000
      5      -4.5547      2.00000
      6      -4.5169      2.00000
      7      -4.3885      2.00000
      8      -4.3885      2.00000
      9      -4.3092      2.00000
     10      -4.1285      2.00000
     11      -4.0514      2.00000
     12      -4.0514      2.00000
     13      -3.9601      2.00000
     14      -3.9369      2.00000
     15      -3.9350      2.00000
     16      -3.9350      2.00000
     17      -3.4879      2.00000
     18      -3.4479      2.00000
     19      -3.4479      2.00000
     20      -3.2292      2.00000
     21      -3.2292      2.00000
     22      -3.1114      2.00000
     23      -2.8146      2.00000
     24      -2.4909      2.00000
     25      -2.4843      2.00000
     26      -2.3696      2.00000
     27      -2.2852      2.00000
     28      -2.2485      2.00000
     29      -2.2485      2.00000
     30      -2.1429      2.00000
     31      -2.0903      2.00000
     32      -1.6722      2.00000
     33      -1.6655      2.00000
     34      -1.3632      2.00000
     35      -1.3632      2.00000
     36      -1.2844      2.00000
     37      -1.2332      2.00000
     38      -1.1476      2.00000
     39      -1.0747      2.00000
     40      -1.0737      2.00000
     41      -1.0440      2.00000
     42      -1.0440      2.00000
     43      -0.9650      2.00000
     44      -0.8828      2.00000
     45      -0.6782      2.00000
     46      -0.6781      2.00000
     47      -0.6023      2.00000
     48      -0.6022      2.00000
     49      -0.5217      2.00000
     50      -0.5217      2.00000
     51      -0.4532      2.00000
     52      -0.4124      2.00000
     53      -0.4124      2.00000
     54      -0.1923      2.00000
     55      -0.1138      2.00000
     56      -0.0646      2.00513
     57      -0.0646      1.95211
     58      -0.0394      1.91617
     59       0.0415      0.99285
     60       0.0415      0.31325
     61       0.0958      0.01059
     62       0.1915      0.00000
     63       0.2413      0.00000
     64       0.2414      0.00000
     65       1.3812      0.00000
     66       2.9605      0.00000
     67       3.6288      0.00000
     68       3.6288      0.00000
     69       4.1561      0.00000
     70       4.7424      0.00000
     71       4.7424      0.00000
     72       5.6547      0.00000

 k-point   6 :       0.2857    0.1429    0.0000
  band No.  band energies     occupation 
      1      -5.4376      2.00000
      2      -4.8596      2.00000
      3      -4.3146      2.00000
      4      -4.3068      2.00000
      5      -4.2993      2.00000
      6      -4.2204      2.00000
      7      -4.1960      2.00000
      8      -4.1343      2.00000
      9      -3.9008      2.00000
     10      -3.8824      2.00000
     11      -3.8668      2.00000
     12      -3.8489      2.00000
     13      -3.8110      2.00000
     14      -3.7354      2.00000
     15      -3.6735      2.00000
     16      -3.5032      2.00000
     17      -3.2455      2.00000
     18      -3.1763      2.00000
     19      -3.1142      2.00000
     20      -3.0807      2.00000
     21      -2.9945      2.00000
     22      -2.9042      2.00000
     23      -2.7823      2.00000
     24      -2.4789      2.00000
     25      -2.3770      2.00000
     26      -2.3104      2.00000
     27      -2.2981      2.00000
     28      -2.2677      2.00000
     29      -2.2495      2.00000
     30      -2.2078      2.00000
     31      -2.1539      2.00000
     32      -2.0928      2.00000
     33      -1.8936      2.00000
     34      -1.8098      2.00000
     35      -1.7202      2.00000
     36      -1.5812      2.00000
     37      -1.5644      2.00000
     38      -1.4818      2.00000
     39      -1.3947      2.00000
     40      -1.3667      2.00000
     41      -1.2244      2.00000
     42      -1.2049      2.00000
     43      -1.2037      2.00000
     44      -1.1807      2.00000
     45      -1.0821      2.00000
     46      -0.9904      2.00000
     47      -0.9235      2.00000
     48      -0.8856      2.00000
     49      -0.8514      2.00000
     50      -0.7991      2.00000
     51      -0.6676      2.00000
     52      -0.5788      2.00000
     53      -0.4735      2.00000
     54      -0.4517      2.00000
     55      -0.3509      2.00000
     56      -0.1973      2.00000
     57      -0.1119      2.00000
     58      -0.0979      2.00000
     59      -0.0933      2.07487
     60       0.0125      1.76770
     61       0.0595      0.33373
     62       0.1023      0.00000
     63       0.1124      0.00000
     64       0.7420      0.00000
     65       1.6991      0.00000
     66       2.2797      0.00000
     67       2.6185      0.00000
     68       3.7929      0.00000
     69       3.9372      0.00000
     70       4.9652      0.00000
     71       5.1016      0.00000
     72       5.2228      0.00000

 k-point   7 :       0.4286    0.1429    0.0000
  band No.  band energies     occupation 
      1      -4.6652      2.00000
      2      -4.3567      2.00000
      3      -4.2109      2.00000
      4      -4.0787      2.00000
      5      -4.0576      2.00000
      6      -3.9077      2.00000
      7      -3.8789      2.00000
      8      -3.8742      2.00000
      9      -3.7182      2.00000
     10      -3.7050      2.00000
     11      -3.6486      2.00000
     12      -3.5322      2.00000
     13      -3.4294      2.00000
     14      -3.3976      2.00000
     15      -3.2695      2.00000
     16      -3.2258      2.00000
     17      -3.1501      2.00000
     18      -3.1421      2.00000
     19      -2.9657      2.00000
     20      -2.9052      2.00000
     21      -2.8122      2.00000
     22      -2.7397      2.00000
     23      -2.6596      2.00000
     24      -2.6299      2.00000
     25      -2.5916      2.00000
     26      -2.5034      2.00000
     27      -2.4722      2.00000
     28      -2.3761      2.00000
     29      -2.2989      2.00000
     30      -2.2602      2.00000
     31      -2.1963      2.00000
     32      -2.1106      2.00000
     33      -2.0159      2.00000
     34      -1.9986      2.00000
     35      -1.8212      2.00000
     36      -1.7752      2.00000
     37      -1.7727      2.00000
     38      -1.7506      2.00000
     39      -1.6727      2.00000
     40      -1.6534      2.00000
     41      -1.6317      2.00000
     42      -1.5286      2.00000
     43      -1.4369      2.00000
     44      -1.2936      2.00000
     45      -1.2736      2.00000
     46      -1.2255      2.00000
     47      -1.0621      2.00000
     48      -1.0095      2.00000
     49      -0.9055      2.00000
     50      -0.8235      2.00000
     51      -0.8087      2.00000
     52      -0.7917      2.00000
     53      -0.5820      2.00000
     54      -0.5133      2.00000
     55      -0.4451      2.00000
     56      -0.3576      2.00000
     57      -0.3356      2.00000
     58      -0.2980      2.00000
     59      -0.1391      2.00000
     60      -0.0620      2.00000
     61      -0.0080      1.91723
     62       0.0448      0.00000
     63       0.1775      0.00000
     64       0.6055      0.00000
     65       0.8248      0.00000
     66       1.8348      0.00000
     67       1.9030      0.00000
     68       3.2594      0.00000
     69       3.4581      0.00000
     70       4.8502      0.00000
     71       5.1530      0.00000
     72       6.2530      0.00000

 k-point   8 :       0.2857    0.2857    0.0000
  band No.  band energies     occupation 
      1      -5.0076      2.00000
      2      -4.7476      2.00000
      3      -4.4424      2.00000
      4      -4.2395      2.00000
      5      -4.2177      2.00000
      6      -4.2177      2.00000
      7      -4.0830      2.00000
      8      -4.0830      2.00000
      9      -3.9086      2.00000
     10      -3.8636      2.00000
     11      -3.8003      2.00000
     12      -3.8003      2.00000
     13      -3.4736      2.00000
     14      -3.3951      2.00000
     15      -3.3951      2.00000
     16      -3.1436      2.00000
     17      -3.1436      2.00000
     18      -3.1279      2.00000
     19      -2.8315      2.00000
     20      -2.8315      2.00000
     21      -2.8039      2.00000
     22      -2.6596      2.00000
     23      -2.4395      2.00000
     24      -2.2936      2.00000
     25      -2.2620      2.00000
     26      -2.2576      2.00000
     27      -2.2318      2.00000
     28      -2.2318      2.00000
     29      -2.2204      2.00000
     30      -2.1977      2.00000
     31      -2.0782      2.00000
     32      -2.0782      2.00000
     33      -2.0259      2.00000
     34      -1.9800      2.00000
     35      -1.9626      2.00000
     36      -1.7835      2.00000
     37      -1.7835      2.00000
     38      -1.7654      2.00000
     39      -1.6576      2.00000
     40      -1.6576      2.00000
     41      -1.6081      2.00000
     42      -1.5734      2.00000
     43      -1.3600      2.00000
     44      -1.3129      2.00000
     45      -1.3129      2.00000
     46      -1.2920      2.00000
     47      -0.8832      2.00000
     48      -0.7477      2.00000
     49      -0.7477      2.00000
     50      -0.7290      2.00000
     51      -0.6673      2.00000
     52      -0.5950      2.00000
     53      -0.4093      2.00000
     54      -0.4093      2.00000
     55      -0.4052      2.00000
     56      -0.2694      2.00000
     57      -0.0532      2.00000
     58      -0.0138      2.00000
     59      -0.0138      1.99552
     60       0.0082      1.99112
     61       0.0493      0.00689
     62       0.0493      0.00000
     63       0.0887      0.00000
     64       0.9821      0.00000
     65       2.7917      0.00000
     66       2.8777      0.00000
     67       2.8777      0.00000
     68       3.4456      0.00000
     69       3.4456      0.00000
     70       4.0403      0.00000
     71       4.0403      0.00000
     72       4.5923      0.00000

 k-point   9 :       0.4286    0.2857    0.0000
  band No.  band energies     occupation 
      1      -4.6192      2.00000
      2      -4.6075      2.00000
      3      -4.4276      2.00000
      4      -4.4232      2.00000
      5      -4.3103      2.00000
      6      -4.1122      2.00000
      7      -4.0547      2.00000
      8      -4.0415      2.00000
      9      -3.6963      2.00000
     10      -3.6619      2.00000
     11      -3.5719      2.00000
     12      -3.4555      2.00000
     13      -3.3386      2.00000
     14      -3.2268      2.00000
     15      -3.0637      2.00000
     16      -3.0400      2.00000
     17      -2.9683      2.00000
     18      -2.8554      2.00000
     19      -2.8082      2.00000
     20      -2.6882      2.00000
     21      -2.6649      2.00000
     22      -2.6625      2.00000
     23      -2.6315      2.00000
     24      -2.5043      2.00000
     25      -2.4838      2.00000
     26      -2.4102      2.00000
     27      -2.3887      2.00000
     28      -2.3795      2.00000
     29      -2.2745      2.00000
     30      -2.1595      2.00000
     31      -2.1168      2.00000
     32      -2.0888      2.00000
     33      -2.0823      2.00000
     34      -2.0405      2.00000
     35      -1.9920      2.00000
     36      -1.9380      2.00000
     37      -1.8382      2.00000
     38      -1.8016      2.00000
     39      -1.7337      2.00000
     40      -1.6260      2.00000
     41      -1.4477      2.00000
     42      -1.4446      2.00000
     43      -1.3684      2.00000
     44      -1.3451      2.00000
     45      -1.2644      2.00000
     46      -1.0133      2.00000
     47      -0.9301      2.00000
     48      -0.7457      2.00000
     49      -0.6866      2.00000
     50      -0.6489      2.00000
     51      -0.5961      2.00000
     52      -0.5400      2.00000
     53      -0.3393      2.00000
     54      -0.2396      2.00000
     55      -0.1756      2.00000
     56      -0.1576      2.00000
     57      -0.1530      2.00000
     58      -0.1394      2.00000
     59      -0.0661      2.00000
     60      -0.0630      2.00000
     61       0.0395      0.15675
     62       0.0507      0.00000
     63       0.4770      0.00000
     64       1.1637      0.00000
     65       1.4131      0.00000
     66       1.8392      0.00000
     67       2.0426      0.00000
     68       3.1163      0.00000
     69       3.5983      0.00000
     70       4.1084      0.00000
     71       4.1430      0.00000
     72       5.1331      0.00000

 k-point  10 :       0.4286    0.4286    0.0000
  band No.  band energies     occupation 
      1      -4.7316      2.00000
      2      -4.7256      2.00000
      3      -4.6692      2.00000
      4      -4.6692      2.00000
      5      -4.2774      2.00000
      6      -4.2276      2.00000
      7      -4.1861      2.00000
      8      -4.1861      2.00000
      9      -3.6094      2.00000
     10      -3.5988      2.00000
     11      -3.4932      2.00000
     12      -3.4932      2.00000
     13      -3.0067      2.00000
     14      -2.9410      2.00000
     15      -2.9410      2.00000
     16      -2.8913      2.00000
     17      -2.7978      2.00000
     18      -2.7977      2.00000
     19      -2.6685      2.00000
     20      -2.6457      2.00000
     21      -2.6234      2.00000
     22      -2.5984      2.00000
     23      -2.5983      2.00000
     24      -2.5340      2.00000
     25      -2.5340      2.00000
     26      -2.4711      2.00000
     27      -2.4701      2.00000
     28      -2.4660      2.00000
     29      -2.2655      2.00000
     30      -2.2655      2.00000
     31      -2.2096      2.00000
     32      -2.1425      2.00000
     33      -2.0841      2.00000
     34      -2.0754      2.00000
     35      -2.0403      2.00000
     36      -2.0403      2.00000
     37      -1.5880      2.00000
     38      -1.5601      2.00000
     39      -1.5201      2.00000
     40      -1.5201      2.00000
     41      -1.4345      2.00000
     42      -1.3680      2.00000
     43      -1.3680      2.00000
     44      -1.2764      2.00000
     45      -0.9479      2.00000
     46      -0.6465      2.00000
     47      -0.6465      2.00000
     48      -0.6095      2.00000
     49      -0.5765      2.00000
     50      -0.5560      2.00000
     51      -0.5560      2.00000
     52      -0.3682      2.00000
     53      -0.2104      2.00000
     54      -0.1738      2.00000
     55      -0.1738      2.00000
     56      -0.1557      2.00000
     57      -0.0756      2.00000
     58      -0.0592      2.00000
     59      -0.0592      2.00000
     60       0.0186      2.00000
     61       0.6571      0.00000
     62       0.8134      0.00000
     63       1.0611      0.00000
     64       1.9729      0.00000
     65       2.0195      0.00000
     66       2.0195      0.00000
     67       2.3175      0.00000
     68       2.3176      0.00000
     69       2.4321      0.00000
     70       2.4321      0.00000
     71       3.2786      0.00000
     72       3.6990      0.00000


--------------------------------------------------------------------------------------------------------


 soft charge-density along one line, spin component           1
         0         1         2         3         4         5         6         7         8         9
 total charge-density along one line
 
 pseudopotential strength for first ion, spin component:           1
-11.498   0.000   0.000   0.000   0.000   0.125   0.000   0.000
  0.000 -11.398   0.000   0.000   0.000   0.000   0.109   0.000
  0.000   0.000 -11.369   0.000   0.000   0.000   0.000   0.105
  0.000   0.000   0.000 -11.398   0.000   0.000   0.000   0.000
  0.000   0.000   0.000   0.000 -11.442   0.000   0.000   0.000
  0.125   0.000   0.000   0.000   0.000   0.321   0.000   0.000
  0.000   0.109   0.000   0.000   0.000   0.000   0.324   0.000
  0.000   0.000   0.105   0.000   0.000   0.000   0.000   0.324
  0.000   0.000   0.000   0.109   0.000   0.000   0.000   0.000
  0.000   0.000   0.000   0.000   0.117   0.000   0.000   0.000
  0.000   0.000  -0.021   0.000   0.000   0.000   0.000   0.003
  0.000   0.000   0.002   0.000   0.000   0.000   0.000   0.000
  0.000  -0.016   0.000   0.000   0.000   0.000   0.003   0.000
  0.000   0.000  -0.019   0.000   0.000   0.000   0.000   0.003
  0.000   0.000   0.000  -0.016   0.000   0.000   0.000   0.000
  0.000   0.013   0.000   0.000   0.000   0.000  -0.002   0.000
  0.000   0.000   0.015   0.000   0.000   0.000   0.000  -0.002
  0.000   0.000   0.000   0.013   0.000   0.000   0.000   0.000
 total augmentation occupancy for first ion, spin component:           1
  1.650   0.000   0.000   0.000   0.000   0.184   0.000   0.000   0.000   0.000   0.000   0.000   0.000   0.000   0.000   0.000
  0.000   1.824   0.000   0.000   0.000   0.000   0.082   0.000   0.000   0.000   0.000   0.000  -0.011   0.000   0.000  -0.021
  0.000   0.000   1.862   0.000   0.000   0.000   0.000   0.058   0.000   0.000   0.017  -0.045   0.000   0.008   0.000   0.000
  0.000   0.000   0.000   1.824   0.000   0.000   0.000   0.000   0.082   0.000   0.000   0.000   0.000   0.000  -0.011   0.000
  0.000   0.000   0.000   0.000   1.859   0.000   0.000   0.000   0.000   0.046   0.000   0.000   0.000   0.000   0.000   0.000
  0.184   0.000   0.000   0.000   0.000   0.104   0.000   0.000   0.000   0.000   0.000   0.000   0.000   0.000   0.000   0.000
  0.000   0.082   0.000   0.000   0.000   0.000   0.096   0.000   0.000   0.000   0.000   0.000   0.052   0.000   0.000  -0.002
  0.000   0.000   0.058   0.000   0.000   0.000   0.000   0.092   0.000   0.000  -0.082   0.020   0.000   0.037   0.000   0.000
  0.000   0.000   0.000   0.082   0.000   0.000   0.000   0.000   0.096   0.000   0.000   0.000   0.000   0.000   0.052   0.000
  0.000   0.000   0.000   0.000   0.046   0.000   0.000   0.000   0.000   0.101   0.000   0.000   0.000   0.000   0.000   0.000
  0.000   0.000   0.017   0.000   0.000   0.000   0.000  -0.082   0.000   0.000   0.959  -0.309   0.000   0.096   0.000   0.000
  0.000   0.000  -0.045   0.000   0.000   0.000   0.000   0.020   0.000   0.000  -0.309   0.114   0.000  -0.046   0.000   0.000
  0.000  -0.011   0.000   0.000   0.000   0.000   0.052   0.000   0.000   0.000   0.000   0.000   0.098   0.000   0.000  -0.002
  0.000   0.000   0.008   0.000   0.000   0.000   0.000   0.037   0.000   0.000   0.096  -0.046   0.000   0.060   0.000   0.000
  0.000   0.000   0.000  -0.011   0.000   0.000   0.000   0.000   0.052   0.000   0.000   0.000   0.000   0.000   0.098   0.000
  0.000  -0.021   0.000   0.000   0.000   0.000  -0.002   0.000   0.000   0.000   0.000   0.000  -0.002   0.000   0.000   0.000
  0.000   0.000  -0.028   0.000   0.000   0.000   0.000  -0.001   0.000   0.000  -0.005   0.003   0.000  -0.001   0.000   0.000
  0.000   0.000   0.000  -0.021   0.000   0.000   0.000   0.000  -0.002   0.000   0.000   0.000   0.000   0.000  -0.002   0.000


------------------------ aborting loop because EDIFF is reached ----------------------------------------


    CHARGE:  cpu time    1.78: real time    1.78
    FORLOC:  cpu time    0.06: real time    0.06
    FORNL :  cpu time   26.10: real time   26.10
    STRESS:  cpu time   69.03: real time   69.04
    FORCOR:  cpu time    0.59: real time    0.59
    FORHAR:  cpu time    0.19: real time    0.19
    MIXING:  cpu time    0.02: real time    0.02

  FORCE on cell =-STRESS in cart. coord.  units (eV):
  Direction    XX          YY          ZZ          XY          YZ          ZX
  --------------------------------------------------------------------------------------
  Alpha Z   574.70065   574.70065   574.70065
  Ewald   29551.82638 29551.82638-36134.33537     0.00000     0.00000     0.00000
  Hartree 32420.60133 32420.60133-31413.70101     0.00000     0.00000     0.00000
  E(xc)    -627.19636  -627.19636  -629.16618     0.00000     0.00000     0.00000
  Local  -63422.29535-63422.29535 66087.31061     0.00000     0.00000     0.00000
  n-local  -647.55304  -639.66631  -646.67767     8.99572     0.00000     0.00000
  augment   513.75770   513.75771   518.78191    -0.00001     0.00000    -0.00002
  Kinetic  1639.06479  1616.10972  1642.26189     7.06916     0.00000     0.00000
  Fock        0.00000     0.00000     0.00000     0.00000     0.00000     0.00000
  -------------------------------------------------------------------------------------
  Total      -4.62805    -4.62805    -0.82516     0.00000     0.00000     0.00000
  in kB     -21.73592   -21.73592    -3.87541     0.00000     0.00000     0.00000
  external pressure =      -15.78 kB  Pullay stress =        0.00 kB


 VOLUME and BASIS-vectors are now :
 -----------------------------------------------------------------------------
  energy-cutoff  :      415.00
  volume of cell :      341.14
      direct lattice vectors                 reciprocal lattice vectors
     3.951020398  0.000000000  0.000000000     0.253099174  0.000000000  0.000000000
     0.000000000  3.951020398  0.000000000     0.000000000  0.253099174  0.000000000
     0.000000000  0.000000000 21.853061195     0.000000000  0.000000000  0.045760179

  length of vectors
     3.951020398  3.951020398 21.853061195     0.253099174  0.253099174  0.045760179


 FORCES acting on ions
    electron-ion (+dipol)            ewald-force                    non-local-force                 convergence-correction
 -----------------------------------------------------------------------------------------------
   0.310E-13 0.101E-13 0.261E+04   0.252E-13 -.113E-14 -.261E+04   0.775E-25 -.517E-25 -.179E+01   0.221E-13 0.120E-13 0.261E-01
   0.247E-13 0.128E-13 0.529E+03   0.205E-13 -.217E-13 -.529E+03   -.517E-25 0.000E+00 0.103E+00   0.182E-13 0.815E-14 0.102E-01
   0.249E-13 -.120E-13 -.159E+04   0.368E-13 -.833E-14 0.159E+04   -.517E-25 0.103E-24 -.173E+00   -.170E-13 0.473E-13 -.319E-01
   -.584E-13 -.239E-13 0.261E+04   0.329E-14 0.117E-13 -.261E+04   0.388E-25 -.103E-24 -.179E+01   0.243E-14 0.120E-13 0.261E-01
   -.563E-13 0.516E-12 0.529E+03   0.860E-15 -.942E-14 -.529E+03   -.646E-25 0.000E+00 0.103E+00   0.320E-13 0.329E-13 0.102E-01
   -.590E-13 -.241E-13 -.159E+04   0.121E-13 0.414E-14 0.159E+04   -.517E-25 -.113E-24 -.173E+00   -.101E-13 0.540E-13 -.319E-01
   -.632E-13 0.354E-13 0.159E+04   -.129E-13 -.443E-14 -.159E+04   0.103E-24 0.905E-25 0.173E+00   0.556E-14 0.597E-15 0.318E-01
   -.329E-13 -.145E-13 -.529E+03   -.172E-14 0.913E-14 0.529E+03   0.000E+00 0.000E+00 -.103E+00   0.680E-16 0.399E-13 -.102E-01
   -.725E-13 0.123E-13 -.261E+04   -.416E-14 -.120E-13 0.261E+04   0.388E-25 -.103E-24 0.179E+01   -.294E-13 0.385E-14 -.261E-01
   0.300E-13 -.249E-13 0.159E+04   -.377E-13 0.804E-14 -.159E+04   0.517E-25 -.103E-24 0.173E+00   0.114E-13 0.738E-14 0.318E-01
   0.331E-13 -.193E-12 -.529E+03   -.214E-13 0.214E-13 0.529E+03   0.000E+00 0.000E+00 -.103E+00   -.198E-13 0.725E-13 -.102E-01
   0.267E-13 -.339E-12 -.261E+04   -.260E-13 0.848E-15 0.261E+04   -.517E-25 0.000E+00 0.179E+01   -.631E-14 0.869E-13 -.261E-01
 -----------------------------------------------------------------------------------------------
   -.172E-12 -.450E-13 -.166E-03   -.523E-14 -.173E-14 -.909E-12   0.388E-25 -.281E-24 0.000E+00   0.901E-14 0.377E-12 -.463E-04
 
 
 POSITION                                       TOTAL-FORCE (eV/Angst)
 -----------------------------------------------------------------------------------
      0.00000      0.00000      0.01222         0.000000      0.000000      0.016269
      0.00000      0.00000      3.94962         0.000000      0.000000      0.004172
      0.00000      0.00000      7.90918         0.000000      0.000000     -0.015264
      1.97551      1.97551      0.01222         0.000000      0.000000      0.016269
      1.97551      1.97551      3.94962         0.000000      0.000000      0.004172
      1.97551      1.97551      7.90918         0.000000      0.000000     -0.015264
      1.97551      0.00000      1.96838         0.000000      0.000000      0.015264
      1.97551      0.00000      5.92794         0.000000      0.000000     -0.004172
      1.97551      0.00000      9.86533         0.000000      0.000000     -0.016269
      0.00000      1.97551      1.96838         0.000000      0.000000      0.015264
      0.00000      1.97551      5.92794         0.000000      0.000000     -0.004172
      0.00000      1.97551      9.86533         0.000000      0.000000     -0.016269
 -----------------------------------------------------------------------------------
    total drift:                                0.000000      0.000000     -0.000212


--------------------------------------------------------------------------------------------------------



  FREE ENERGIE OF THE ION-ELECTRON SYSTEM (eV)
  ---------------------------------------------------
  free  energy   TOTEN  =       -59.187095 eV

  energy  without entropy=      -59.187095  energy(sigma->0) =      -59.187095
 
 d Force = 0.5322872E-04[ 0.572E-04, 0.493E-04]  d Energy = 0.5241825E-04 0.810E-06
 d Force =-0.7517437E+01[-0.752E+01,-0.752E+01]  d Ewald  =-0.7517437E+01 0.215E-08


--------------------------------------------------------------------------------------------------------


    POTLOK:  cpu time    0.63: real time    0.63


--------------------------------------------------------------------------------------------------------


 Conjugate gradient step on ions:
 trial-energy change:   -0.000052  1 .order   -0.000053   -0.000049   -0.000057
  (g-gl).g =-0.599E-06      g.g   = 0.728E-05  gl.gl    = 0.473E-04
 g(Force)  = 0.728E-05   g(Stress)= 0.000E+00 ortho     = 0.798E-05
 gamma     =  -0.01268
 trial     =   6.86683
 opt step  =  27.46731  (harmonic =  27.46731) maximal distance =0.00181087
 next E    =   -59.187303   (d E  =  -0.00026)


--------------------------------------------------------------------------------------------------------


    WAVPRE:  cpu time    0.12: real time    0.12
    FEWALD:  cpu time    0.00: real time    0.00
    ORTHCH:  cpu time    8.50: real time    8.50
     LOOP+:  cpu time  486.65: real time  486.70


----------------------------------------- Iteration   10(   1)  ---------------------------------------


    POTLOK:  cpu time    0.56: real time    0.55
    SETDIJ:  cpu time    0.07: real time    0.07
     EDDAV:  cpu time   58.90: real time   58.91
 BZINTS: Fermi energy:  0.022695;120.000000 electrons
         Band energy:-265.153495;  BLOECHL correction: -0.026991
       DOS:  cpu time    0.04: real time    0.04
    CHARGE:  cpu time    1.70: real time    1.70
    MIXING:  cpu time    0.02: real time    0.02
    --------------------------------------------
      LOOP:  cpu time   61.28: real time   61.30

 eigenvalue-minimisations  :  1440
 total energy-change (2. order) : 0.7538686E-04  (-0.8697419E-02)
 number of electron     120.0000448 magnetization 
 augmentation part       50.8230212 magnetization 

 Broyden mixing:
  rms(total) = 0.38159E-02    rms(broyden)= 0.38144E-02
  rms(prec ) = 0.45126E-02
  weight for this iteration     100.00

 Free energy of the ion-electron system (eV)
  ---------------------------------------------------
  alpha Z        PSCENC =       574.70065014
  Ewald energy   TEWEN  =     22991.88939723
  -1/2 Hartree   DENC   =    -33450.40247013
  -exchange  EXHF       =         0.00000000
  -V(xc)+E(xc)   XCENC  =      -356.29395227
  PAW double counting   =      8304.43702946    -7575.31920155
  entropy T*S    EENTRO =         0.00000000
  eigenvalues    EBANDS =      -265.15349539
  atomic energy  EATOM  =      9716.95502315
  ---------------------------------------------------
  free energy    TOTEN  =       -59.18701937 eV

  energy without entropy =      -59.18701937  energy(sigma->0) =      -59.18701937


--------------------------------------------------------------------------------------------------------




----------------------------------------- Iteration   10(   2)  ---------------------------------------


    POTLOK:  cpu time    0.55: real time    0.55
    SETDIJ:  cpu time    0.07: real time    0.07
     EDDAV:  cpu time   80.35: real time   80.36
 BZINTS: Fermi energy:  0.025780;120.000000 electrons
         Band energy:-264.813875;  BLOECHL correction: -0.027373
       DOS:  cpu time    0.04: real time    0.04
    CHARGE:  cpu time    1.76: real time    1.76
    MIXING:  cpu time    0.02: real time    0.02
    --------------------------------------------
      LOOP:  cpu time   82.79: real time   82.80

 eigenvalue-minimisations  :  2136
 total energy-change (2. order) :-0.5425530E-03  (-0.3382693E-03)
 number of electron     120.0000448 magnetization 
 augmentation part       50.8206922 magnetization 

 Broyden mixing:
  rms(total) = 0.14195E-01    rms(broyden)= 0.14194E-01
  rms(prec ) = 0.21813E-01
  weight for this iteration     100.00

 eigenvalues of (default mixing * dielectric matrix)
  average eigenvalue GAMMA=   0.1632
  0.1632

 Free energy of the ion-electron system (eV)
  ---------------------------------------------------
  alpha Z        PSCENC =       574.70065014
  Ewald energy   TEWEN  =     22991.88939723
  -1/2 Hartree   DENC   =    -33450.73508058
  -exchange  EXHF       =         0.00000000
  -V(xc)+E(xc)   XCENC  =      -356.29497968
  PAW double counting   =      8304.52908759    -7575.41778444
  entropy T*S    EENTRO =         0.00000000
  eigenvalues    EBANDS =      -264.81387534
  atomic energy  EATOM  =      9716.95502315
  ---------------------------------------------------
  free energy    TOTEN  =       -59.18756192 eV

  energy without entropy =      -59.18756192  energy(sigma->0) =      -59.18756192


--------------------------------------------------------------------------------------------------------




----------------------------------------- Iteration   10(   3)  ---------------------------------------


    POTLOK:  cpu time    0.55: real time    0.55
    SETDIJ:  cpu time    0.07: real time    0.07
     EDDAV:  cpu time   71.08: real time   71.08
 BZINTS: Fermi energy:  0.022779;120.000000 electrons
         Band energy:-265.133725;  BLOECHL correction: -0.026935
       DOS:  cpu time    0.04: real time    0.04
    CHARGE:  cpu time    1.72: real time    1.72
    MIXING:  cpu time    0.02: real time    0.02
    --------------------------------------------
      LOOP:  cpu time   73.48: real time   73.48

 eigenvalue-minimisations  :  1840
 total energy-change (2. order) : 0.3145172E-03  (-0.8845399E-04)
 number of electron     120.0000448 magnetization 
 augmentation part       50.8232554 magnetization 

 Broyden mixing:
  rms(total) = 0.54996E-02    rms(broyden)= 0.54972E-02
  rms(prec ) = 0.69612E-02
  weight for this iteration     100.00

 eigenvalues of (default mixing * dielectric matrix)
  average eigenvalue GAMMA=   0.2785
  0.1060  0.4511

 Free energy of the ion-electron system (eV)
  ---------------------------------------------------
  alpha Z        PSCENC =       574.70065014
  Ewald energy   TEWEN  =     22991.88939723
  -1/2 Hartree   DENC   =    -33450.41450018
  -exchange  EXHF       =         0.00000000
  -V(xc)+E(xc)   XCENC  =      -356.29480930
  PAW double counting   =      8304.51395623    -7575.40323920
  entropy T*S    EENTRO =         0.00000000
  eigenvalues    EBANDS =      -265.13372548
  atomic energy  EATOM  =      9716.95502315
  ---------------------------------------------------
  free energy    TOTEN  =       -59.18724740 eV

  energy without entropy =      -59.18724740  energy(sigma->0) =      -59.18724740


--------------------------------------------------------------------------------------------------------




----------------------------------------- Iteration   10(   4)  ---------------------------------------


    POTLOK:  cpu time    0.56: real time    0.56
    SETDIJ:  cpu time    0.07: real time    0.07
     EDDAV:  cpu time   78.79: real time   78.80
 BZINTS: Fermi energy:  0.022808;120.000000 electrons
         Band energy:-265.137851;  BLOECHL correction: -0.027036
       DOS:  cpu time    0.04: real time    0.04
    CHARGE:  cpu time    1.72: real time    1.73
    MIXING:  cpu time    0.02: real time    0.02
    --------------------------------------------
      LOOP:  cpu time   81.21: real time   81.22

 eigenvalue-minimisations  :  2088
 total energy-change (2. order) :-0.7292885E-05  (-0.1124518E-04)
 number of electron     120.0000448 magnetization 
 augmentation part       50.8229924 magnetization 

 Broyden mixing:
  rms(total) = 0.27338E-02    rms(broyden)= 0.27332E-02
  rms(prec ) = 0.30620E-02
  weight for this iteration     100.00

 eigenvalues of (default mixing * dielectric matrix)
  average eigenvalue GAMMA=   0.2670
  0.3483  0.3483  0.1043

 Free energy of the ion-electron system (eV)
  ---------------------------------------------------
  alpha Z        PSCENC =       574.70065014
  Ewald energy   TEWEN  =     22991.88939723
  -1/2 Hartree   DENC   =    -33450.40930137
  -exchange  EXHF       =         0.00000000
  -V(xc)+E(xc)   XCENC  =      -356.29475020
  PAW double counting   =      8304.53632860    -7575.42675121
  entropy T*S    EENTRO =         0.00000000
  eigenvalues    EBANDS =      -265.13785104
  atomic energy  EATOM  =      9716.95502315
  ---------------------------------------------------
  free energy    TOTEN  =       -59.18725469 eV

  energy without entropy =      -59.18725469  energy(sigma->0) =      -59.18725469


--------------------------------------------------------------------------------------------------------




----------------------------------------- Iteration   10(   5)  ---------------------------------------


    POTLOK:  cpu time    0.56: real time    0.55
    SETDIJ:  cpu time    0.07: real time    0.07
     EDDAV:  cpu time   68.36: real time   68.37
 BZINTS: Fermi energy:  0.022952;120.000000 electrons
         Band energy:-265.124805;  BLOECHL correction: -0.027034
       DOS:  cpu time    0.04: real time    0.04
    CHARGE:  cpu time    1.72: real time    1.72
    MIXING:  cpu time    0.02: real time    0.02
    --------------------------------------------
      LOOP:  cpu time   70.77: real time   70.78

 eigenvalue-minimisations  :  1752
 total energy-change (2. order) : 0.1000785E-04  (-0.1443611E-05)
 number of electron     120.0000448 magnetization 
 augmentation part       50.8229233 magnetization 

 Broyden mixing:
  rms(total) = 0.21099E-02    rms(broyden)= 0.21099E-02
  rms(prec ) = 0.23277E-02
  weight for this iteration     100.00

 eigenvalues of (default mixing * dielectric matrix)
  average eigenvalue GAMMA=   0.7991
  1.9629  0.8834  0.1053  0.2449

 Free energy of the ion-electron system (eV)
  ---------------------------------------------------
  alpha Z        PSCENC =       574.70065014
  Ewald energy   TEWEN  =     22991.88939723
  -1/2 Hartree   DENC   =    -33450.42201348
  -exchange  EXHF       =         0.00000000
  -V(xc)+E(xc)   XCENC  =      -356.29478621
  PAW double counting   =      8304.55023674    -7575.44094753
  entropy T*S    EENTRO =         0.00000000
  eigenvalues    EBANDS =      -265.12480473
  atomic energy  EATOM  =      9716.95502315
  ---------------------------------------------------
  free energy    TOTEN  =       -59.18724469 eV

  energy without entropy =      -59.18724469  energy(sigma->0) =      -59.18724469


--------------------------------------------------------------------------------------------------------




----------------------------------------- Iteration   10(   6)  ---------------------------------------


    POTLOK:  cpu time    0.55: real time    0.55
    SETDIJ:  cpu time    0.07: real time    0.07
     EDDAV:  cpu time   65.41: real time   65.43
 BZINTS: Fermi energy:  0.022828;120.000000 electrons
         Band energy:-265.143801;  BLOECHL correction: -0.027042
       DOS:  cpu time    0.04: real time    0.04
    CHARGE:  cpu time    1.72: real time    1.73
    MIXING:  cpu time    0.02: real time    0.02
    --------------------------------------------
      LOOP:  cpu time   67.82: real time   67.85

 eigenvalue-minimisations  :  1656
 total energy-change (2. order) : 0.4869460E-05  (-0.3978987E-05)
 number of electron     120.0000448 magnetization 
 augmentation part       50.8228305 magnetization 

 Broyden mixing:
  rms(total) = 0.96966E-03    rms(broyden)= 0.96958E-03
  rms(prec ) = 0.13222E-02
  weight for this iteration     100.00

 eigenvalues of (default mixing * dielectric matrix)
  average eigenvalue GAMMA=   0.8716
  2.4041  0.1051  0.2521  0.7983  0.7983

 Free energy of the ion-electron system (eV)
  ---------------------------------------------------
  alpha Z        PSCENC =       574.70065014
  Ewald energy   TEWEN  =     22991.88939723
  -1/2 Hartree   DENC   =    -33450.40077454
  -exchange  EXHF       =         0.00000000
  -V(xc)+E(xc)   XCENC  =      -356.29461138
  PAW double counting   =      8304.64544619    -7575.53856936
  entropy T*S    EENTRO =         0.00000000
  eigenvalues    EBANDS =      -265.14380125
  atomic energy  EATOM  =      9716.95502315
  ---------------------------------------------------
  free energy    TOTEN  =       -59.18723982 eV

  energy without entropy =      -59.18723982  energy(sigma->0) =      -59.18723982


--------------------------------------------------------------------------------------------------------




----------------------------------------- Iteration   10(   7)  ---------------------------------------


    POTLOK:  cpu time    0.55: real time    0.55
    SETDIJ:  cpu time    0.08: real time    0.07
     EDDAV:  cpu time   73.19: real time   73.20
 BZINTS: Fermi energy:  0.022688;120.000000 electrons
         Band energy:-265.157822;  BLOECHL correction: -0.027025
       DOS:  cpu time    0.04: real time    0.04
    CHARGE:  cpu time    1.71: real time    1.71
    MIXING:  cpu time    0.02: real time    0.02
    --------------------------------------------
      LOOP:  cpu time   75.59: real time   75.60

 eigenvalue-minimisations  :  1904
 total energy-change (2. order) : 0.3933361E-05  (-0.9874944E-06)
 number of electron     120.0000448 magnetization 
 augmentation part       50.8229660 magnetization 

 Broyden mixing:
  rms(total) = 0.27150E-03    rms(broyden)= 0.27124E-03
  rms(prec ) = 0.28641E-03
  weight for this iteration     100.00

 eigenvalues of (default mixing * dielectric matrix)
  average eigenvalue GAMMA=   0.9238
  2.5064  0.9625  0.9625  0.1051  0.7553  0.2513

 Free energy of the ion-electron system (eV)
  ---------------------------------------------------
  alpha Z        PSCENC =       574.70065014
  Ewald energy   TEWEN  =     22991.88939723
  -1/2 Hartree   DENC   =    -33450.38451447
  -exchange  EXHF       =         0.00000000
  -V(xc)+E(xc)   XCENC  =      -356.29466160
  PAW double counting   =      8304.69243686    -7575.58774519
  entropy T*S    EENTRO =         0.00000000
  eigenvalues    EBANDS =      -265.15782201
  atomic energy  EATOM  =      9716.95502315
  ---------------------------------------------------
  free energy    TOTEN  =       -59.18723588 eV

  energy without entropy =      -59.18723588  energy(sigma->0) =      -59.18723588


--------------------------------------------------------------------------------------------------------




----------------------------------------- Iteration   10(   8)  ---------------------------------------


    POTLOK:  cpu time    0.56: real time    0.55
    SETDIJ:  cpu time    0.07: real time    0.07
     EDDAV:  cpu time   39.14: real time   39.14
 BZINTS: Fermi energy:  0.022618;120.000000 electrons
         Band energy:-265.166211;  BLOECHL correction: -0.027024
       DOS:  cpu time    0.04: real time    0.04
    --------------------------------------------
      LOOP:  cpu time   39.81: real time   39.81

 eigenvalue-minimisations  :   800
 total energy-change (2. order) :-0.3304140E-06  (-0.3409621E-07)
 number of electron     120.0000448 magnetization 
 augmentation part       50.8229660 magnetization 

 Free energy of the ion-electron system (eV)
  ---------------------------------------------------
  alpha Z        PSCENC =       574.70065014
  Ewald energy   TEWEN  =     22991.88939723
  -1/2 Hartree   DENC   =    -33450.37582873
  -exchange  EXHF       =         0.00000000
  -V(xc)+E(xc)   XCENC  =      -356.29471321
  PAW double counting   =      8304.69435324    -7575.58990654
  entropy T*S    EENTRO =         0.00000000
  eigenvalues    EBANDS =      -265.16621150
  atomic energy  EATOM  =      9716.95502315
  ---------------------------------------------------
  free energy    TOTEN  =       -59.18723621 eV

  energy without entropy =      -59.18723621  energy(sigma->0) =      -59.18723621


--------------------------------------------------------------------------------------------------------




 average (electrostatic) potential at core
  the test charge radii are     1.1199
  (the norm of the test charge is              1.0000)
       1 -51.0515       2 -51.5362       3 -51.5140       4 -51.0515       5 -51.5362
       6 -51.5140       7 -51.5140       8 -51.5362       9 -51.0515      10 -51.5140
      11 -51.5362      12 -51.0515
 
 
 
 E-fermi :   0.0226     XC(G=0):  -7.7992     alpha+bet : -6.1545


 k-point   1 :       0.0000    0.0000    0.0000
  band No.  band energies     occupation 
      1      -6.4811      2.00000
      2      -5.6876      2.00000
      3      -4.8514      2.00000
      4      -4.8008      2.00000
      5      -4.8008      2.00000
      6      -4.7789      2.00000
      7      -4.6127      2.00000
      8      -4.5508      2.00000
      9      -4.5508      2.00000
     10      -4.3299      2.00000
     11      -4.3298      2.00000
     12      -4.3235      2.00000
     13      -4.2822      2.00000
     14      -4.1316      2.00000
     15      -4.0293      2.00000
     16      -4.0293      2.00000
     17      -3.8331      2.00000
     18      -3.7294      2.00000
     19      -3.7294      2.00000
     20      -3.3216      2.00000
     21      -3.2267      2.00000
     22      -3.2267      2.00000
     23      -2.8795      2.00000
     24      -2.6663      2.00000
     25      -2.4704      2.00000
     26      -2.4704      2.00000
     27      -2.1872      2.00000
     28      -2.1872      2.00000
     29      -2.0586      2.00000
     30      -2.0586      2.00000
     31      -1.5868      2.00000
     32      -1.4530      2.00000
     33      -1.4530      2.00000
     34      -1.4035      2.00000
     35      -1.1551      2.00000
     36      -1.0491      2.00000
     37      -1.0491      2.00000
     38      -1.0380      2.00000
     39      -1.0317      2.00000
     40      -0.9155      2.00000
     41      -0.9155      2.00000
     42      -0.8165      2.00000
     43      -0.7444      2.00000
     44      -0.7444      2.00000
     45      -0.5534      2.00000
     46      -0.4152      2.00000
     47      -0.4152      2.00000
     48      -0.2751      2.00000
     49      -0.1231      2.00000
     50      -0.1231      2.00000
     51      -0.0938      2.00000
     52      -0.0938      2.00000
     53      -0.0886      2.00000
     54      -0.0886      2.00000
     55      -0.0148      2.00000
     56       0.0343      1.84565
     57       0.2077      0.00704
     58       0.2077     -0.63433
     59       0.2787      0.00000
     60       0.2787      0.00000
     61       0.3210      0.00000
     62       0.3210      0.00000
     63       0.3871      0.00000
     64       0.6130      0.00000
     65       0.6130      0.00000
     66       1.9761      0.00000
     67       2.9827      0.00000
     68       4.0487      0.00000
     69       4.0487      0.00000
     70       5.1743      0.00000
     71       5.5093      0.00000
     72       5.5093      0.00000

 k-point   2 :       0.1429    0.0000    0.0000
  band No.  band energies     occupation 
      1      -6.2516      2.00000
      2      -5.4801      2.00000
      3      -4.6982      2.00000
      4      -4.6898      2.00000
      5      -4.6667      2.00000
      6      -4.5995      2.00000
      7      -4.4834      2.00000
      8      -4.4663      2.00000
      9      -4.4637      2.00000
     10      -4.2079      2.00000
     11      -4.1735      2.00000
     12      -4.1678      2.00000
     13      -4.1592      2.00000
     14      -3.9727      2.00000
     15      -3.9623      2.00000
     16      -3.9527      2.00000
     17      -3.7432      2.00000
     18      -3.5949      2.00000
     19      -3.5788      2.00000
     20      -3.2641      2.00000
     21      -3.2333      2.00000
     22      -3.1931      2.00000
     23      -2.8629      2.00000
     24      -2.5702      2.00000
     25      -2.5011      2.00000
     26      -2.3942      2.00000
     27      -2.2957      2.00000
     28      -2.2129      2.00000
     29      -2.1868      2.00000
     30      -2.0887      2.00000
     31      -1.9729      2.00000
     32      -1.5419      2.00000
     33      -1.4804      2.00000
     34      -1.3203      2.00000
     35      -1.2949      2.00000
     36      -1.2495      2.00000
     37      -1.1797      2.00000
     38      -1.1439      2.00000
     39      -1.0276      2.00000
     40      -1.0256      2.00000
     41      -0.9460      2.00000
     42      -0.8702      2.00000
     43      -0.7672      2.00000
     44      -0.6508      2.00000
     45      -0.5914      2.00000
     46      -0.5847      2.00000
     47      -0.5163      2.00000
     48      -0.4924      2.00000
     49      -0.2884      2.00000
     50      -0.2720      2.00000
     51      -0.2470      2.00000
     52      -0.1737      2.00000
     53      -0.1391      2.00000
     54      -0.1373      2.00000
     55      -0.1289      2.00000
     56      -0.1142      2.02096
     57      -0.1024      1.96241
     58      -0.0033      1.70075
     59       0.0687      0.43327
     60       0.0844      0.02720
     61       0.1237     -0.03925
     62       0.2019      0.00000
     63       0.3367      0.00000
     64       0.3851      0.00000
     65       1.0390      0.00000
     66       2.5437      0.00000
     67       2.9429      0.00000
     68       3.6484      0.00000
     69       4.2586      0.00000
     70       4.7847      0.00000
     71       5.4112      0.00000
     72       5.7526      0.00000

 k-point   3 :       0.2857    0.0000    0.0000
  band No.  band energies     occupation 
      1      -5.6076      2.00000
      2      -4.9092      2.00000
      3      -4.4183      2.00000
      4      -4.3175      2.00000
      5      -4.2966      2.00000
      6      -4.2242      2.00000
      7      -4.1711      2.00000
      8      -4.1243      2.00000
      9      -4.0999      2.00000
     10      -3.8925      2.00000
     11      -3.8352      2.00000
     12      -3.7918      2.00000
     13      -3.7816      2.00000
     14      -3.7748      2.00000
     15      -3.7433      2.00000
     16      -3.5006      2.00000
     17      -3.4804      2.00000
     18      -3.2898      2.00000
     19      -3.2217      2.00000
     20      -3.1751      2.00000
     21      -3.1724      2.00000
     22      -3.1157      2.00000
     23      -3.0438      2.00000
     24      -2.5233      2.00000
     25      -2.5003      2.00000
     26      -2.3532      2.00000
     27      -2.3448      2.00000
     28      -2.3237      2.00000
     29      -2.3171      2.00000
     30      -2.1964      2.00000
     31      -2.0926      2.00000
     32      -2.0562      2.00000
     33      -1.7563      2.00000
     34      -1.6997      2.00000
     35      -1.5939      2.00000
     36      -1.5597      2.00000
     37      -1.5196      2.00000
     38      -1.3924      2.00000
     39      -1.3363      2.00000
     40      -1.2552      2.00000
     41      -1.1227      2.00000
     42      -1.0183      2.00000
     43      -0.9010      2.00000
     44      -0.8499      2.00000
     45      -0.8496      2.00000
     46      -0.8484      2.00000
     47      -0.8402      2.00000
     48      -0.8183      2.00000
     49      -0.7401      2.00000
     50      -0.6674      2.00000
     51      -0.5606      2.00000
     52      -0.5052      2.00000
     53      -0.4740      2.00000
     54      -0.4542      2.00000
     55      -0.4211      2.00000
     56      -0.4114      2.00000
     57      -0.2841      2.00000
     58      -0.2786      2.00000
     59      -0.1790      2.16296
     60      -0.0821      2.20943
     61      -0.0658      1.93946
     62       0.1809      0.00000
     63       0.1874      0.00000
     64       0.7467      0.00000
     65       1.0390      0.00000
     66       2.1268      0.00000
     67       2.2588      0.00000
     68       3.6011      0.00000
     69       3.6834      0.00000
     70       4.9012      0.00000
     71       5.0341      0.00000
     72       6.1539      0.00000

 k-point   4 :       0.4286    0.0000    0.0000
  band No.  band energies     occupation 
      1      -4.7530      2.00000
      2      -4.2636      2.00000
      3      -4.1745      2.00000
      4      -3.9181      2.00000
      5      -3.8781      2.00000
      6      -3.8598      2.00000
      7      -3.7090      2.00000
      8      -3.7007      2.00000
      9      -3.5992      2.00000
     10      -3.5111      2.00000
     11      -3.5033      2.00000
     12      -3.4798      2.00000
     13      -3.4374      2.00000
     14      -3.3922      2.00000
     15      -3.3836      2.00000
     16      -3.3409      2.00000
     17      -3.2566      2.00000
     18      -3.2391      2.00000
     19      -3.2059      2.00000
     20      -3.1815      2.00000
     21      -3.0804      2.00000
     22      -2.8816      2.00000
     23      -2.8370      2.00000
     24      -2.7889      2.00000
     25      -2.7485      2.00000
     26      -2.7290      2.00000
     27      -2.6478      2.00000
     28      -2.5157      2.00000
     29      -2.3772      2.00000
     30      -2.3082      2.00000
     31      -2.0797      2.00000
     32      -2.0587      2.00000
     33      -1.9765      2.00000
     34      -1.9685      2.00000
     35      -1.6920      2.00000
     36      -1.6826      2.00000
     37      -1.5993      2.00000
     38      -1.4769      2.00000
     39      -1.4745      2.00000
     40      -1.4135      2.00000
     41      -1.4050      2.00000
     42      -1.3958      2.00000
     43      -1.3358      2.00000
     44      -1.3261      2.00000
     45      -1.2756      2.00000
     46      -1.2071      2.00000
     47      -1.0906      2.00000
     48      -1.0546      2.00000
     49      -1.0400      2.00000
     50      -0.9905      2.00000
     51      -0.9567      2.00000
     52      -0.9526      2.00000
     53      -0.8387      2.00000
     54      -0.8080      2.00000
     55      -0.6978      2.00000
     56      -0.6852      2.00000
     57      -0.6157      2.00000
     58      -0.2875      2.00000
     59      -0.2207      2.00000
     60      -0.2207      2.00000
     61      -0.1699      2.10218
     62       0.1593      0.00000
     63       0.1702      0.00000
     64       0.6583      0.00000
     65       0.6789      0.00000
     66       1.8452      0.00000
     67       1.8584      0.00000
     68       3.2371      0.00000
     69       3.3823      0.00000
     70       4.8273      0.00000
     71       5.0032      0.00000
     72       6.2070      0.00000

 k-point   5 :       0.1429    0.1429    0.0000
  band No.  band energies     occupation 
      1      -6.0366      2.00000
      2      -5.3081      2.00000
      3      -4.6090      2.00000
      4      -4.5573      2.00000
      5      -4.5573      2.00000
      6      -4.5180      2.00000
      7      -4.3910      2.00000
      8      -4.3910      2.00000
      9      -4.3117      2.00000
     10      -4.1286      2.00000
     11      -4.0524      2.00000
     12      -4.0523      2.00000
     13      -3.9602      2.00000
     14      -3.9376      2.00000
     15      -3.9361      2.00000
     16      -3.9361      2.00000
     17      -3.4882      2.00000
     18      -3.4479      2.00000
     19      -3.4479      2.00000
     20      -3.2297      2.00000
     21      -3.2297      2.00000
     22      -3.1116      2.00000
     23      -2.8158      2.00000
     24      -2.4906      2.00000
     25      -2.4852      2.00000
     26      -2.3721      2.00000
     27      -2.2853      2.00000
     28      -2.2492      2.00000
     29      -2.2492      2.00000
     30      -2.1428      2.00000
     31      -2.0918      2.00000
     32      -1.6732      2.00000
     33      -1.6650      2.00000
     34      -1.3638      2.00000
     35      -1.3638      2.00000
     36      -1.2846      2.00000
     37      -1.2340      2.00000
     38      -1.1470      2.00000
     39      -1.0752      2.00000
     40      -1.0748      2.00000
     41      -1.0445      2.00000
     42      -1.0445      2.00000
     43      -0.9646      2.00000
     44      -0.8829      2.00000
     45      -0.6783      2.00000
     46      -0.6783      2.00000
     47      -0.6026      2.00000
     48      -0.6020      2.00000
     49      -0.5216      2.00000
     50      -0.5216      2.00000
     51      -0.4531      2.00000
     52      -0.4123      2.00000
     53      -0.4123      2.00000
     54      -0.1922      2.00000
     55      -0.1139      2.00000
     56      -0.0647      2.00520
     57      -0.0647      1.95212
     58      -0.0392      1.91569
     59       0.0413      0.99715
     60       0.0413      0.31540
     61       0.0960      0.01050
     62       0.1919      0.00000
     63       0.2418      0.00000
     64       0.2418      0.00000
     65       1.3823      0.00000
     66       2.9614      0.00000
     67       3.6279      0.00000
     68       3.6279      0.00000
     69       4.1583      0.00000
     70       4.7430      0.00000
     71       4.7430      0.00000
     72       5.6553      0.00000

 k-point   6 :       0.2857    0.1429    0.0000
  band No.  band energies     occupation 
      1      -5.4399      2.00000
      2      -4.8607      2.00000
      3      -4.3171      2.00000
      4      -4.3082      2.00000
      5      -4.3017      2.00000
      6      -4.2229      2.00000
      7      -4.1985      2.00000
      8      -4.1366      2.00000
      9      -3.9032      2.00000
     10      -3.8824      2.00000
     11      -3.8680      2.00000
     12      -3.8501      2.00000
     13      -3.8111      2.00000
     14      -3.7364      2.00000
     15      -3.6744      2.00000
     16      -3.5040      2.00000
     17      -3.2457      2.00000
     18      -3.1765      2.00000
     19      -3.1145      2.00000
     20      -3.0809      2.00000
     21      -2.9957      2.00000
     22      -2.9054      2.00000
     23      -2.7829      2.00000
     24      -2.4793      2.00000
     25      -2.3773      2.00000
     26      -2.3105      2.00000
     27      -2.2990      2.00000
     28      -2.2688      2.00000
     29      -2.2491      2.00000
     30      -2.2099      2.00000
     31      -2.1551      2.00000
     32      -2.0929      2.00000
     33      -1.8950      2.00000
     34      -1.8104      2.00000
     35      -1.7209      2.00000
     36      -1.5811      2.00000
     37      -1.5646      2.00000
     38      -1.4822      2.00000
     39      -1.3949      2.00000
     40      -1.3672      2.00000
     41      -1.2248      2.00000
     42      -1.2047      2.00000
     43      -1.2038      2.00000
     44      -1.1804      2.00000
     45      -1.0822      2.00000
     46      -0.9907      2.00000
     47      -0.9237      2.00000
     48      -0.8853      2.00000
     49      -0.8516      2.00000
     50      -0.7991      2.00000
     51      -0.6676      2.00000
     52      -0.5788      2.00000
     53      -0.4736      2.00000
     54      -0.4517      2.00000
     55      -0.3509      2.00000
     56      -0.1973      2.00000
     57      -0.1121      2.00000
     58      -0.0976      2.00000
     59      -0.0933      2.07534
     60       0.0126      1.76870
     61       0.0596      0.33181
     62       0.1029      0.00000
     63       0.1126      0.00000
     64       0.7426      0.00000
     65       1.6984      0.00000
     66       2.2808      0.00000
     67       2.6191      0.00000
     68       3.7938      0.00000
     69       3.9383      0.00000
     70       4.9646      0.00000
     71       5.1025      0.00000
     72       5.2247      0.00000

 k-point   7 :       0.4286    0.1429    0.0000
  band No.  band energies     occupation 
      1      -4.6676      2.00000
      2      -4.3583      2.00000
      3      -4.2132      2.00000
      4      -4.0810      2.00000
      5      -4.0592      2.00000
      6      -3.9095      2.00000
      7      -3.8806      2.00000
      8      -3.8766      2.00000
      9      -3.7201      2.00000
     10      -3.7062      2.00000
     11      -3.6498      2.00000
     12      -3.5324      2.00000
     13      -3.4303      2.00000
     14      -3.3991      2.00000
     15      -3.2705      2.00000
     16      -3.2265      2.00000
     17      -3.1501      2.00000
     18      -3.1440      2.00000
     19      -2.9664      2.00000
     20      -2.9062      2.00000
     21      -2.8131      2.00000
     22      -2.7410      2.00000
     23      -2.6606      2.00000
     24      -2.6308      2.00000
     25      -2.5928      2.00000
     26      -2.5041      2.00000
     27      -2.4731      2.00000
     28      -2.3773      2.00000
     29      -2.3002      2.00000
     30      -2.2611      2.00000
     31      -2.1965      2.00000
     32      -2.1113      2.00000
     33      -2.0160      2.00000
     34      -1.9987      2.00000
     35      -1.8210      2.00000
     36      -1.7750      2.00000
     37      -1.7726      2.00000
     38      -1.7504      2.00000
     39      -1.6726      2.00000
     40      -1.6534      2.00000
     41      -1.6316      2.00000
     42      -1.5288      2.00000
     43      -1.4373      2.00000
     44      -1.2939      2.00000
     45      -1.2739      2.00000
     46      -1.2260      2.00000
     47      -1.0620      2.00000
     48      -1.0098      2.00000
     49      -0.9054      2.00000
     50      -0.8234      2.00000
     51      -0.8084      2.00000
     52      -0.7918      2.00000
     53      -0.5818      2.00000
     54      -0.5136      2.00000
     55      -0.4451      2.00000
     56      -0.3577      2.00000
     57      -0.3355      2.00000
     58      -0.2978      2.00000
     59      -0.1391      2.00000
     60      -0.0620      2.00000
     61      -0.0075      1.91320
     62       0.0453      0.00000
     63       0.1773      0.00000
     64       0.6060      0.00000
     65       0.8252      0.00000
     66       1.8356      0.00000
     67       1.9037      0.00000
     68       3.2603      0.00000
     69       3.4593      0.00000
     70       4.8514      0.00000
     71       5.1544      0.00000
     72       6.2530      0.00000

 k-point   8 :       0.2857    0.2857    0.0000
  band No.  band energies     occupation 
      1      -5.0100      2.00000
      2      -4.7493      2.00000
      3      -4.4439      2.00000
      4      -4.2417      2.00000
      5      -4.2200      2.00000
      6      -4.2200      2.00000
      7      -4.0849      2.00000
      8      -4.0849      2.00000
      9      -3.9087      2.00000
     10      -3.8635      2.00000
     11      -3.8019      2.00000
     12      -3.8019      2.00000
     13      -3.4758      2.00000
     14      -3.3958      2.00000
     15      -3.3958      2.00000
     16      -3.1442      2.00000
     17      -3.1441      2.00000
     18      -3.1284      2.00000
     19      -2.8321      2.00000
     20      -2.8321      2.00000
     21      -2.8048      2.00000
     22      -2.6597      2.00000
     23      -2.4393      2.00000
     24      -2.2938      2.00000
     25      -2.2645      2.00000
     26      -2.2606      2.00000
     27      -2.2328      2.00000
     28      -2.2328      2.00000
     29      -2.2206      2.00000
     30      -2.1977      2.00000
     31      -2.0791      2.00000
     32      -2.0791      2.00000
     33      -2.0264      2.00000
     34      -1.9809      2.00000
     35      -1.9628      2.00000
     36      -1.7833      2.00000
     37      -1.7833      2.00000
     38      -1.7661      2.00000
     39      -1.6575      2.00000
     40      -1.6575      2.00000
     41      -1.6078      2.00000
     42      -1.5732      2.00000
     43      -1.3603      2.00000
     44      -1.3134      2.00000
     45      -1.3133      2.00000
     46      -1.2924      2.00000
     47      -0.8831      2.00000
     48      -0.7477      2.00000
     49      -0.7477      2.00000
     50      -0.7291      2.00000
     51      -0.6674      2.00000
     52      -0.5947      2.00000
     53      -0.4093      2.00000
     54      -0.4093      2.00000
     55      -0.4052      2.00000
     56      -0.2694      2.00000
     57      -0.0532      2.00000
     58      -0.0137      2.00000
     59      -0.0137      1.99558
     60       0.0086      1.99006
     61       0.0493      0.00561
     62       0.0494      0.00000
     63       0.0891      0.00000
     64       0.9826      0.00000
     65       2.7928      0.00000
     66       2.8770      0.00000
     67       2.8770      0.00000
     68       3.4459      0.00000
     69       3.4459      0.00000
     70       4.0409      0.00000
     71       4.0409      0.00000
     72       4.5934      0.00000

 k-point   9 :       0.4286    0.2857    0.0000
  band No.  band energies     occupation 
      1      -4.6218      2.00000
      2      -4.6097      2.00000
      3      -4.4300      2.00000
      4      -4.4255      2.00000
      5      -4.3115      2.00000
      6      -4.1135      2.00000
      7      -4.0560      2.00000
      8      -4.0427      2.00000
      9      -3.6971      2.00000
     10      -3.6620      2.00000
     11      -3.5729      2.00000
     12      -3.4568      2.00000
     13      -3.3400      2.00000
     14      -3.2286      2.00000
     15      -3.0647      2.00000
     16      -3.0405      2.00000
     17      -2.9689      2.00000
     18      -2.8569      2.00000
     19      -2.8091      2.00000
     20      -2.6896      2.00000
     21      -2.6659      2.00000
     22      -2.6627      2.00000
     23      -2.6317      2.00000
     24      -2.5052      2.00000
     25      -2.4846      2.00000
     26      -2.4121      2.00000
     27      -2.3893      2.00000
     28      -2.3802      2.00000
     29      -2.2754      2.00000
     30      -2.1594      2.00000
     31      -2.1174      2.00000
     32      -2.0890      2.00000
     33      -2.0823      2.00000
     34      -2.0407      2.00000
     35      -1.9926      2.00000
     36      -1.9382      2.00000
     37      -1.8388      2.00000
     38      -1.8024      2.00000
     39      -1.7344      2.00000
     40      -1.6265      2.00000
     41      -1.4481      2.00000
     42      -1.4448      2.00000
     43      -1.3691      2.00000
     44      -1.3452      2.00000
     45      -1.2646      2.00000
     46      -1.0133      2.00000
     47      -0.9300      2.00000
     48      -0.7456      2.00000
     49      -0.6864      2.00000
     50      -0.6491      2.00000
     51      -0.5960      2.00000
     52      -0.5401      2.00000
     53      -0.3393      2.00000
     54      -0.2397      2.00000
     55      -0.1752      2.00000
     56      -0.1574      2.00000
     57      -0.1528      2.00000
     58      -0.1391      2.00000
     59      -0.0662      2.00000
     60      -0.0632      2.00000
     61       0.0395      0.15532
     62       0.0506      0.00000
     63       0.4774      0.00000
     64       1.1633      0.00000
     65       1.4132      0.00000
     66       1.8397      0.00000
     67       2.0431      0.00000
     68       3.1168      0.00000
     69       3.5991      0.00000
     70       4.1087      0.00000
     71       4.1424      0.00000
     72       5.1332      0.00000

 k-point  10 :       0.4286    0.4286    0.0000
  band No.  band energies     occupation 
      1      -4.7339      2.00000
      2      -4.7281      2.00000
      3      -4.6716      2.00000
      4      -4.6716      2.00000
      5      -4.2783      2.00000
      6      -4.2286      2.00000
      7      -4.1870      2.00000
      8      -4.1870      2.00000
      9      -3.6099      2.00000
     10      -3.5990      2.00000
     11      -3.4936      2.00000
     12      -3.4936      2.00000
     13      -3.0080      2.00000
     14      -2.9425      2.00000
     15      -2.9425      2.00000
     16      -2.8913      2.00000
     17      -2.7982      2.00000
     18      -2.7982      2.00000
     19      -2.6690      2.00000
     20      -2.6456      2.00000
     21      -2.6238      2.00000
     22      -2.5995      2.00000
     23      -2.5995      2.00000
     24      -2.5349      2.00000
     25      -2.5349      2.00000
     26      -2.4739      2.00000
     27      -2.4705      2.00000
     28      -2.4688      2.00000
     29      -2.2660      2.00000
     30      -2.2660      2.00000
     31      -2.2101      2.00000
     32      -2.1431      2.00000
     33      -2.0849      2.00000
     34      -2.0763      2.00000
     35      -2.0406      2.00000
     36      -2.0406      2.00000
     37      -1.5882      2.00000
     38      -1.5602      2.00000
     39      -1.5204      2.00000
     40      -1.5204      2.00000
     41      -1.4349      2.00000
     42      -1.3687      2.00000
     43      -1.3687      2.00000
     44      -1.2768      2.00000
     45      -0.9482      2.00000
     46      -0.6468      2.00000
     47      -0.6468      2.00000
     48      -0.6095      2.00000
     49      -0.5766      2.00000
     50      -0.5558      2.00000
     51      -0.5558      2.00000
     52      -0.3684      2.00000
     53      -0.2106      2.00000
     54      -0.1734      2.00000
     55      -0.1734      2.00000
     56      -0.1557      2.00000
     57      -0.0750      2.00000
     58      -0.0593      2.00000
     59      -0.0593      2.00000
     60       0.0192      2.00000
     61       0.6570      0.00000
     62       0.8132      0.00000
     63       1.0610      0.00000
     64       1.9730      0.00000
     65       2.0195      0.00000
     66       2.0195      0.00000
     67       2.3172      0.00000
     68       2.3172      0.00000
     69       2.4319      0.00000
     70       2.4320      0.00000
     71       3.2787      0.00000
     72       3.6984      0.00000


--------------------------------------------------------------------------------------------------------


 soft charge-density along one line, spin component           1
         0         1         2         3         4         5         6         7         8         9
 total charge-density along one line
 
 pseudopotential strength for first ion, spin component:           1
-11.498   0.000   0.000   0.000   0.000   0.125   0.000   0.000
  0.000 -11.398   0.000   0.000   0.000   0.000   0.109   0.000
  0.000   0.000 -11.369   0.000   0.000   0.000   0.000   0.104
  0.000   0.000   0.000 -11.398   0.000   0.000   0.000   0.000
  0.000   0.000   0.000   0.000 -11.441   0.000   0.000   0.000
  0.125   0.000   0.000   0.000   0.000   0.321   0.000   0.000
  0.000   0.109   0.000   0.000   0.000   0.000   0.324   0.000
  0.000   0.000   0.104   0.000   0.000   0.000   0.000   0.324
  0.000   0.000   0.000   0.109   0.000   0.000   0.000   0.000
  0.000   0.000   0.000   0.000   0.117   0.000   0.000   0.000
  0.000   0.000  -0.021   0.000   0.000   0.000   0.000   0.003
  0.000   0.000   0.002   0.000   0.000   0.000   0.000   0.000
  0.000  -0.016   0.000   0.000   0.000   0.000   0.003   0.000
  0.000   0.000  -0.019   0.000   0.000   0.000   0.000   0.003
  0.000   0.000   0.000  -0.016   0.000   0.000   0.000   0.000
  0.000   0.013   0.000   0.000   0.000   0.000  -0.002   0.000
  0.000   0.000   0.015   0.000   0.000   0.000   0.000  -0.002
  0.000   0.000   0.000   0.013   0.000   0.000   0.000   0.000
 total augmentation occupancy for first ion, spin component:           1
  1.650   0.000   0.000   0.000   0.000   0.184   0.000   0.000   0.000   0.000   0.000   0.000   0.000   0.000   0.000   0.000
  0.000   1.824   0.000   0.000   0.000   0.000   0.082   0.000   0.000   0.000   0.000   0.000  -0.011   0.000   0.000  -0.021
  0.000   0.000   1.862   0.000   0.000   0.000   0.000   0.058   0.000   0.000   0.017  -0.045   0.000   0.008   0.000   0.000
  0.000   0.000   0.000   1.824   0.000   0.000   0.000   0.000   0.082   0.000   0.000   0.000   0.000   0.000  -0.011   0.000
  0.000   0.000   0.000   0.000   1.859   0.000   0.000   0.000   0.000   0.046   0.000   0.000   0.000   0.000   0.000   0.000
  0.184   0.000   0.000   0.000   0.000   0.104   0.000   0.000   0.000   0.000   0.000   0.000   0.000   0.000   0.000   0.000
  0.000   0.082   0.000   0.000   0.000   0.000   0.096   0.000   0.000   0.000   0.000   0.000   0.052   0.000   0.000  -0.002
  0.000   0.000   0.058   0.000   0.000   0.000   0.000   0.092   0.000   0.000  -0.082   0.020   0.000   0.037   0.000   0.000
  0.000   0.000   0.000   0.082   0.000   0.000   0.000   0.000   0.096   0.000   0.000   0.000   0.000   0.000   0.052   0.000
  0.000   0.000   0.000   0.000   0.046   0.000   0.000   0.000   0.000   0.101   0.000   0.000   0.000   0.000   0.000   0.000
  0.000   0.000   0.017   0.000   0.000   0.000   0.000  -0.082   0.000   0.000   0.959  -0.309   0.000   0.096   0.000   0.000
  0.000   0.000  -0.045   0.000   0.000   0.000   0.000   0.020   0.000   0.000  -0.309   0.114   0.000  -0.046   0.000   0.000
  0.000  -0.011   0.000   0.000   0.000   0.000   0.052   0.000   0.000   0.000   0.000   0.000   0.098   0.000   0.000  -0.002
  0.000   0.000   0.008   0.000   0.000   0.000   0.000   0.037   0.000   0.000   0.096  -0.046   0.000   0.060   0.000   0.000
  0.000   0.000   0.000  -0.011   0.000   0.000   0.000   0.000   0.052   0.000   0.000   0.000   0.000   0.000   0.098   0.000
  0.000  -0.021   0.000   0.000   0.000   0.000  -0.002   0.000   0.000   0.000   0.000   0.000  -0.002   0.000   0.000   0.000
  0.000   0.000  -0.028   0.000   0.000   0.000   0.000  -0.001   0.000   0.000  -0.005   0.003   0.000  -0.001   0.000   0.000
  0.000   0.000   0.000  -0.021   0.000   0.000   0.000   0.000  -0.002   0.000   0.000   0.000   0.000   0.000  -0.002   0.000


------------------------ aborting loop because EDIFF is reached ----------------------------------------


    CHARGE:  cpu time    1.70: real time    1.69
    FORLOC:  cpu time    0.06: real time    0.06
    FORNL :  cpu time   25.89: real time   25.89
    STRESS:  cpu time   69.06: real time   69.06
    FORCOR:  cpu time    0.58: real time    0.59
    FORHAR:  cpu time    0.20: real time    0.19
    MIXING:  cpu time    0.02: real time    0.02

  FORCE on cell =-STRESS in cart. coord.  units (eV):
  Direction    XX          YY          ZZ          XY          YZ          ZX
  --------------------------------------------------------------------------------------
  Alpha Z   574.70065   574.70065   574.70065
  Ewald   29574.80633 29574.80633-36157.73710     0.00000     0.00000     0.00000
  Hartree 32443.76324 32443.76324-31437.05085     0.00000     0.00000     0.00000
  E(xc)    -627.20568  -627.20568  -629.17398     0.00000     0.00000     0.00000
  Local  -63468.45904-63468.45904 66134.07531     0.00000     0.00000     0.00000
  n-local  -647.48277  -639.65556  -646.62188     8.93456     0.00000     0.00000
  augment   513.76268   513.76267   518.77221    -0.00006    -0.00005    -0.00005
  Kinetic  1638.99672  1616.21960  1642.26500     7.18033     0.00000     0.00000
  Fock        0.00000     0.00000     0.00000     0.00000     0.00000     0.00000
  -------------------------------------------------------------------------------------
  Total      -4.59282    -4.59282    -0.77062     0.00000     0.00000     0.00000
  in kB     -21.57044   -21.57044    -3.61928     0.00000     0.00000     0.00000
  external pressure =      -15.59 kB  Pullay stress =        0.00 kB


 VOLUME and BASIS-vectors are now :
 -----------------------------------------------------------------------------
  energy-cutoff  :      415.00
  volume of cell :      341.14
      direct lattice vectors                 reciprocal lattice vectors
     3.951020398  0.000000000  0.000000000     0.253099174  0.000000000  0.000000000
     0.000000000  3.951020398  0.000000000     0.000000000  0.253099174  0.000000000
     0.000000000  0.000000000 21.853061195     0.000000000  0.000000000  0.045760179

  length of vectors
     3.951020398  3.951020398 21.853061195     0.253099174  0.253099174  0.045760179


 FORCES acting on ions
    electron-ion (+dipol)            ewald-force                    non-local-force                 convergence-correction
 -----------------------------------------------------------------------------------------------
   0.109E-13 -.142E-13 0.262E+04   0.550E-14 -.120E-13 -.261E+04   -.258E-25 0.000E+00 -.179E+01   -.320E-14 0.588E-13 -.127E-01
   0.253E-13 0.103E-13 0.529E+03   -.408E-14 -.183E-13 -.530E+03   -.517E-25 -.452E-25 0.102E+00   0.352E-13 0.327E-13 -.675E-02
   0.255E-13 0.156E-13 -.159E+04   0.174E-13 -.181E-13 0.159E+04   -.168E-24 -.103E-24 -.171E+00   0.726E-14 0.238E-13 0.156E-01
   -.599E-13 -.537E-13 0.262E+04   -.239E-13 0.225E-14 -.261E+04   -.242E-25 0.000E+00 -.179E+01   -.189E-13 0.550E-13 -.127E-01
   -.615E-13 -.269E-12 0.529E+03   -.296E-13 -.472E-14 -.530E+03   -.258E-25 0.000E+00 0.102E+00   0.916E-14 0.420E-13 -.675E-02
   -.483E-13 0.484E-12 -.159E+04   -.583E-14 -.564E-14 0.159E+04   -.517E-25 0.000E+00 -.171E+00   -.555E-14 0.404E-13 0.156E-01
   -.758E-13 0.503E-13 0.159E+04   0.272E-13 0.291E-14 -.159E+04   0.258E-25 0.000E+00 0.171E+00   -.178E-14 0.381E-13 -.156E-01
   -.270E-13 0.226E-13 -.529E+03   0.279E-13 0.156E-14 0.530E+03   0.258E-25 0.000E+00 -.102E+00   -.136E-13 0.431E-13 0.673E-02
   -.617E-13 0.214E-13 -.262E+04   0.668E-14 0.422E-15 0.261E+04   -.775E-25 0.000E+00 0.179E+01   0.237E-14 0.433E-13 0.127E-01
   0.108E-13 -.348E-13 0.159E+04   -.103E-14 0.177E-13 -.159E+04   0.517E-25 0.000E+00 0.171E+00   0.256E-13 0.628E-13 -.156E-01
   0.187E-13 -.218E-12 -.529E+03   -.277E-14 0.175E-13 0.530E+03   0.517E-25 0.388E-25 -.102E+00   0.174E-13 0.584E-13 0.673E-02
   0.291E-13 0.125E-12 -.262E+04   -.227E-13 0.147E-13 0.261E+04   0.194E-25 0.000E+00 0.179E+01   0.163E-13 0.441E-13 0.127E-01
 -----------------------------------------------------------------------------------------------
   -.214E-12 0.140E-12 -.552E-04   -.523E-14 -.173E-14 -.909E-12   -.250E-24 -.110E-24 -.311E-14   0.703E-13 0.542E-12 -.607E-04
 
 
 POSITION                                       TOTAL-FORCE (eV/Angst)
 -----------------------------------------------------------------------------------
      0.00000      0.00000      0.01345         0.000000      0.000000      0.014782
      0.00000      0.00000      3.95015         0.000000      0.000000      0.002051
      0.00000      0.00000      7.90782         0.000000      0.000000     -0.008494
      1.97551      1.97551      0.01345         0.000000      0.000000      0.014782
      1.97551      1.97551      3.95015         0.000000      0.000000      0.002051
      1.97551      1.97551      7.90782         0.000000      0.000000     -0.008494
      1.97551      0.00000      1.96973         0.000000      0.000000      0.008494
      1.97551      0.00000      5.92740         0.000000      0.000000     -0.002051
      1.97551      0.00000      9.86410         0.000000      0.000000     -0.014782
      0.00000      1.97551      1.96973         0.000000      0.000000      0.008494
      0.00000      1.97551      5.92740         0.000000      0.000000     -0.002051
      0.00000      1.97551      9.86410         0.000000      0.000000     -0.014782
 -----------------------------------------------------------------------------------
    total drift:                                0.000000      0.000000     -0.000116


--------------------------------------------------------------------------------------------------------



  FREE ENERGIE OF THE ION-ELECTRON SYSTEM (eV)
  ---------------------------------------------------
  free  energy   TOTEN  =       -59.187236 eV

  energy  without entropy=      -59.187236  energy(sigma->0) =      -59.187236
 
 d Force = 0.1471494E-03[ 0.123E-03, 0.171E-03]  d Energy = 0.1410406E-03 0.611E-05
 d Force =-0.2255817E+02[-0.226E+02,-0.226E+02]  d Ewald  =-0.2255817E+02 0.639E-07


--------------------------------------------------------------------------------------------------------


    POTLOK:  cpu time    0.63: real time    0.63


--------------------------------------------------------------------------------------------------------




--------------------------------------------------------------------------------------------------------


    WAVPRE:  cpu time    0.13: real time    0.13
    FEWALD:  cpu time    0.00: real time    0.00
    ORTHCH:  cpu time    8.51: real time    8.51
     LOOP+:  cpu time  659.61: real time  659.70


----------------------------------------- Iteration   11(   1)  ---------------------------------------


    POTLOK:  cpu time    0.55: real time    0.55
    SETDIJ:  cpu time    0.08: real time    0.07
     EDDAV:  cpu time   58.75: real time   58.75
 BZINTS: Fermi energy:  0.022947;120.000000 electrons
         Band energy:-265.290874;  BLOECHL correction: -0.026898
       DOS:  cpu time    0.04: real time    0.04
    CHARGE:  cpu time    1.70: real time    1.69
    MIXING:  cpu time    0.02: real time    0.02
    --------------------------------------------
      LOOP:  cpu time   61.12: real time   61.13

 eigenvalue-minimisations  :  1440
 total energy-change (2. order) : 0.6390760E-03  (-0.3488148E-01)
 number of electron     120.0000446 magnetization 
 augmentation part       50.8219945 magnetization 

 Broyden mixing:
  rms(total) = 0.77592E-02    rms(broyden)= 0.77560E-02
  rms(prec ) = 0.92900E-02
  weight for this iteration     100.00

 Free energy of the ion-electron system (eV)
  ---------------------------------------------------
  alpha Z        PSCENC =       574.70065014
  Ewald energy   TEWEN  =     23037.03207953
  -1/2 Hartree   DENC   =    -33495.41071209
  -exchange  EXHF       =         0.00000000
  -V(xc)+E(xc)   XCENC  =      -356.27717749
  PAW double counting   =      8304.69431761    -7575.58990403
  entropy T*S    EENTRO =         0.00000000
  eigenvalues    EBANDS =      -265.29087364
  atomic energy  EATOM  =      9716.95502315
  ---------------------------------------------------
  free energy    TOTEN  =       -59.18659681 eV

  energy without entropy =      -59.18659681  energy(sigma->0) =      -59.18659681


--------------------------------------------------------------------------------------------------------




----------------------------------------- Iteration   11(   2)  ---------------------------------------


    POTLOK:  cpu time    0.55: real time    0.55
    SETDIJ:  cpu time    0.07: real time    0.07
     EDDAV:  cpu time   80.25: real time   80.25
 BZINTS: Fermi energy:  0.029409;120.000000 electrons
         Band energy:-264.572376;  BLOECHL correction: -0.027781
       DOS:  cpu time    0.04: real time    0.04
    CHARGE:  cpu time    1.72: real time    1.72
    MIXING:  cpu time    0.02: real time    0.02
    --------------------------------------------
      LOOP:  cpu time   82.65: real time   82.65

 eigenvalue-minimisations  :  2136
 total energy-change (2. order) :-0.2198088E-02  (-0.1417343E-02)
 number of electron     120.0000446 magnetization 
 augmentation part       50.8171905 magnetization 

 Broyden mixing:
  rms(total) = 0.31190E-01    rms(broyden)= 0.31187E-01
  rms(prec ) = 0.47884E-01
  weight for this iteration     100.00

 eigenvalues of (default mixing * dielectric matrix)
  average eigenvalue GAMMA=   0.1528
  0.1528

 Free energy of the ion-electron system (eV)
  ---------------------------------------------------
  alpha Z        PSCENC =       574.70065014
  Ewald energy   TEWEN  =     23037.03207953
  -1/2 Hartree   DENC   =    -33496.11668322
  -exchange  EXHF       =         0.00000000
  -V(xc)+E(xc)   XCENC  =      -356.27937409
  PAW double counting   =      8304.87140123    -7575.77951539
  entropy T*S    EENTRO =         0.00000000
  eigenvalues    EBANDS =      -264.57237625
  atomic energy  EATOM  =      9716.95502315
  ---------------------------------------------------
  free energy    TOTEN  =       -59.18879490 eV

  energy without entropy =      -59.18879490  energy(sigma->0) =      -59.18879490


--------------------------------------------------------------------------------------------------------




----------------------------------------- Iteration   11(   3)  ---------------------------------------


    POTLOK:  cpu time    0.55: real time    0.55
    SETDIJ:  cpu time    0.07: real time    0.07
     EDDAV:  cpu time   71.57: real time   71.58
 BZINTS: Fermi energy:  0.023211;120.000000 electrons
         Band energy:-265.238930;  BLOECHL correction: -0.026802
       DOS:  cpu time    0.04: real time    0.04
    CHARGE:  cpu time    1.76: real time    1.76
    MIXING:  cpu time    0.02: real time    0.02
    --------------------------------------------
      LOOP:  cpu time   74.01: real time   74.02

 eigenvalue-minimisations  :  1856
 total energy-change (2. order) : 0.1239574E-02  (-0.3997279E-03)
 number of electron     120.0000447 magnetization 
 augmentation part       50.8227840 magnetization 

 Broyden mixing:
  rms(total) = 0.10595E-01    rms(broyden)= 0.10589E-01
  rms(prec ) = 0.13227E-01
  weight for this iteration     100.00

 eigenvalues of (default mixing * dielectric matrix)
  average eigenvalue GAMMA=   0.2781
  0.1049  0.4513

 Free energy of the ion-electron system (eV)
  ---------------------------------------------------
  alpha Z        PSCENC =       574.70065014
  Ewald energy   TEWEN  =     23037.03207953
  -1/2 Hartree   DENC   =    -33495.44808346
  -exchange  EXHF       =         0.00000000
  -V(xc)+E(xc)   XCENC  =      -356.27901293
  PAW double counting   =      8304.83884641    -7575.74812863
  entropy T*S    EENTRO =         0.00000000
  eigenvalues    EBANDS =      -265.23892953
  atomic energy  EATOM  =      9716.95502315
  ---------------------------------------------------
  free energy    TOTEN  =       -59.18755532 eV

  energy without entropy =      -59.18755532  energy(sigma->0) =      -59.18755532


--------------------------------------------------------------------------------------------------------




----------------------------------------- Iteration   11(   4)  ---------------------------------------


    POTLOK:  cpu time    0.56: real time    0.55
    SETDIJ:  cpu time    0.07: real time    0.07
     EDDAV:  cpu time   78.67: real time   78.68
 BZINTS: Fermi energy:  0.023189;120.000000 electrons
         Band energy:-265.256939;  BLOECHL correction: -0.026990
       DOS:  cpu time    0.04: real time    0.04
    CHARGE:  cpu time    1.70: real time    1.70
    MIXING:  cpu time    0.02: real time    0.02
    --------------------------------------------
      LOOP:  cpu time   81.06: real time   81.07

 eigenvalue-minimisations  :  2088
 total energy-change (2. order) : 0.3798573E-04  (-0.4433156E-04)
 number of electron     120.0000446 magnetization 
 augmentation part       50.8223129 magnetization 

 Broyden mixing:
  rms(total) = 0.54522E-02    rms(broyden)= 0.54512E-02
  rms(prec ) = 0.60821E-02
  weight for this iteration     100.00

 eigenvalues of (default mixing * dielectric matrix)
  average eigenvalue GAMMA=   0.2678
  0.3498  0.3498  0.1037

 Free energy of the ion-electron system (eV)
  ---------------------------------------------------
  alpha Z        PSCENC =       574.70065014
  Ewald energy   TEWEN  =     23037.03207953
  -1/2 Hartree   DENC   =    -33495.42799604
  -exchange  EXHF       =         0.00000000
  -V(xc)+E(xc)   XCENC  =      -356.27882180
  PAW double counting   =      8304.88700171    -7575.79851518
  entropy T*S    EENTRO =         0.00000000
  eigenvalues    EBANDS =      -265.25693884
  atomic energy  EATOM  =      9716.95502315
  ---------------------------------------------------
  free energy    TOTEN  =       -59.18751734 eV

  energy without entropy =      -59.18751734  energy(sigma->0) =      -59.18751734


--------------------------------------------------------------------------------------------------------




----------------------------------------- Iteration   11(   5)  ---------------------------------------


    POTLOK:  cpu time    0.55: real time    0.55
    SETDIJ:  cpu time    0.08: real time    0.07
     EDDAV:  cpu time   76.02: real time   76.03
 BZINTS: Fermi energy:  0.023507;120.000000 electrons
         Band energy:-265.227852;  BLOECHL correction: -0.026990
       DOS:  cpu time    0.04: real time    0.04
    CHARGE:  cpu time    1.71: real time    1.72
    MIXING:  cpu time    0.02: real time    0.02
    --------------------------------------------
      LOOP:  cpu time   78.43: real time   78.43

 eigenvalue-minimisations  :  2000
 total energy-change (2. order) : 0.3028944E-04  (-0.6216430E-05)
 number of electron     120.0000446 magnetization 
 augmentation part       50.8221607 magnetization 

 Broyden mixing:
  rms(total) = 0.42073E-02    rms(broyden)= 0.42071E-02
  rms(prec ) = 0.46347E-02
  weight for this iteration     100.00

 eigenvalues of (default mixing * dielectric matrix)
  average eigenvalue GAMMA=   0.7732
  1.8520  0.8931  0.1045  0.2432

 Free energy of the ion-electron system (eV)
  ---------------------------------------------------
  alpha Z        PSCENC =       574.70065014
  Ewald energy   TEWEN  =     23037.03207953
  -1/2 Hartree   DENC   =    -33495.45645260
  -exchange  EXHF       =         0.00000000
  -V(xc)+E(xc)   XCENC  =      -356.27887700
  PAW double counting   =      8304.91565573    -7575.82771371
  entropy T*S    EENTRO =         0.00000000
  eigenvalues    EBANDS =      -265.22785229
  atomic energy  EATOM  =      9716.95502315
  ---------------------------------------------------
  free energy    TOTEN  =       -59.18748705 eV

  energy without entropy =      -59.18748705  energy(sigma->0) =      -59.18748705


--------------------------------------------------------------------------------------------------------




----------------------------------------- Iteration   11(   6)  ---------------------------------------


    POTLOK:  cpu time    0.55: real time    0.55
    SETDIJ:  cpu time    0.07: real time    0.07
     EDDAV:  cpu time   69.19: real time   69.19
 BZINTS: Fermi energy:  0.023344;120.000000 electrons
         Band energy:-265.256414;  BLOECHL correction: -0.027007
       DOS:  cpu time    0.04: real time    0.04
    CHARGE:  cpu time    1.74: real time    1.74
    MIXING:  cpu time    0.02: real time    0.02
    --------------------------------------------
      LOOP:  cpu time   71.62: real time   71.63

 eigenvalue-minimisations  :  1776
 total energy-change (2. order) : 0.2885993E-04  (-0.1445058E-04)
 number of electron     120.0000446 magnetization 
 augmentation part       50.8218153 magnetization 

 Broyden mixing:
  rms(total) = 0.20060E-02    rms(broyden)= 0.20058E-02
  rms(prec ) = 0.27245E-02
  weight for this iteration     100.00

 eigenvalues of (default mixing * dielectric matrix)
  average eigenvalue GAMMA=   0.8727
  2.4262  0.1044  0.7912  0.7912  0.2504

 Free energy of the ion-electron system (eV)
  ---------------------------------------------------
  alpha Z        PSCENC =       574.70065014
  Ewald energy   TEWEN  =     23037.03207953
  -1/2 Hartree   DENC   =    -33495.42372516
  -exchange  EXHF       =         0.00000000
  -V(xc)+E(xc)   XCENC  =      -356.27841906
  PAW double counting   =      8305.10193449    -7576.01858698
  entropy T*S    EENTRO =         0.00000000
  eigenvalues    EBANDS =      -265.25641430
  atomic energy  EATOM  =      9716.95502315
  ---------------------------------------------------
  free energy    TOTEN  =       -59.18745819 eV

  energy without entropy =      -59.18745819  energy(sigma->0) =      -59.18745819


--------------------------------------------------------------------------------------------------------




----------------------------------------- Iteration   11(   7)  ---------------------------------------


    POTLOK:  cpu time    0.55: real time    0.55
    SETDIJ:  cpu time    0.07: real time    0.07
     EDDAV:  cpu time   80.58: real time   80.59
 BZINTS: Fermi energy:  0.023040;120.000000 electrons
         Band energy:-265.287107;  BLOECHL correction: -0.026972
       DOS:  cpu time    0.04: real time    0.04
    CHARGE:  cpu time    1.72: real time    1.72
    MIXING:  cpu time    0.02: real time    0.02
    --------------------------------------------
      LOOP:  cpu time   82.99: real time   82.99

 eigenvalue-minimisations  :  2144
 total energy-change (2. order) : 0.1004352E-04  (-0.4341742E-05)
 number of electron     120.0000446 magnetization 
 augmentation part       50.8221247 magnetization 

 Broyden mixing:
  rms(total) = 0.56845E-03    rms(broyden)= 0.56793E-03
  rms(prec ) = 0.59710E-03
  weight for this iteration     100.00

 eigenvalues of (default mixing * dielectric matrix)
  average eigenvalue GAMMA=   0.9248
  2.5180  0.9626  0.9626  0.7517  0.1044  0.2496

 Free energy of the ion-electron system (eV)
  ---------------------------------------------------
  alpha Z        PSCENC =       574.70065014
  Ewald energy   TEWEN  =     23037.03207953
  -1/2 Hartree   DENC   =    -33495.38829981
  -exchange  EXHF       =         0.00000000
  -V(xc)+E(xc)   XCENC  =      -356.27854976
  PAW double counting   =      8305.19371852    -7576.11496256
  entropy T*S    EENTRO =         0.00000000
  eigenvalues    EBANDS =      -265.28710735
  atomic energy  EATOM  =      9716.95502315
  ---------------------------------------------------
  free energy    TOTEN  =       -59.18744814 eV

  energy without entropy =      -59.18744814  energy(sigma->0) =      -59.18744814


--------------------------------------------------------------------------------------------------------




----------------------------------------- Iteration   11(   8)  ---------------------------------------


    POTLOK:  cpu time    0.55: real time    0.55
    SETDIJ:  cpu time    0.07: real time    0.07
     EDDAV:  cpu time   39.89: real time   39.90
 BZINTS: Fermi energy:  0.022920;120.000000 electrons
         Band energy:-265.301447;  BLOECHL correction: -0.026970
       DOS:  cpu time    0.04: real time    0.04
    --------------------------------------------
      LOOP:  cpu time   40.56: real time   40.56

 eigenvalue-minimisations  :   824
 total energy-change (2. order) :-0.1543649E-06  (-0.7893588E-07)
 number of electron     120.0000446 magnetization 
 augmentation part       50.8221247 magnetization 

 Free energy of the ion-electron system (eV)
  ---------------------------------------------------
  alpha Z        PSCENC =       574.70065014
  Ewald energy   TEWEN  =     23037.03207953
  -1/2 Hartree   DENC   =    -33495.37342548
  -exchange  EXHF       =         0.00000000
  -V(xc)+E(xc)   XCENC  =      -356.27864240
  PAW double counting   =      8305.19725792    -7576.11894398
  entropy T*S    EENTRO =         0.00000000
  eigenvalues    EBANDS =      -265.30144718
  atomic energy  EATOM  =      9716.95502315
  ---------------------------------------------------
  free energy    TOTEN  =       -59.18744830 eV

  energy without entropy =      -59.18744830  energy(sigma->0) =      -59.18744830


--------------------------------------------------------------------------------------------------------




 average (electrostatic) potential at core
  the test charge radii are     1.1199
  (the norm of the test charge is              1.0000)
       1 -51.0508       2 -51.5382       3 -51.5145       4 -51.0508       5 -51.5382
       6 -51.5145       7 -51.5146       8 -51.5382       9 -51.0508      10 -51.5146
      11 -51.5382      12 -51.0508
 
 
 
 E-fermi :   0.0229     XC(G=0):  -7.7955     alpha+bet : -6.1545


 k-point   1 :       0.0000    0.0000    0.0000
  band No.  band energies     occupation 
      1      -6.4855      2.00000
      2      -5.6887      2.00000
      3      -4.8565      2.00000
      4      -4.8057      2.00000
      5      -4.8057      2.00000
      6      -4.7804      2.00000
      7      -4.6173      2.00000
      8      -4.5558      2.00000
      9      -4.5558      2.00000
     10      -4.3316      2.00000
     11      -4.3316      2.00000
     12      -4.3235      2.00000
     13      -4.2835      2.00000
     14      -4.1316      2.00000
     15      -4.0311      2.00000
     16      -4.0311      2.00000
     17      -3.8334      2.00000
     18      -3.7291      2.00000
     19      -3.7291      2.00000
     20      -3.3216      2.00000
     21      -3.2278      2.00000
     22      -3.2278      2.00000
     23      -2.8796      2.00000
     24      -2.6650      2.00000
     25      -2.4751      2.00000
     26      -2.4751      2.00000
     27      -2.1882      2.00000
     28      -2.1882      2.00000
     29      -2.0603      2.00000
     30      -2.0603      2.00000
     31      -1.5853      2.00000
     32      -1.4538      2.00000
     33      -1.4538      2.00000
     34      -1.4021      2.00000
     35      -1.1536      2.00000
     36      -1.0501      2.00000
     37      -1.0501      2.00000
     38      -1.0367      2.00000
     39      -1.0357      2.00000
     40      -0.9156      2.00000
     41      -0.9156      2.00000
     42      -0.8178      2.00000
     43      -0.7449      2.00000
     44      -0.7449      2.00000
     45      -0.5537      2.00000
     46      -0.4150      2.00000
     47      -0.4150      2.00000
     48      -0.2750      2.00000
     49      -0.1233      2.00000
     50      -0.1233      2.00000
     51      -0.0933      2.00000
     52      -0.0933      2.00000
     53      -0.0867      2.00000
     54      -0.0867      2.00000
     55      -0.0146      2.00000
     56       0.0347      1.84376
     57       0.2086      0.00462
     58       0.2086     -0.63697
     59       0.2769      0.00000
     60       0.2769      0.00000
     61       0.3204      0.00000
     62       0.3205      0.00000
     63       0.3905      0.00000
     64       0.6137      0.00000
     65       0.6137      0.00000
     66       1.9776      0.00000
     67       2.9876      0.00000
     68       4.0463      0.00000
     69       4.0463      0.00000
     70       5.1827      0.00000
     71       5.5110      0.00000
     72       5.5110      0.00000

 k-point   2 :       0.1429    0.0000    0.0000
  band No.  band energies     occupation 
      1      -6.2560      2.00000
      2      -5.4813      2.00000
      3      -4.7034      2.00000
      4      -4.6946      2.00000
      5      -4.6716      2.00000
      6      -4.6011      2.00000
      7      -4.4880      2.00000
      8      -4.4713      2.00000
      9      -4.4685      2.00000
     10      -4.2096      2.00000
     11      -4.1752      2.00000
     12      -4.1692      2.00000
     13      -4.1592      2.00000
     14      -3.9744      2.00000
     15      -3.9642      2.00000
     16      -3.9528      2.00000
     17      -3.7436      2.00000
     18      -3.5946      2.00000
     19      -3.5786      2.00000
     20      -3.2643      2.00000
     21      -3.2344      2.00000
     22      -3.1942      2.00000
     23      -2.8644      2.00000
     24      -2.5691      2.00000
     25      -2.5042      2.00000
     26      -2.3986      2.00000
     27      -2.2967      2.00000
     28      -2.2141      2.00000
     29      -2.1882      2.00000
     30      -2.0898      2.00000
     31      -1.9729      2.00000
     32      -1.5411      2.00000
     33      -1.4810      2.00000
     34      -1.3206      2.00000
     35      -1.2955      2.00000
     36      -1.2497      2.00000
     37      -1.1813      2.00000
     38      -1.1447      2.00000
     39      -1.0293      2.00000
     40      -1.0255      2.00000
     41      -0.9464      2.00000
     42      -0.8710      2.00000
     43      -0.7677      2.00000
     44      -0.6514      2.00000
     45      -0.5907      2.00000
     46      -0.5842      2.00000
     47      -0.5158      2.00000
     48      -0.4922      2.00000
     49      -0.2884      2.00000
     50      -0.2716      2.00000
     51      -0.2463      2.00000
     52      -0.1727      2.00000
     53      -0.1393      2.00000
     54      -0.1368      2.00000
     55      -0.1297      2.00000
     56      -0.1136      2.02110
     57      -0.1020      1.96182
     58      -0.0029      1.69964
     59       0.0674      0.44355
     60       0.0837      0.03053
     61       0.1242     -0.03899
     62       0.2029      0.00000
     63       0.3371      0.00000
     64       0.3860      0.00000
     65       1.0414      0.00000
     66       2.5454      0.00000
     67       2.9410      0.00000
     68       3.6533      0.00000
     69       4.2603      0.00000
     70       4.7827      0.00000
     71       5.4198      0.00000
     72       5.7546      0.00000

 k-point   3 :       0.2857    0.0000    0.0000
  band No.  band energies     occupation 
      1      -5.6120      2.00000
      2      -4.9107      2.00000
      3      -4.4230      2.00000
      4      -4.3224      2.00000
      5      -4.3016      2.00000
      6      -4.2292      2.00000
      7      -4.1754      2.00000
      8      -4.1263      2.00000
      9      -4.1045      2.00000
     10      -3.8942      2.00000
     11      -3.8368      2.00000
     12      -3.7933      2.00000
     13      -3.7833      2.00000
     14      -3.7768      2.00000
     15      -3.7435      2.00000
     16      -3.5015      2.00000
     17      -3.4808      2.00000
     18      -3.2901      2.00000
     19      -3.2217      2.00000
     20      -3.1760      2.00000
     21      -3.1735      2.00000
     22      -3.1171      2.00000
     23      -3.0480      2.00000
     24      -2.5244      2.00000
     25      -2.5012      2.00000
     26      -2.3548      2.00000
     27      -2.3450      2.00000
     28      -2.3257      2.00000
     29      -2.3168      2.00000
     30      -2.1997      2.00000
     31      -2.0926      2.00000
     32      -2.0557      2.00000
     33      -1.7594      2.00000
     34      -1.7003      2.00000
     35      -1.5957      2.00000
     36      -1.5591      2.00000
     37      -1.5198      2.00000
     38      -1.3930      2.00000
     39      -1.3356      2.00000
     40      -1.2555      2.00000
     41      -1.1236      2.00000
     42      -1.0196      2.00000
     43      -0.9015      2.00000
     44      -0.8492      2.00000
     45      -0.8492      2.00000
     46      -0.8481      2.00000
     47      -0.8399      2.00000
     48      -0.8187      2.00000
     49      -0.7398      2.00000
     50      -0.6679      2.00000
     51      -0.5602      2.00000
     52      -0.5049      2.00000
     53      -0.4739      2.00000
     54      -0.4545      2.00000
     55      -0.4210      2.00000
     56      -0.4113      2.00000
     57      -0.2837      2.00000
     58      -0.2783      2.00000
     59      -0.1792      2.16357
     60      -0.0818      2.21215
     61      -0.0659      1.94113
     62       0.1827      0.00000
     63       0.1885      0.00000
     64       0.7480      0.00000
     65       1.0378      0.00000
     66       2.1293      0.00000
     67       2.2605      0.00000
     68       3.6031      0.00000
     69       3.6857      0.00000
     70       4.9063      0.00000
     71       5.0364      0.00000
     72       6.1628      0.00000

 k-point   4 :       0.4286    0.0000    0.0000
  band No.  band energies     occupation 
      1      -4.7574      2.00000
      2      -4.2681      2.00000
      3      -4.1762      2.00000
      4      -3.9229      2.00000
      5      -3.8830      2.00000
      6      -3.8649      2.00000
      7      -3.7103      2.00000
      8      -3.7043      2.00000
      9      -3.6012      2.00000
     10      -3.5134      2.00000
     11      -3.5056      2.00000
     12      -3.4843      2.00000
     13      -3.4427      2.00000
     14      -3.3934      2.00000
     15      -3.3845      2.00000
     16      -3.3443      2.00000
     17      -3.2583      2.00000
     18      -3.2394      2.00000
     19      -3.2064      2.00000
     20      -3.1836      2.00000
     21      -3.0822      2.00000
     22      -2.8825      2.00000
     23      -2.8386      2.00000
     24      -2.7896      2.00000
     25      -2.7501      2.00000
     26      -2.7299      2.00000
     27      -2.6512      2.00000
     28      -2.5164      2.00000
     29      -2.3791      2.00000
     30      -2.3097      2.00000
     31      -2.0805      2.00000
     32      -2.0593      2.00000
     33      -1.9761      2.00000
     34      -1.9681      2.00000
     35      -1.6921      2.00000
     36      -1.6814      2.00000
     37      -1.5996      2.00000
     38      -1.4763      2.00000
     39      -1.4739      2.00000
     40      -1.4132      2.00000
     41      -1.4059      2.00000
     42      -1.3960      2.00000
     43      -1.3370      2.00000
     44      -1.3256      2.00000
     45      -1.2757      2.00000
     46      -1.2072      2.00000
     47      -1.0900      2.00000
     48      -1.0544      2.00000
     49      -1.0408      2.00000
     50      -0.9902      2.00000
     51      -0.9570      2.00000
     52      -0.9522      2.00000
     53      -0.8388      2.00000
     54      -0.8079      2.00000
     55      -0.6978      2.00000
     56      -0.6856      2.00000
     57      -0.6153      2.00000
     58      -0.2872      2.00000
     59      -0.2208      2.00000
     60      -0.2208      2.00000
     61      -0.1697      2.10325
     62       0.1610      0.00000
     63       0.1716      0.00000
     64       0.6594      0.00000
     65       0.6801      0.00000
     66       1.8471      0.00000
     67       1.8601      0.00000
     68       3.2393      0.00000
     69       3.3851      0.00000
     70       4.8303      0.00000
     71       5.0061      0.00000
     72       6.2121      0.00000

 k-point   5 :       0.1429    0.1429    0.0000
  band No.  band energies     occupation 
      1      -6.0410      2.00000
      2      -5.3095      2.00000
      3      -4.6140      2.00000
      4      -4.5621      2.00000
      5      -4.5621      2.00000
      6      -4.5200      2.00000
      7      -4.3957      2.00000
      8      -4.3957      2.00000
      9      -4.3164      2.00000
     10      -4.1286      2.00000
     11      -4.0541      2.00000
     12      -4.0541      2.00000
     13      -3.9604      2.00000
     14      -3.9389      2.00000
     15      -3.9379      2.00000
     16      -3.9379      2.00000
     17      -3.4887      2.00000
     18      -3.4477      2.00000
     19      -3.4477      2.00000
     20      -3.2307      2.00000
     21      -3.2307      2.00000
     22      -3.1119      2.00000
     23      -2.8180      2.00000
     24      -2.4898      2.00000
     25      -2.4868      2.00000
     26      -2.3768      2.00000
     27      -2.2854      2.00000
     28      -2.2505      2.00000
     29      -2.2505      2.00000
     30      -2.1423      2.00000
     31      -2.0944      2.00000
     32      -1.6750      2.00000
     33      -1.6639      2.00000
     34      -1.3650      2.00000
     35      -1.3650      2.00000
     36      -1.2851      2.00000
     37      -1.2353      2.00000
     38      -1.1455      2.00000
     39      -1.0780      2.00000
     40      -1.0748      2.00000
     41      -1.0454      2.00000
     42      -1.0454      2.00000
     43      -0.9637      2.00000
     44      -0.8828      2.00000
     45      -0.6783      2.00000
     46      -0.6783      2.00000
     47      -0.6034      2.00000
     48      -0.6013      2.00000
     49      -0.5214      2.00000
     50      -0.5214      2.00000
     51      -0.4527      2.00000
     52      -0.4119      2.00000
     53      -0.4119      2.00000
     54      -0.1921      2.00000
     55      -0.1138      2.00000
     56      -0.0646      2.00528
     57      -0.0646      1.95210
     58      -0.0385      1.91479
     59       0.0412      1.00434
     60       0.0412      0.31885
     61       0.0966      0.01052
     62       0.1927      0.00000
     63       0.2427      0.00000
     64       0.2427      0.00000
     65       1.3846      0.00000
     66       2.9632      0.00000
     67       3.6263      0.00000
     68       3.6263      0.00000
     69       4.1634      0.00000
     70       4.7443      0.00000
     71       4.7443      0.00000
     72       5.6639      0.00000

 k-point   6 :       0.2857    0.1429    0.0000
  band No.  band energies     occupation 
      1      -5.4443      2.00000
      2      -4.8627      2.00000
      3      -4.3220      2.00000
      4      -4.3108      2.00000
      5      -4.3064      2.00000
      6      -4.2276      2.00000
      7      -4.2034      2.00000
      8      -4.1410      2.00000
      9      -3.9078      2.00000
     10      -3.8821      2.00000
     11      -3.8701      2.00000
     12      -3.8523      2.00000
     13      -3.8113      2.00000
     14      -3.7380      2.00000
     15      -3.6761      2.00000
     16      -3.5055      2.00000
     17      -3.2459      2.00000
     18      -3.1768      2.00000
     19      -3.1150      2.00000
     20      -3.0813      2.00000
     21      -2.9979      2.00000
     22      -2.9076      2.00000
     23      -2.7839      2.00000
     24      -2.4798      2.00000
     25      -2.3780      2.00000
     26      -2.3106      2.00000
     27      -2.3007      2.00000
     28      -2.2708      2.00000
     29      -2.2482      2.00000
     30      -2.2140      2.00000
     31      -2.1572      2.00000
     32      -2.0929      2.00000
     33      -1.8976      2.00000
     34      -1.8115      2.00000
     35      -1.7220      2.00000
     36      -1.5809      2.00000
     37      -1.5649      2.00000
     38      -1.4828      2.00000
     39      -1.3952      2.00000
     40      -1.3679      2.00000
     41      -1.2256      2.00000
     42      -1.2044      2.00000
     43      -1.2040      2.00000
     44      -1.1799      2.00000
     45      -1.0824      2.00000
     46      -0.9911      2.00000
     47      -0.9238      2.00000
     48      -0.8844      2.00000
     49      -0.8518      2.00000
     50      -0.7990      2.00000
     51      -0.6675      2.00000
     52      -0.5786      2.00000
     53      -0.4737      2.00000
     54      -0.4516      2.00000
     55      -0.3509      2.00000
     56      -0.1973      2.00000
     57      -0.1121      2.00000
     58      -0.0969      2.00000
     59      -0.0930      2.07625
     60       0.0130      1.77100
     61       0.0600      0.32847
     62       0.1044      0.00000
     63       0.1133      0.00000
     64       0.7439      0.00000
     65       1.6973      0.00000
     66       2.2832      0.00000
     67       2.6204      0.00000
     68       3.7955      0.00000
     69       3.9405      0.00000
     70       4.9634      0.00000
     71       5.1043      0.00000
     72       5.2298      0.00000

 k-point   7 :       0.4286    0.1429    0.0000
  band No.  band energies     occupation 
      1      -4.6721      2.00000
      2      -4.3614      2.00000
      3      -4.2177      2.00000
      4      -4.0855      2.00000
      5      -4.0621      2.00000
      6      -3.9130      2.00000
      7      -3.8840      2.00000
      8      -3.8810      2.00000
      9      -3.7238      2.00000
     10      -3.7084      2.00000
     11      -3.6519      2.00000
     12      -3.5324      2.00000
     13      -3.4318      2.00000
     14      -3.4017      2.00000
     15      -3.2723      2.00000
     16      -3.2277      2.00000
     17      -3.1501      2.00000
     18      -3.1474      2.00000
     19      -2.9675      2.00000
     20      -2.9079      2.00000
     21      -2.8146      2.00000
     22      -2.7433      2.00000
     23      -2.6627      2.00000
     24      -2.6322      2.00000
     25      -2.5951      2.00000
     26      -2.5054      2.00000
     27      -2.4746      2.00000
     28      -2.3798      2.00000
     29      -2.3026      2.00000
     30      -2.2628      2.00000
     31      -2.1965      2.00000
     32      -2.1124      2.00000
     33      -2.0161      2.00000
     34      -1.9987      2.00000
     35      -1.8206      2.00000
     36      -1.7747      2.00000
     37      -1.7722      2.00000
     38      -1.7499      2.00000
     39      -1.6724      2.00000
     40      -1.6535      2.00000
     41      -1.6313      2.00000
     42      -1.5289      2.00000
     43      -1.4378      2.00000
     44      -1.2945      2.00000
     45      -1.2743      2.00000
     46      -1.2267      2.00000
     47      -1.0617      2.00000
     48      -1.0102      2.00000
     49      -0.9054      2.00000
     50      -0.8233      2.00000
     51      -0.8080      2.00000
     52      -0.7917      2.00000
     53      -0.5812      2.00000
     54      -0.5139      2.00000
     55      -0.4450      2.00000
     56      -0.3578      2.00000
     57      -0.3351      2.00000
     58      -0.2974      2.00000
     59      -0.1389      2.00000
     60      -0.0621      2.00000
     61      -0.0063      1.90509
     62       0.0463      0.00000
     63       0.1771      0.00000
     64       0.6070      0.00000
     65       0.8262      0.00000
     66       1.8373      0.00000
     67       1.9053      0.00000
     68       3.2623      0.00000
     69       3.4619      0.00000
     70       4.8540      0.00000
     71       5.1571      0.00000
     72       6.2532      0.00000

 k-point   8 :       0.2857    0.2857    0.0000
  band No.  band energies     occupation 
      1      -5.0145      2.00000
      2      -4.7524      2.00000
      3      -4.4467      2.00000
      4      -4.2460      2.00000
      5      -4.2246      2.00000
      6      -4.2246      2.00000
      7      -4.0885      2.00000
      8      -4.0885      2.00000
      9      -3.9088      2.00000
     10      -3.8632      2.00000
     11      -3.8049      2.00000
     12      -3.8049      2.00000
     13      -3.4802      2.00000
     14      -3.3969      2.00000
     15      -3.3969      2.00000
     16      -3.1450      2.00000
     17      -3.1450      2.00000
     18      -3.1293      2.00000
     19      -2.8332      2.00000
     20      -2.8332      2.00000
     21      -2.8065      2.00000
     22      -2.6596      2.00000
     23      -2.4387      2.00000
     24      -2.2940      2.00000
     25      -2.2692      2.00000
     26      -2.2663      2.00000
     27      -2.2346      2.00000
     28      -2.2346      2.00000
     29      -2.2209      2.00000
     30      -2.1975      2.00000
     31      -2.0806      2.00000
     32      -2.0806      2.00000
     33      -2.0271      2.00000
     34      -1.9825      2.00000
     35      -1.9631      2.00000
     36      -1.7830      2.00000
     37      -1.7830      2.00000
     38      -1.7674      2.00000
     39      -1.6574      2.00000
     40      -1.6574      2.00000
     41      -1.6074      2.00000
     42      -1.5729      2.00000
     43      -1.3608      2.00000
     44      -1.3141      2.00000
     45      -1.3141      2.00000
     46      -1.2932      2.00000
     47      -0.8830      2.00000
     48      -0.7476      2.00000
     49      -0.7476      2.00000
     50      -0.7292      2.00000
     51      -0.6675      2.00000
     52      -0.5939      2.00000
     53      -0.4092      2.00000
     54      -0.4092      2.00000
     55      -0.4052      2.00000
     56      -0.2691      2.00000
     57      -0.0531      2.00000
     58      -0.0132      2.00000
     59      -0.0131      1.99564
     60       0.0096      1.98738
     61       0.0495      0.00279
     62       0.0495      0.00000
     63       0.0900      0.00000
     64       0.9837      0.00000
     65       2.7950      0.00000
     66       2.8760      0.00000
     67       2.8760      0.00000
     68       3.4466      0.00000
     69       3.4466      0.00000
     70       4.0421      0.00000
     71       4.0421      0.00000
     72       4.5956      0.00000

 k-point   9 :       0.4286    0.2857    0.0000
  band No.  band energies     occupation 
      1      -4.6267      2.00000
      2      -4.6138      2.00000
      3      -4.4345      2.00000
      4      -4.4300      2.00000
      5      -4.3136      2.00000
      6      -4.1159      2.00000
      7      -4.0583      2.00000
      8      -4.0448      2.00000
      9      -3.6985      2.00000
     10      -3.6621      2.00000
     11      -3.5746      2.00000
     12      -3.4592      2.00000
     13      -3.3427      2.00000
     14      -3.2322      2.00000
     15      -3.0664      2.00000
     16      -3.0412      2.00000
     17      -2.9700      2.00000
     18      -2.8595      2.00000
     19      -2.8109      2.00000
     20      -2.6923      2.00000
     21      -2.6677      2.00000
     22      -2.6627      2.00000
     23      -2.6318      2.00000
     24      -2.5067      2.00000
     25      -2.4860      2.00000
     26      -2.4157      2.00000
     27      -2.3904      2.00000
     28      -2.3815      2.00000
     29      -2.2772      2.00000
     30      -2.1591      2.00000
     31      -2.1184      2.00000
     32      -2.0892      2.00000
     33      -2.0821      2.00000
     34      -2.0408      2.00000
     35      -1.9936      2.00000
     36      -1.9384      2.00000
     37      -1.8397      2.00000
     38      -1.8038      2.00000
     39      -1.7356      2.00000
     40      -1.6275      2.00000
     41      -1.4489      2.00000
     42      -1.4451      2.00000
     43      -1.3705      2.00000
     44      -1.3455      2.00000
     45      -1.2649      2.00000
     46      -1.0133      2.00000
     47      -0.9298      2.00000
     48      -0.7455      2.00000
     49      -0.6859      2.00000
     50      -0.6495      2.00000
     51      -0.5959      2.00000
     52      -0.5404      2.00000
     53      -0.3391      2.00000
     54      -0.2398      2.00000
     55      -0.1742      2.00000
     56      -0.1568      2.00000
     57      -0.1520      2.00000
     58      -0.1382      2.00000
     59      -0.0662      2.00000
     60      -0.0636      2.00000
     61       0.0394      0.15304
     62       0.0508      0.00000
     63       0.4783      0.00000
     64       1.1627      0.00000
     65       1.4136      0.00000
     66       1.8409      0.00000
     67       2.0442      0.00000
     68       3.1180      0.00000
     69       3.6009      0.00000
     70       4.1094      0.00000
     71       4.1414      0.00000
     72       5.1336      0.00000

 k-point  10 :       0.4286    0.4286    0.0000
  band No.  band energies     occupation 
      1      -4.7384      2.00000
      2      -4.7328      2.00000
      3      -4.6762      2.00000
      4      -4.6762      2.00000
      5      -4.2800      2.00000
      6      -4.2304      2.00000
      7      -4.1886      2.00000
      8      -4.1886      2.00000
      9      -3.6108      2.00000
     10      -3.5994      2.00000
     11      -3.4944      2.00000
     12      -3.4944      2.00000
     13      -3.0105      2.00000
     14      -2.9454      2.00000
     15      -2.9454      2.00000
     16      -2.8910      2.00000
     17      -2.7990      2.00000
     18      -2.7990      2.00000
     19      -2.6698      2.00000
     20      -2.6451      2.00000
     21      -2.6245      2.00000
     22      -2.6017      2.00000
     23      -2.6017      2.00000
     24      -2.5366      2.00000
     25      -2.5366      2.00000
     26      -2.4794      2.00000
     27      -2.4742      2.00000
     28      -2.4710      2.00000
     29      -2.2670      2.00000
     30      -2.2670      2.00000
     31      -2.2110      2.00000
     32      -2.1442      2.00000
     33      -2.0864      2.00000
     34      -2.0779      2.00000
     35      -2.0411      2.00000
     36      -2.0411      2.00000
     37      -1.5886      2.00000
     38      -1.5602      2.00000
     39      -1.5209      2.00000
     40      -1.5209      2.00000
     41      -1.4354      2.00000
     42      -1.3700      2.00000
     43      -1.3700      2.00000
     44      -1.2774      2.00000
     45      -0.9487      2.00000
     46      -0.6472      2.00000
     47      -0.6472      2.00000
     48      -0.6094      2.00000
     49      -0.5768      2.00000
     50      -0.5554      2.00000
     51      -0.5553      2.00000
     52      -0.3685      2.00000
     53      -0.2109      2.00000
     54      -0.1725      2.00000
     55      -0.1725      2.00000
     56      -0.1556      2.00000
     57      -0.0734      2.00000
     58      -0.0595      2.00000
     59      -0.0594      2.00000
     60       0.0203      2.00000
     61       0.6568      0.00000
     62       0.8129      0.00000
     63       1.0609      0.00000
     64       1.9734      0.00000
     65       2.0196      0.00000
     66       2.0197      0.00000
     67       2.3167      0.00000
     68       2.3167      0.00000
     69       2.4318      0.00000
     70       2.4318      0.00000
     71       3.2791      0.00000
     72       3.6973      0.00000


--------------------------------------------------------------------------------------------------------


 soft charge-density along one line, spin component           1
         0         1         2         3         4         5         6         7         8         9
 total charge-density along one line
 
 pseudopotential strength for first ion, spin component:           1
-11.497   0.000   0.000   0.000   0.000   0.125   0.000   0.000
  0.000 -11.398   0.000   0.000   0.000   0.000   0.109   0.000
  0.000   0.000 -11.369   0.000   0.000   0.000   0.000   0.104
  0.000   0.000   0.000 -11.398   0.000   0.000   0.000   0.000
  0.000   0.000   0.000   0.000 -11.441   0.000   0.000   0.000
  0.125   0.000   0.000   0.000   0.000   0.321   0.000   0.000
  0.000   0.109   0.000   0.000   0.000   0.000   0.324   0.000
  0.000   0.000   0.104   0.000   0.000   0.000   0.000   0.324
  0.000   0.000   0.000   0.109   0.000   0.000   0.000   0.000
  0.000   0.000   0.000   0.000   0.117   0.000   0.000   0.000
  0.000   0.000  -0.021   0.000   0.000   0.000   0.000   0.003
  0.000   0.000   0.002   0.000   0.000   0.000   0.000   0.000
  0.000  -0.016   0.000   0.000   0.000   0.000   0.003   0.000
  0.000   0.000  -0.019   0.000   0.000   0.000   0.000   0.003
  0.000   0.000   0.000  -0.016   0.000   0.000   0.000   0.000
  0.000   0.013   0.000   0.000   0.000   0.000  -0.002   0.000
  0.000   0.000   0.015   0.000   0.000   0.000   0.000  -0.002
  0.000   0.000   0.000   0.013   0.000   0.000   0.000   0.000
 total augmentation occupancy for first ion, spin component:           1
  1.650   0.000   0.000   0.000   0.000   0.184   0.000   0.000   0.000   0.000   0.000   0.000   0.000   0.000   0.000   0.000
  0.000   1.824   0.000   0.000   0.000   0.000   0.082   0.000   0.000   0.000   0.000   0.000  -0.011   0.000   0.000  -0.021
  0.000   0.000   1.862   0.000   0.000   0.000   0.000   0.058   0.000   0.000   0.017  -0.045   0.000   0.008   0.000   0.000
  0.000   0.000   0.000   1.824   0.000   0.000   0.000   0.000   0.082   0.000   0.000   0.000   0.000   0.000  -0.011   0.000
  0.000   0.000   0.000   0.000   1.859   0.000   0.000   0.000   0.000   0.046   0.000   0.000   0.000   0.000   0.000   0.000
  0.184   0.000   0.000   0.000   0.000   0.104   0.000   0.000   0.000   0.000   0.000   0.000   0.000   0.000   0.000   0.000
  0.000   0.082   0.000   0.000   0.000   0.000   0.096   0.000   0.000   0.000   0.000   0.000   0.051   0.000   0.000  -0.002
  0.000   0.000   0.058   0.000   0.000   0.000   0.000   0.092   0.000   0.000  -0.082   0.020   0.000   0.037   0.000   0.000
  0.000   0.000   0.000   0.082   0.000   0.000   0.000   0.000   0.096   0.000   0.000   0.000   0.000   0.000   0.051   0.000
  0.000   0.000   0.000   0.000   0.046   0.000   0.000   0.000   0.000   0.101   0.000   0.000   0.000   0.000   0.000   0.000
  0.000   0.000   0.017   0.000   0.000   0.000   0.000  -0.082   0.000   0.000   0.959  -0.309   0.000   0.096   0.000   0.000
  0.000   0.000  -0.045   0.000   0.000   0.000   0.000   0.020   0.000   0.000  -0.309   0.114   0.000  -0.046   0.000   0.000
  0.000  -0.011   0.000   0.000   0.000   0.000   0.051   0.000   0.000   0.000   0.000   0.000   0.098   0.000   0.000  -0.002
  0.000   0.000   0.008   0.000   0.000   0.000   0.000   0.037   0.000   0.000   0.096  -0.046   0.000   0.060   0.000   0.000
  0.000   0.000   0.000  -0.011   0.000   0.000   0.000   0.000   0.051   0.000   0.000   0.000   0.000   0.000   0.098   0.000
  0.000  -0.021   0.000   0.000   0.000   0.000  -0.002   0.000   0.000   0.000   0.000   0.000  -0.002   0.000   0.000   0.000
  0.000   0.000  -0.028   0.000   0.000   0.000   0.000  -0.001   0.000   0.000  -0.005   0.002   0.000  -0.001   0.000   0.000
  0.000   0.000   0.000  -0.021   0.000   0.000   0.000   0.000  -0.002   0.000   0.000   0.000   0.000   0.000  -0.002   0.000


------------------------ aborting loop because EDIFF is reached ----------------------------------------


    CHARGE:  cpu time    1.74: real time    1.74
    FORLOC:  cpu time    0.06: real time    0.06
    FORNL :  cpu time   25.89: real time   25.89
    STRESS:  cpu time   69.08: real time   69.13
    FORCOR:  cpu time    0.58: real time    0.59
    FORHAR:  cpu time    0.19: real time    0.19
    MIXING:  cpu time    0.03: real time    0.02

  FORCE on cell =-STRESS in cart. coord.  units (eV):
  Direction    XX          YY          ZZ          XY          YZ          ZX
  --------------------------------------------------------------------------------------
  Alpha Z   574.70065   574.70065   574.70065
  Ewald   29620.79438 29620.79438-36204.57049     0.00000     0.00000     0.00000
  Hartree 32489.23670 32489.23670-31482.89804     0.00000     0.00000     0.00000
  E(xc)    -627.22478  -627.22478  -629.19012     0.00000     0.00000     0.00000
  Local  -63559.96426-63559.96426 66226.77148     0.00000     0.00000     0.00000
  n-local  -647.42608  -639.54389  -646.50683     8.94019     0.00000     0.00000
  augment   513.77077   513.77078   518.75127    -0.00003    -0.00003    -0.00004
  Kinetic  1639.14872  1616.14901  1642.26981     7.13728     0.00000     0.00000
  Fock        0.00000     0.00000     0.00000     0.00000     0.00000     0.00000
  -------------------------------------------------------------------------------------
  Total      -4.52265    -4.52265    -0.67227     0.00000     0.00000     0.00000
  in kB     -21.24089   -21.24089    -3.15735     0.00000     0.00000     0.00000
  external pressure =      -15.21 kB  Pullay stress =        0.00 kB


 VOLUME and BASIS-vectors are now :
 -----------------------------------------------------------------------------
  energy-cutoff  :      415.00
  volume of cell :      341.14
      direct lattice vectors                 reciprocal lattice vectors
     3.951020398  0.000000000  0.000000000     0.253099174  0.000000000  0.000000000
     0.000000000  3.951020398  0.000000000     0.000000000  0.253099174  0.000000000
     0.000000000  0.000000000 21.853061195     0.000000000  0.000000000  0.045760179

  length of vectors
     3.951020398  3.951020398 21.853061195     0.253099174  0.253099174  0.045760179


 FORCES acting on ions
    electron-ion (+dipol)            ewald-force                    non-local-force                 convergence-correction
 -----------------------------------------------------------------------------------------------
   0.869E-14 0.225E-13 0.262E+04   0.170E-14 -.862E-14 -.262E+04   -.181E-24 0.207E-24 -.178E+01   -.444E-13 0.378E-15 -.253E-01
   0.916E-14 0.316E-13 0.530E+03   0.885E-14 0.218E-14 -.530E+03   -.685E-24 0.414E-24 0.103E+00   -.580E-13 -.641E-14 -.129E-01
   0.499E-14 0.325E-13 -.159E+04   -.729E-14 -.383E-14 0.159E+04   0.569E-24 -.310E-24 -.169E+00   -.623E-13 -.469E-14 0.303E-01
   -.626E-13 -.891E-13 0.262E+04   -.211E-13 0.469E-14 -.262E+04   -.362E-24 0.000E+00 -.178E+01   -.306E-13 -.563E-14 -.253E-01
   -.705E-13 -.763E-12 0.530E+03   -.133E-13 0.162E-13 -.530E+03   -.620E-24 -.362E-24 0.103E+00   -.677E-13 -.133E-13 -.129E-01
   -.737E-13 -.576E-13 -.159E+04   -.335E-13 0.100E-13 0.159E+04   0.258E-25 0.000E+00 -.169E+00   -.738E-13 -.162E-13 0.303E-01
   -.103E-12 0.448E-13 0.159E+04   0.327E-13 -.103E-13 -.159E+04   0.000E+00 0.000E+00 0.169E+00   -.231E-13 -.319E-13 -.303E-01
   -.552E-13 0.494E-13 -.530E+03   0.124E-13 -.165E-13 0.530E+03   0.388E-24 0.000E+00 -.103E+00   -.393E-13 -.200E-13 0.128E-01
   -.729E-13 -.277E-14 -.262E+04   0.203E-13 -.498E-14 0.262E+04   0.827E-24 0.000E+00 0.178E+01   0.675E-14 -.338E-13 0.253E-01
   -.201E-14 -.465E-13 0.159E+04   0.641E-14 0.354E-14 -.159E+04   -.840E-24 0.827E-24 0.169E+00   -.266E-13 -.302E-13 -.303E-01
   0.143E-13 -.331E-13 -.530E+03   -.973E-14 -.247E-14 0.530E+03   0.801E-24 -.414E-24 -.103E+00   -.105E-13 -.178E-13 0.128E-01
   -.725E-14 -.335E-13 -.262E+04   -.258E-14 0.833E-14 0.262E+04   0.000E+00 0.000E+00 0.178E+01   -.492E-14 -.410E-13 0.253E-01
 -----------------------------------------------------------------------------------------------
   -.410E-12 -.845E-12 0.171E-03   -.523E-14 -.173E-14 0.909E-12   -.775E-25 0.362E-24 0.133E-14   -.435E-12 -.221E-12 -.107E-03
 
 
 POSITION                                       TOTAL-FORCE (eV/Angst)
 -----------------------------------------------------------------------------------
      0.00000      0.00000      0.01589         0.000000      0.000000      0.014984
      0.00000      0.00000      3.95122         0.000000      0.000000      0.000089
      0.00000      0.00000      7.90510         0.000000      0.000000      0.000549
      1.97551      1.97551      0.01589         0.000000      0.000000      0.014984
      1.97551      1.97551      3.95122         0.000000      0.000000      0.000089
      1.97551      1.97551      7.90510         0.000000      0.000000      0.000549
      1.97551      0.00000      1.97245         0.000000      0.000000     -0.000549
      1.97551      0.00000      5.92633         0.000000      0.000000     -0.000089
      1.97551      0.00000      9.86166         0.000000      0.000000     -0.014984
      0.00000      1.97551      1.97245         0.000000      0.000000     -0.000549
      0.00000      1.97551      5.92633         0.000000      0.000000     -0.000089
      0.00000      1.97551      9.86166         0.000000      0.000000     -0.014984
 -----------------------------------------------------------------------------------
    total drift:                                0.000000      0.000000      0.000064


--------------------------------------------------------------------------------------------------------



  FREE ENERGIE OF THE ION-ELECTRON SYSTEM (eV)
  ---------------------------------------------------
  free  energy   TOTEN  =       -59.187448 eV

  energy  without entropy=      -59.187448  energy(sigma->0) =      -59.187448
 
 d Force = 0.1933390E-03[ 0.141E-03, 0.246E-03]  d Energy = 0.2120837E-03-0.187E-04
 d Force =-0.4514268E+02[-0.452E+02,-0.451E+02]  d Ewald  =-0.4514268E+02 0.516E-06


--------------------------------------------------------------------------------------------------------


    POTLOK:  cpu time    0.63: real time    0.63


--------------------------------------------------------------------------------------------------------




--------------------------------------------------------------------------------------------------------


    WAVPRE:  cpu time    0.12: real time    0.12
    FEWALD:  cpu time    0.00: real time    0.00
    ORTHCH:  cpu time    8.51: real time    8.51
     LOOP+:  cpu time  680.61: real time  680.72


----------------------------------------- Iteration   12(   1)  ---------------------------------------


    POTLOK:  cpu time    0.55: real time    0.55
    SETDIJ:  cpu time    0.07: real time    0.07
     EDDAV:  cpu time   58.67: real time   58.68
 BZINTS: Fermi energy:  0.023340;120.000000 electrons
         Band energy:-265.378726;  BLOECHL correction: -0.026884
       DOS:  cpu time    0.04: real time    0.04
    CHARGE:  cpu time    1.70: real time    1.70
    MIXING:  cpu time    0.02: real time    0.02
    --------------------------------------------
      LOOP:  cpu time   61.05: real time   61.06

 eigenvalue-minimisations  :  1440
 total energy-change (2. order) : 0.8715475E-04  (-0.5687406E-02)
 number of electron     120.0000446 magnetization 
 augmentation part       50.8216100 magnetization 

 Broyden mixing:
  rms(total) = 0.35307E-02    rms(broyden)= 0.35302E-02
  rms(prec ) = 0.43507E-02
  weight for this iteration     100.00

 Free energy of the ion-electron system (eV)
  ---------------------------------------------------
  alpha Z        PSCENC =       574.70065014
  Ewald energy   TEWEN  =     23053.53125040
  -1/2 Hartree   DENC   =    -33511.80591409
  -exchange  EXHF       =         0.00000000
  -V(xc)+E(xc)   XCENC  =      -356.26791126
  PAW double counting   =      8305.19637396    -7576.11810734
  entropy T*S    EENTRO =         0.00000000
  eigenvalues    EBANDS =      -265.37872595
  atomic energy  EATOM  =      9716.95502315
  ---------------------------------------------------
  free energy    TOTEN  =       -59.18736099 eV

  energy without entropy =      -59.18736099  energy(sigma->0) =      -59.18736099


--------------------------------------------------------------------------------------------------------




----------------------------------------- Iteration   12(   2)  ---------------------------------------


    POTLOK:  cpu time    0.55: real time    0.55
    SETDIJ:  cpu time    0.07: real time    0.07
     EDDAV:  cpu time   80.98: real time   80.99
 BZINTS: Fermi energy:  0.026787;120.000000 electrons
         Band energy:-264.999429;  BLOECHL correction: -0.027297
       DOS:  cpu time    0.04: real time    0.04
    CHARGE:  cpu time    1.75: real time    1.75
    MIXING:  cpu time    0.02: real time    0.02
    --------------------------------------------
      LOOP:  cpu time   83.41: real time   83.42

 eigenvalue-minimisations  :  2160
 total energy-change (2. order) :-0.4895743E-03  (-0.2581948E-03)
 number of electron     120.0000446 magnetization 
 augmentation part       50.8190309 magnetization 

 Broyden mixing:
  rms(total) = 0.14652E-01    rms(broyden)= 0.14652E-01
  rms(prec ) = 0.22488E-01
  weight for this iteration     100.00

 eigenvalues of (default mixing * dielectric matrix)
  average eigenvalue GAMMA=   0.1607
  0.1607

 Free energy of the ion-electron system (eV)
  ---------------------------------------------------
  alpha Z        PSCENC =       574.70065014
  Ewald energy   TEWEN  =     23053.53125040
  -1/2 Hartree   DENC   =    -33512.17533600
  -exchange  EXHF       =         0.00000000
  -V(xc)+E(xc)   XCENC  =      -356.26945306
  PAW double counting   =      8305.29627876    -7576.22683461
  entropy T*S    EENTRO =         0.00000000
  eigenvalues    EBANDS =      -264.99942934
  atomic energy  EATOM  =      9716.95502315
  ---------------------------------------------------
  free energy    TOTEN  =       -59.18785056 eV

  energy without entropy =      -59.18785056  energy(sigma->0) =      -59.18785056


--------------------------------------------------------------------------------------------------------




----------------------------------------- Iteration   12(   3)  ---------------------------------------


    POTLOK:  cpu time    0.55: real time    0.55
    SETDIJ:  cpu time    0.08: real time    0.07
     EDDAV:  cpu time   69.02: real time   69.02
 BZINTS: Fermi energy:  0.023551;120.000000 electrons
         Band energy:-265.341695;  BLOECHL correction: -0.026840
       DOS:  cpu time    0.04: real time    0.04
    CHARGE:  cpu time    1.74: real time    1.74
    MIXING:  cpu time    0.02: real time    0.02
    --------------------------------------------
      LOOP:  cpu time   71.44: real time   71.45

 eigenvalue-minimisations  :  1776
 total energy-change (2. order) : 0.3367468E-03  (-0.9176869E-04)
 number of electron     120.0000446 magnetization 
 augmentation part       50.8217393 magnetization 

 Broyden mixing:
  rms(total) = 0.54564E-02    rms(broyden)= 0.54539E-02
  rms(prec ) = 0.71248E-02
  weight for this iteration     100.00

 eigenvalues of (default mixing * dielectric matrix)
  average eigenvalue GAMMA=   0.2586
  0.1041  0.4130

 Free energy of the ion-electron system (eV)
  ---------------------------------------------------
  alpha Z        PSCENC =       574.70065014
  Ewald energy   TEWEN  =     23053.53125040
  -1/2 Hartree   DENC   =    -33511.83214393
  -exchange  EXHF       =         0.00000000
  -V(xc)+E(xc)   XCENC  =      -356.26925138
  PAW double counting   =      8305.27857066    -7576.20991807
  entropy T*S    EENTRO =         0.00000000
  eigenvalues    EBANDS =      -265.34169479
  atomic energy  EATOM  =      9716.95502315
  ---------------------------------------------------
  free energy    TOTEN  =       -59.18751382 eV

  energy without entropy =      -59.18751382  energy(sigma->0) =      -59.18751382


--------------------------------------------------------------------------------------------------------




----------------------------------------- Iteration   12(   4)  ---------------------------------------


    POTLOK:  cpu time    0.55: real time    0.55
    SETDIJ:  cpu time    0.08: real time    0.07
     EDDAV:  cpu time   78.09: real time   78.10
 BZINTS: Fermi energy:  0.023413;120.000000 electrons
         Band energy:-265.362721;  BLOECHL correction: -0.026929
       DOS:  cpu time    0.04: real time    0.04
    CHARGE:  cpu time    1.70: real time    1.70
    MIXING:  cpu time    0.02: real time    0.02
    --------------------------------------------
      LOOP:  cpu time   80.48: real time   80.49

 eigenvalue-minimisations  :  2072
 total energy-change (2. order) :-0.7446513E-05  (-0.1265763E-04)
 number of electron     120.0000446 magnetization 
 augmentation part       50.8215521 magnetization 

 Broyden mixing:
  rms(total) = 0.24858E-02    rms(broyden)= 0.24850E-02
  rms(prec ) = 0.27342E-02
  weight for this iteration     100.00

 eigenvalues of (default mixing * dielectric matrix)
  average eigenvalue GAMMA=   0.2463
  0.3163  0.3163  0.1062

 Free energy of the ion-electron system (eV)
  ---------------------------------------------------
  alpha Z        PSCENC =       574.70065014
  Ewald energy   TEWEN  =     23053.53125040
  -1/2 Hartree   DENC   =    -33511.80978575
  -exchange  EXHF       =         0.00000000
  -V(xc)+E(xc)   XCENC  =      -356.26915623
  PAW double counting   =      8305.29726306    -7576.23004551
  entropy T*S    EENTRO =         0.00000000
  eigenvalues    EBANDS =      -265.36272051
  atomic energy  EATOM  =      9716.95502315
  ---------------------------------------------------
  free energy    TOTEN  =       -59.18752126 eV

  energy without entropy =      -59.18752126  energy(sigma->0) =      -59.18752126


--------------------------------------------------------------------------------------------------------




----------------------------------------- Iteration   12(   5)  ---------------------------------------


    POTLOK:  cpu time    0.55: real time    0.55
    SETDIJ:  cpu time    0.07: real time    0.07
     EDDAV:  cpu time   69.62: real time   69.62
 BZINTS: Fermi energy:  0.023495;120.000000 electrons
         Band energy:-265.357575;  BLOECHL correction: -0.026925
       DOS:  cpu time    0.04: real time    0.04
    CHARGE:  cpu time    1.72: real time    1.71
    MIXING:  cpu time    0.02: real time    0.02
    --------------------------------------------
      LOOP:  cpu time   72.02: real time   72.02

 eigenvalue-minimisations  :  1792
 total energy-change (2. order) : 0.1141711E-04  (-0.1615887E-05)
 number of electron     120.0000446 magnetization 
 augmentation part       50.8215514 magnetization 

 Broyden mixing:
  rms(total) = 0.16803E-02    rms(broyden)= 0.16802E-02
  rms(prec ) = 0.18036E-02
  weight for this iteration     100.00

 eigenvalues of (default mixing * dielectric matrix)
  average eigenvalue GAMMA=   0.6395
  1.1035  1.1035  0.1054  0.2455

 Free energy of the ion-electron system (eV)
  ---------------------------------------------------
  alpha Z        PSCENC =       574.70065014
  Ewald energy   TEWEN  =     23053.53125040
  -1/2 Hartree   DENC   =    -33511.81424954
  -exchange  EXHF       =         0.00000000
  -V(xc)+E(xc)   XCENC  =      -356.26920032
  PAW double counting   =      8305.31423263    -7576.24764120
  entropy T*S    EENTRO =         0.00000000
  eigenvalues    EBANDS =      -265.35757511
  atomic energy  EATOM  =      9716.95502315
  ---------------------------------------------------
  free energy    TOTEN  =       -59.18750985 eV

  energy without entropy =      -59.18750985  energy(sigma->0) =      -59.18750985


--------------------------------------------------------------------------------------------------------




----------------------------------------- Iteration   12(   6)  ---------------------------------------


    POTLOK:  cpu time    0.55: real time    0.55
    SETDIJ:  cpu time    0.07: real time    0.07
     EDDAV:  cpu time   67.01: real time   67.02
 BZINTS: Fermi energy:  0.023360;120.000000 electrons
         Band energy:-265.377882;  BLOECHL correction: -0.026929
       DOS:  cpu time    0.04: real time    0.04
    CHARGE:  cpu time    1.74: real time    1.74
    MIXING:  cpu time    0.02: real time    0.02
    --------------------------------------------
      LOOP:  cpu time   69.44: real time   69.44

 eigenvalue-minimisations  :  1712
 total energy-change (2. order) : 0.1040466E-05  (-0.1641486E-05)
 number of electron     120.0000446 magnetization 
 augmentation part       50.8215176 magnetization 

 Broyden mixing:
  rms(total) = 0.77461E-03    rms(broyden)= 0.77458E-03
  rms(prec ) = 0.87098E-03
  weight for this iteration     100.00

 eigenvalues of (default mixing * dielectric matrix)
  average eigenvalue GAMMA=   0.8684
  2.3936  0.1053  0.2518  0.7956  0.7956

 Free energy of the ion-electron system (eV)
  ---------------------------------------------------
  alpha Z        PSCENC =       574.70065014
  Ewald energy   TEWEN  =     23053.53125040
  -1/2 Hartree   DENC   =    -33511.79147386
  -exchange  EXHF       =         0.00000000
  -V(xc)+E(xc)   XCENC  =      -356.26907692
  PAW double counting   =      8305.39991844    -7576.33591827
  entropy T*S    EENTRO =         0.00000000
  eigenvalues    EBANDS =      -265.37788188
  atomic energy  EATOM  =      9716.95502315
  ---------------------------------------------------
  free energy    TOTEN  =       -59.18750881 eV

  energy without entropy =      -59.18750881  energy(sigma->0) =      -59.18750881


--------------------------------------------------------------------------------------------------------




----------------------------------------- Iteration   12(   7)  ---------------------------------------


    POTLOK:  cpu time    0.55: real time    0.55
    SETDIJ:  cpu time    0.07: real time    0.07
     EDDAV:  cpu time   69.97: real time   69.97
 BZINTS: Fermi energy:  0.023224;120.000000 electrons
         Band energy:-265.393375;  BLOECHL correction: -0.026922
       DOS:  cpu time    0.04: real time    0.04
    --------------------------------------------
      LOOP:  cpu time   70.64: real time   70.64

 eigenvalue-minimisations  :  1800
 total energy-change (2. order) : 0.5733418E-06  (-0.7960537E-06)
 number of electron     120.0000446 magnetization 
 augmentation part       50.8215176 magnetization 

 Free energy of the ion-electron system (eV)
  ---------------------------------------------------
  alpha Z        PSCENC =       574.70065014
  Ewald energy   TEWEN  =     23053.53125040
  -1/2 Hartree   DENC   =    -33511.77270116
  -exchange  EXHF       =         0.00000000
  -V(xc)+E(xc)   XCENC  =      -356.26908363
  PAW double counting   =      8305.48403078    -7576.42330263
  entropy T*S    EENTRO =         0.00000000
  eigenvalues    EBANDS =      -265.39337526
  atomic energy  EATOM  =      9716.95502315
  ---------------------------------------------------
  free energy    TOTEN  =       -59.18750823 eV

  energy without entropy =      -59.18750823  energy(sigma->0) =      -59.18750823


--------------------------------------------------------------------------------------------------------




 average (electrostatic) potential at core
  the test charge radii are     1.1199
  (the norm of the test charge is              1.0000)
       1 -51.0518       2 -51.5381       3 -51.5152       4 -51.0518       5 -51.5381
       6 -51.5152       7 -51.5153       8 -51.5381       9 -51.0518      10 -51.5153
      11 -51.5381      12 -51.0518
 
 
 
 E-fermi :   0.0232     XC(G=0):  -7.7944     alpha+bet : -6.1545


 k-point   1 :       0.0000    0.0000    0.0000
  band No.  band energies     occupation 
      1      -6.4863      2.00000
      2      -5.6904      2.00000
      3      -4.8573      2.00000
      4      -4.8066      2.00000
      5      -4.8066      2.00000
      6      -4.7816      2.00000
      7      -4.6182      2.00000
      8      -4.5567      2.00000
      9      -4.5567      2.00000
     10      -4.3333      2.00000
     11      -4.3333      2.00000
     12      -4.3256      2.00000
     13      -4.2855      2.00000
     14      -4.1332      2.00000
     15      -4.0333      2.00000
     16      -4.0333      2.00000
     17      -3.8353      2.00000
     18      -3.7310      2.00000
     19      -3.7310      2.00000
     20      -3.3220      2.00000
     21      -3.2302      2.00000
     22      -3.2302      2.00000
     23      -2.8789      2.00000
     24      -2.6645      2.00000
     25      -2.4758      2.00000
     26      -2.4758      2.00000
     27      -2.1890      2.00000
     28      -2.1890      2.00000
     29      -2.0622      2.00000
     30      -2.0622      2.00000
     31      -1.5846      2.00000
     32      -1.4557      2.00000
     33      -1.4557      2.00000
     34      -1.4012      2.00000
     35      -1.1525      2.00000
     36      -1.0496      2.00000
     37      -1.0496      2.00000
     38      -1.0363      2.00000
     39      -1.0359      2.00000
     40      -0.9155      2.00000
     41      -0.9155      2.00000
     42      -0.8193      2.00000
     43      -0.7456      2.00000
     44      -0.7456      2.00000
     45      -0.5552      2.00000
     46      -0.4147      2.00000
     47      -0.4147      2.00000
     48      -0.2757      2.00000
     49      -0.1231      2.00000
     50      -0.1231      2.00000
     51      -0.0930      2.00000
     52      -0.0930      2.00000
     53      -0.0861      2.00000
     54      -0.0861      2.00000
     55      -0.0146      2.00000
     56       0.0349      1.84695
     57       0.2090      0.00576
     58       0.2090     -0.63619
     59       0.2769      0.00000
     60       0.2769      0.00000
     61       0.3198      0.00000
     62       0.3199      0.00000
     63       0.3914      0.00000
     64       0.6126      0.00000
     65       0.6127      0.00000
     66       1.9800      0.00000
     67       2.9901      0.00000
     68       4.0457      0.00000
     69       4.0457      0.00000
     70       5.1839      0.00000
     71       5.5101      0.00000
     72       5.5101      0.00000

 k-point   2 :       0.1429    0.0000    0.0000
  band No.  band energies     occupation 
      1      -6.2568      2.00000
      2      -5.4830      2.00000
      3      -4.7041      2.00000
      4      -4.6955      2.00000
      5      -4.6725      2.00000
      6      -4.6023      2.00000
      7      -4.4889      2.00000
      8      -4.4721      2.00000
      9      -4.4693      2.00000
     10      -4.2113      2.00000
     11      -4.1769      2.00000
     12      -4.1711      2.00000
     13      -4.1614      2.00000
     14      -3.9765      2.00000
     15      -3.9664      2.00000
     16      -3.9545      2.00000
     17      -3.7455      2.00000
     18      -3.5965      2.00000
     19      -3.5804      2.00000
     20      -3.2649      2.00000
     21      -3.2366      2.00000
     22      -3.1966      2.00000
     23      -2.8642      2.00000
     24      -2.5686      2.00000
     25      -2.5046      2.00000
     26      -2.3992      2.00000
     27      -2.2976      2.00000
     28      -2.2151      2.00000
     29      -2.1892      2.00000
     30      -2.0916      2.00000
     31      -1.9742      2.00000
     32      -1.5416      2.00000
     33      -1.4828      2.00000
     34      -1.3194      2.00000
     35      -1.2954      2.00000
     36      -1.2497      2.00000
     37      -1.1812      2.00000
     38      -1.1446      2.00000
     39      -1.0295      2.00000
     40      -1.0264      2.00000
     41      -0.9464      2.00000
     42      -0.8707      2.00000
     43      -0.7682      2.00000
     44      -0.6517      2.00000
     45      -0.5915      2.00000
     46      -0.5851      2.00000
     47      -0.5155      2.00000
     48      -0.4922      2.00000
     49      -0.2882      2.00000
     50      -0.2710      2.00000
     51      -0.2463      2.00000
     52      -0.1727      2.00000
     53      -0.1389      2.00000
     54      -0.1365      2.00000
     55      -0.1300      2.00000
     56      -0.1135      2.02077
     57      -0.1018      1.96188
     58      -0.0027      1.70016
     59       0.0675      0.44512
     60       0.0834      0.03273
     61       0.1237     -0.03854
     62       0.2033      0.00000
     63       0.3365      0.00000
     64       0.3857      0.00000
     65       1.0423      0.00000
     66       2.5476      0.00000
     67       2.9405      0.00000
     68       3.6556      0.00000
     69       4.2597      0.00000
     70       4.7822      0.00000
     71       5.4211      0.00000
     72       5.7554      0.00000

 k-point   3 :       0.2857    0.0000    0.0000
  band No.  band energies     occupation 
      1      -5.6128      2.00000
      2      -4.9123      2.00000
      3      -4.4239      2.00000
      4      -4.3232      2.00000
      5      -4.3024      2.00000
      6      -4.2300      2.00000
      7      -4.1761      2.00000
      8      -4.1275      2.00000
      9      -4.1052      2.00000
     10      -3.8958      2.00000
     11      -3.8387      2.00000
     12      -3.7951      2.00000
     13      -3.7852      2.00000
     14      -3.7790      2.00000
     15      -3.7456      2.00000
     16      -3.5035      2.00000
     17      -3.4825      2.00000
     18      -3.2915      2.00000
     19      -3.2234      2.00000
     20      -3.1781      2.00000
     21      -3.1748      2.00000
     22      -3.1196      2.00000
     23      -3.0487      2.00000
     24      -2.5254      2.00000
     25      -2.5025      2.00000
     26      -2.3562      2.00000
     27      -2.3450      2.00000
     28      -2.3257      2.00000
     29      -2.3168      2.00000
     30      -2.2003      2.00000
     31      -2.0941      2.00000
     32      -2.0566      2.00000
     33      -1.7599      2.00000
     34      -1.7009      2.00000
     35      -1.5962      2.00000
     36      -1.5613      2.00000
     37      -1.5212      2.00000
     38      -1.3919      2.00000
     39      -1.3370      2.00000
     40      -1.2548      2.00000
     41      -1.1238      2.00000
     42      -1.0193      2.00000
     43      -0.9013      2.00000
     44      -0.8501      2.00000
     45      -0.8494      2.00000
     46      -0.8490      2.00000
     47      -0.8401      2.00000
     48      -0.8189      2.00000
     49      -0.7404      2.00000
     50      -0.6675      2.00000
     51      -0.5608      2.00000
     52      -0.5047      2.00000
     53      -0.4737      2.00000
     54      -0.4545      2.00000
     55      -0.4211      2.00000
     56      -0.4116      2.00000
     57      -0.2837      2.00000
     58      -0.2780      2.00000
     59      -0.1786      2.16353
     60      -0.0816      2.21525
     61      -0.0651      1.93853
     62       0.1835      0.00000
     63       0.1890      0.00000
     64       0.7486      0.00000
     65       1.0374      0.00000
     66       2.1305      0.00000
     67       2.2603      0.00000
     68       3.6040      0.00000
     69       3.6877      0.00000
     70       4.9082      0.00000
     71       5.0384      0.00000
     72       6.1644      0.00000

 k-point   4 :       0.4286    0.0000    0.0000
  band No.  band energies     occupation 
      1      -4.7581      2.00000
      2      -4.2689      2.00000
      3      -4.1776      2.00000
      4      -3.9237      2.00000
      5      -3.8838      2.00000
      6      -3.8657      2.00000
      7      -3.7118      2.00000
      8      -3.7050      2.00000
      9      -3.6025      2.00000
     10      -3.5154      2.00000
     11      -3.5070      2.00000
     12      -3.4849      2.00000
     13      -3.4433      2.00000
     14      -3.3952      2.00000
     15      -3.3860      2.00000
     16      -3.3450      2.00000
     17      -3.2596      2.00000
     18      -3.2425      2.00000
     19      -3.2092      2.00000
     20      -3.1846      2.00000
     21      -3.0846      2.00000
     22      -2.8842      2.00000
     23      -2.8391      2.00000
     24      -2.7911      2.00000
     25      -2.7520      2.00000
     26      -2.7315      2.00000
     27      -2.6521      2.00000
     28      -2.5183      2.00000
     29      -2.3801      2.00000
     30      -2.3117      2.00000
     31      -2.0823      2.00000
     32      -2.0615      2.00000
     33      -1.9768      2.00000
     34      -1.9688      2.00000
     35      -1.6936      2.00000
     36      -1.6815      2.00000
     37      -1.5998      2.00000
     38      -1.4774      2.00000
     39      -1.4750      2.00000
     40      -1.4137      2.00000
     41      -1.4059      2.00000
     42      -1.3958      2.00000
     43      -1.3368      2.00000
     44      -1.3268      2.00000
     45      -1.2760      2.00000
     46      -1.2070      2.00000
     47      -1.0900      2.00000
     48      -1.0546      2.00000
     49      -1.0403      2.00000
     50      -0.9903      2.00000
     51      -0.9569      2.00000
     52      -0.9521      2.00000
     53      -0.8385      2.00000
     54      -0.8080      2.00000
     55      -0.6972      2.00000
     56      -0.6858      2.00000
     57      -0.6151      2.00000
     58      -0.2871      2.00000
     59      -0.2199      2.00000
     60      -0.2196      2.00000
     61      -0.1695      2.10319
     62       0.1618      0.00000
     63       0.1723      0.00000
     64       0.6600      0.00000
     65       0.6803      0.00000
     66       1.8484      0.00000
     67       1.8610      0.00000
     68       3.2411      0.00000
     69       3.3868      0.00000
     70       4.8323      0.00000
     71       5.0079      0.00000
     72       6.2137      0.00000

 k-point   5 :       0.1429    0.1429    0.0000
  band No.  band energies     occupation 
      1      -6.0418      2.00000
      2      -5.3112      2.00000
      3      -4.6147      2.00000
      4      -4.5630      2.00000
      5      -4.5630      2.00000
      6      -4.5211      2.00000
      7      -4.3965      2.00000
      8      -4.3965      2.00000
      9      -4.3172      2.00000
     10      -4.1309      2.00000
     11      -4.0558      2.00000
     12      -4.0558      2.00000
     13      -3.9623      2.00000
     14      -3.9408      2.00000
     15      -3.9400      2.00000
     16      -3.9400      2.00000
     17      -3.4904      2.00000
     18      -3.4495      2.00000
     19      -3.4495      2.00000
     20      -3.2330      2.00000
     21      -3.2330      2.00000
     22      -3.1126      2.00000
     23      -2.8181      2.00000
     24      -2.4894      2.00000
     25      -2.4869      2.00000
     26      -2.3775      2.00000
     27      -2.2860      2.00000
     28      -2.2515      2.00000
     29      -2.2515      2.00000
     30      -2.1432      2.00000
     31      -2.0961      2.00000
     32      -1.6770      2.00000
     33      -1.6645      2.00000
     34      -1.3652      2.00000
     35      -1.3652      2.00000
     36      -1.2834      2.00000
     37      -1.2370      2.00000
     38      -1.1455      2.00000
     39      -1.0787      2.00000
     40      -1.0735      2.00000
     41      -1.0454      2.00000
     42      -1.0454      2.00000
     43      -0.9642      2.00000
     44      -0.8849      2.00000
     45      -0.6782      2.00000
     46      -0.6782      2.00000
     47      -0.6036      2.00000
     48      -0.6012      2.00000
     49      -0.5221      2.00000
     50      -0.5221      2.00000
     51      -0.4537      2.00000
     52      -0.4113      2.00000
     53      -0.4113      2.00000
     54      -0.1920      2.00000
     55      -0.1134      2.00000
     56      -0.0647      2.00522
     57      -0.0646      1.95236
     58      -0.0383      1.91494
     59       0.0412      1.00899
     60       0.0412      0.31808
     61       0.0971      0.00938
     62       0.1931      0.00000
     63       0.2426      0.00000
     64       0.2426      0.00000
     65       1.3856      0.00000
     66       2.9654      0.00000
     67       3.6259      0.00000
     68       3.6259      0.00000
     69       4.1655      0.00000
     70       4.7439      0.00000
     71       4.7439      0.00000
     72       5.6653      0.00000

 k-point   6 :       0.2857    0.1429    0.0000
  band No.  band energies     occupation 
      1      -5.4450      2.00000
      2      -4.8643      2.00000
      3      -4.3226      2.00000
      4      -4.3119      2.00000
      5      -4.3073      2.00000
      6      -4.2285      2.00000
      7      -4.2041      2.00000
      8      -4.1416      2.00000
      9      -3.9086      2.00000
     10      -3.8847      2.00000
     11      -3.8719      2.00000
     12      -3.8539      2.00000
     13      -3.8138      2.00000
     14      -3.7397      2.00000
     15      -3.6778      2.00000
     16      -3.5074      2.00000
     17      -3.2482      2.00000
     18      -3.1794      2.00000
     19      -3.1168      2.00000
     20      -3.0832      2.00000
     21      -2.9990      2.00000
     22      -2.9089      2.00000
     23      -2.7849      2.00000
     24      -2.4805      2.00000
     25      -2.3780      2.00000
     26      -2.3104      2.00000
     27      -2.3016      2.00000
     28      -2.2717      2.00000
     29      -2.2481      2.00000
     30      -2.2146      2.00000
     31      -2.1581      2.00000
     32      -2.0941      2.00000
     33      -1.8982      2.00000
     34      -1.8131      2.00000
     35      -1.7230      2.00000
     36      -1.5815      2.00000
     37      -1.5651      2.00000
     38      -1.4842      2.00000
     39      -1.3954      2.00000
     40      -1.3678      2.00000
     41      -1.2259      2.00000
     42      -1.2050      2.00000
     43      -1.2044      2.00000
     44      -1.1810      2.00000
     45      -1.0824      2.00000
     46      -0.9907      2.00000
     47      -0.9242      2.00000
     48      -0.8849      2.00000
     49      -0.8517      2.00000
     50      -0.7985      2.00000
     51      -0.6680      2.00000
     52      -0.5786      2.00000
     53      -0.4734      2.00000
     54      -0.4520      2.00000
     55      -0.3505      2.00000
     56      -0.1971      2.00000
     57      -0.1120      2.00000
     58      -0.0967      2.00000
     59      -0.0928      2.07624
     60       0.0136      1.76826
     61       0.0604      0.32811
     62       0.1047      0.00000
     63       0.1138      0.00000
     64       0.7445      0.00000
     65       1.6970      0.00000
     66       2.2844      0.00000
     67       2.6201      0.00000
     68       3.7962      0.00000
     69       3.9425      0.00000
     70       4.9633      0.00000
     71       5.1060      0.00000
     72       5.2316      0.00000

 k-point   7 :       0.4286    0.1429    0.0000
  band No.  band energies     occupation 
      1      -4.6728      2.00000
      2      -4.3626      2.00000
      3      -4.2185      2.00000
      4      -4.0862      2.00000
      5      -4.0633      2.00000
      6      -3.9140      2.00000
      7      -3.8852      2.00000
      8      -3.8817      2.00000
      9      -3.7249      2.00000
     10      -3.7101      2.00000
     11      -3.6533      2.00000
     12      -3.5351      2.00000
     13      -3.4336      2.00000
     14      -3.4035      2.00000
     15      -3.2739      2.00000
     16      -3.2294      2.00000
     17      -3.1529      2.00000
     18      -3.1481      2.00000
     19      -2.9696      2.00000
     20      -2.9097      2.00000
     21      -2.8157      2.00000
     22      -2.7446      2.00000
     23      -2.6642      2.00000
     24      -2.6330      2.00000
     25      -2.5961      2.00000
     26      -2.5068      2.00000
     27      -2.4754      2.00000
     28      -2.3803      2.00000
     29      -2.3042      2.00000
     30      -2.2640      2.00000
     31      -2.1973      2.00000
     32      -2.1139      2.00000
     33      -2.0158      2.00000
     34      -1.9995      2.00000
     35      -1.8217      2.00000
     36      -1.7750      2.00000
     37      -1.7733      2.00000
     38      -1.7506      2.00000
     39      -1.6727      2.00000
     40      -1.6549      2.00000
     41      -1.6324      2.00000
     42      -1.5293      2.00000
     43      -1.4372      2.00000
     44      -1.2948      2.00000
     45      -1.2750      2.00000
     46      -1.2265      2.00000
     47      -1.0629      2.00000
     48      -1.0100      2.00000
     49      -0.9056      2.00000
     50      -0.8237      2.00000
     51      -0.8086      2.00000
     52      -0.7915      2.00000
     53      -0.5809      2.00000
     54      -0.5136      2.00000
     55      -0.4444      2.00000
     56      -0.3577      2.00000
     57      -0.3349      2.00000
     58      -0.2973      2.00000
     59      -0.1382      2.00000
     60      -0.0612      2.00000
     61      -0.0063      1.90549
     62       0.0468      0.00000
     63       0.1774      0.00000
     64       0.6075      0.00000
     65       0.8262      0.00000
     66       1.8385      0.00000
     67       1.9061      0.00000
     68       3.2639      0.00000
     69       3.4634      0.00000
     70       4.8557      0.00000
     71       5.1588      0.00000
     72       6.2538      0.00000

 k-point   8 :       0.2857    0.2857    0.0000
  band No.  band energies     occupation 
      1      -5.0152      2.00000
      2      -4.7537      2.00000
      3      -4.4480      2.00000
      4      -4.2466      2.00000
      5      -4.2253      2.00000
      6      -4.2253      2.00000
      7      -4.0896      2.00000
      8      -4.0896      2.00000
      9      -3.9113      2.00000
     10      -3.8659      2.00000
     11      -3.8062      2.00000
     12      -3.8062      2.00000
     13      -3.4813      2.00000
     14      -3.3990      2.00000
     15      -3.3990      2.00000
     16      -3.1473      2.00000
     17      -3.1473      2.00000
     18      -3.1310      2.00000
     19      -2.8351      2.00000
     20      -2.8351      2.00000
     21      -2.8072      2.00000
     22      -2.6605      2.00000
     23      -2.4387      2.00000
     24      -2.2943      2.00000
     25      -2.2703      2.00000
     26      -2.2669      2.00000
     27      -2.2352      2.00000
     28      -2.2352      2.00000
     29      -2.2213      2.00000
     30      -2.1979      2.00000
     31      -2.0812      2.00000
     32      -2.0812      2.00000
     33      -2.0266      2.00000
     34      -1.9847      2.00000
     35      -1.9623      2.00000
     36      -1.7833      2.00000
     37      -1.7833      2.00000
     38      -1.7696      2.00000
     39      -1.6582      2.00000
     40      -1.6582      2.00000
     41      -1.6083      2.00000
     42      -1.5737      2.00000
     43      -1.3627      2.00000
     44      -1.3140      2.00000
     45      -1.3140      2.00000
     46      -1.2949      2.00000
     47      -0.8837      2.00000
     48      -0.7474      2.00000
     49      -0.7474      2.00000
     50      -0.7289      2.00000
     51      -0.6677      2.00000
     52      -0.5936      2.00000
     53      -0.4093      2.00000
     54      -0.4093      2.00000
     55      -0.4051      2.00000
     56      -0.2686      2.00000
     57      -0.0525      2.00000
     58      -0.0131      2.00000
     59      -0.0131      1.99591
     60       0.0102      1.98707
     61       0.0496      0.00499
     62       0.0497      0.00000
     63       0.0907      0.00000
     64       0.9843      0.00000
     65       2.7962      0.00000
     66       2.8759      0.00000
     67       2.8759      0.00000
     68       3.4464      0.00000
     69       3.4464      0.00000
     70       4.0426      0.00000
     71       4.0426      0.00000
     72       4.5973      0.00000

 k-point   9 :       0.4286    0.2857    0.0000
  band No.  band energies     occupation 
      1      -4.6272      2.00000
      2      -4.6148      2.00000
      3      -4.4352      2.00000
      4      -4.4308      2.00000
      5      -4.3154      2.00000
      6      -4.1173      2.00000
      7      -4.0600      2.00000
      8      -4.0464      2.00000
      9      -3.7004      2.00000
     10      -3.6645      2.00000
     11      -3.5761      2.00000
     12      -3.4607      2.00000
     13      -3.3440      2.00000
     14      -3.2332      2.00000
     15      -3.0679      2.00000
     16      -3.0422      2.00000
     17      -2.9718      2.00000
     18      -2.8609      2.00000
     19      -2.8114      2.00000
     20      -2.6933      2.00000
     21      -2.6686      2.00000
     22      -2.6639      2.00000
     23      -2.6337      2.00000
     24      -2.5079      2.00000
     25      -2.4865      2.00000
     26      -2.4166      2.00000
     27      -2.3913      2.00000
     28      -2.3819      2.00000
     29      -2.2771      2.00000
     30      -2.1591      2.00000
     31      -2.1181      2.00000
     32      -2.0900      2.00000
     33      -2.0830      2.00000
     34      -2.0407      2.00000
     35      -1.9954      2.00000
     36      -1.9399      2.00000
     37      -1.8408      2.00000
     38      -1.8044      2.00000
     39      -1.7362      2.00000
     40      -1.6287      2.00000
     41      -1.4490      2.00000
     42      -1.4468      2.00000
     43      -1.3710      2.00000
     44      -1.3469      2.00000
     45      -1.2658      2.00000
     46      -1.0139      2.00000
     47      -0.9304      2.00000
     48      -0.7461      2.00000
     49      -0.6866      2.00000
     50      -0.6496      2.00000
     51      -0.5961      2.00000
     52      -0.5400      2.00000
     53      -0.3387      2.00000
     54      -0.2395      2.00000
     55      -0.1742      2.00000
     56      -0.1568      2.00000
     57      -0.1515      2.00000
     58      -0.1381      2.00000
     59      -0.0660      2.00000
     60      -0.0633      2.00000
     61       0.0401      0.15006
     62       0.0510      0.00000
     63       0.4786      0.00000
     64       1.1627      0.00000
     65       1.4134      0.00000
     66       1.8418      0.00000
     67       2.0445      0.00000
     68       3.1189      0.00000
     69       3.6021      0.00000
     70       4.1098      0.00000
     71       4.1413      0.00000
     72       5.1343      0.00000

 k-point  10 :       0.4286    0.4286    0.0000
  band No.  band energies     occupation 
      1      -4.7394      2.00000
      2      -4.7335      2.00000
      3      -4.6770      2.00000
      4      -4.6770      2.00000
      5      -4.2820      2.00000
      6      -4.2321      2.00000
      7      -4.1905      2.00000
      8      -4.1905      2.00000
      9      -3.6127      2.00000
     10      -3.6014      2.00000
     11      -3.4963      2.00000
     12      -3.4963      2.00000
     13      -3.0108      2.00000
     14      -2.9456      2.00000
     15      -2.9456      2.00000
     16      -2.8916      2.00000
     17      -2.7999      2.00000
     18      -2.7998      2.00000
     19      -2.6701      2.00000
     20      -2.6453      2.00000
     21      -2.6243      2.00000
     22      -2.6030      2.00000
     23      -2.6029      2.00000
     24      -2.5369      2.00000
     25      -2.5369      2.00000
     26      -2.4803      2.00000
     27      -2.4752      2.00000
     28      -2.4706      2.00000
     29      -2.2671      2.00000
     30      -2.2671      2.00000
     31      -2.2118      2.00000
     32      -2.1442      2.00000
     33      -2.0887      2.00000
     34      -2.0801      2.00000
     35      -2.0431      2.00000
     36      -2.0431      2.00000
     37      -1.5906      2.00000
     38      -1.5624      2.00000
     39      -1.5220      2.00000
     40      -1.5220      2.00000
     41      -1.4365      2.00000
     42      -1.3709      2.00000
     43      -1.3709      2.00000
     44      -1.2783      2.00000
     45      -0.9490      2.00000
     46      -0.6471      2.00000
     47      -0.6471      2.00000
     48      -0.6099      2.00000
     49      -0.5778      2.00000
     50      -0.5559      2.00000
     51      -0.5559      2.00000
     52      -0.3677      2.00000
     53      -0.2110      2.00000
     54      -0.1721      2.00000
     55      -0.1721      2.00000
     56      -0.1550      2.00000
     57      -0.0729      2.00000
     58      -0.0593      2.00000
     59      -0.0593      2.00000
     60       0.0211      2.00000
     61       0.6563      0.00000
     62       0.8129      0.00000
     63       1.0608      0.00000
     64       1.9738      0.00000
     65       2.0197      0.00000
     66       2.0197      0.00000
     67       2.3167      0.00000
     68       2.3168      0.00000
     69       2.4315      0.00000
     70       2.4315      0.00000
     71       3.2794      0.00000
     72       3.6973      0.00000


--------------------------------------------------------------------------------------------------------


 soft charge-density along one line, spin component           1
         0         1         2         3         4         5         6         7         8         9
 total charge-density along one line
 
 pseudopotential strength for first ion, spin component:           1
-11.498   0.000   0.000   0.000   0.000   0.125   0.000   0.000
  0.000 -11.398   0.000   0.000   0.000   0.000   0.109   0.000
  0.000   0.000 -11.369   0.000   0.000   0.000   0.000   0.105
  0.000   0.000   0.000 -11.398   0.000   0.000   0.000   0.000
  0.000   0.000   0.000   0.000 -11.442   0.000   0.000   0.000
  0.125   0.000   0.000   0.000   0.000   0.321   0.000   0.000
  0.000   0.109   0.000   0.000   0.000   0.000   0.324   0.000
  0.000   0.000   0.105   0.000   0.000   0.000   0.000   0.324
  0.000   0.000   0.000   0.109   0.000   0.000   0.000   0.000
  0.000   0.000   0.000   0.000   0.117   0.000   0.000   0.000
  0.000   0.000  -0.021   0.000   0.000   0.000   0.000   0.003
  0.000   0.000   0.002   0.000   0.000   0.000   0.000   0.000
  0.000  -0.016   0.000   0.000   0.000   0.000   0.003   0.000
  0.000   0.000  -0.019   0.000   0.000   0.000   0.000   0.003
  0.000   0.000   0.000  -0.016   0.000   0.000   0.000   0.000
  0.000   0.013   0.000   0.000   0.000   0.000  -0.002   0.000
  0.000   0.000   0.015   0.000   0.000   0.000   0.000  -0.002
  0.000   0.000   0.000   0.013   0.000   0.000   0.000   0.000
 total augmentation occupancy for first ion, spin component:           1
  1.650   0.000   0.000   0.000   0.000   0.184   0.000   0.000   0.000   0.000   0.000   0.000   0.000   0.000   0.000   0.000
  0.000   1.824   0.000   0.000   0.000   0.000   0.082   0.000   0.000   0.000   0.000   0.000  -0.011   0.000   0.000  -0.021
  0.000   0.000   1.862   0.000   0.000   0.000   0.000   0.058   0.000   0.000   0.017  -0.045   0.000   0.008   0.000   0.000
  0.000   0.000   0.000   1.824   0.000   0.000   0.000   0.000   0.082   0.000   0.000   0.000   0.000   0.000  -0.011   0.000
  0.000   0.000   0.000   0.000   1.859   0.000   0.000   0.000   0.000   0.046   0.000   0.000   0.000   0.000   0.000   0.000
  0.184   0.000   0.000   0.000   0.000   0.104   0.000   0.000   0.000   0.000   0.000   0.000   0.000   0.000   0.000   0.000
  0.000   0.082   0.000   0.000   0.000   0.000   0.097   0.000   0.000   0.000   0.000   0.000   0.052   0.000   0.000  -0.002
  0.000   0.000   0.058   0.000   0.000   0.000   0.000   0.092   0.000   0.000  -0.082   0.020   0.000   0.037   0.000   0.000
  0.000   0.000   0.000   0.082   0.000   0.000   0.000   0.000   0.097   0.000   0.000   0.000   0.000   0.000   0.052   0.000
  0.000   0.000   0.000   0.000   0.046   0.000   0.000   0.000   0.000   0.101   0.000   0.000   0.000   0.000   0.000   0.000
  0.000   0.000   0.017   0.000   0.000   0.000   0.000  -0.082   0.000   0.000   0.960  -0.309   0.000   0.096   0.000   0.000
  0.000   0.000  -0.045   0.000   0.000   0.000   0.000   0.020   0.000   0.000  -0.309   0.114   0.000  -0.046   0.000   0.000
  0.000  -0.011   0.000   0.000   0.000   0.000   0.052   0.000   0.000   0.000   0.000   0.000   0.098   0.000   0.000  -0.002
  0.000   0.000   0.008   0.000   0.000   0.000   0.000   0.037   0.000   0.000   0.096  -0.046   0.000   0.060   0.000   0.000
  0.000   0.000   0.000  -0.011   0.000   0.000   0.000   0.000   0.052   0.000   0.000   0.000   0.000   0.000   0.098   0.000
  0.000  -0.021   0.000   0.000   0.000   0.000  -0.002   0.000   0.000   0.000   0.000   0.000  -0.002   0.000   0.000   0.000
  0.000   0.000  -0.028   0.000   0.000   0.000   0.000  -0.001   0.000   0.000  -0.005   0.003   0.000  -0.001   0.000   0.000
  0.000   0.000   0.000  -0.021   0.000   0.000   0.000   0.000  -0.002   0.000   0.000   0.000   0.000   0.000  -0.002   0.000


------------------------ aborting loop because EDIFF is reached ----------------------------------------


    CHARGE:  cpu time    1.74: real time    1.73
    FORLOC:  cpu time    0.06: real time    0.06
    FORNL :  cpu time   25.88: real time   25.88
    STRESS:  cpu time   69.13: real time   69.14
    FORCOR:  cpu time    0.58: real time    0.59
    FORHAR:  cpu time    0.20: real time    0.19
    MIXING:  cpu time    0.02: real time    0.02

  FORCE on cell =-STRESS in cart. coord.  units (eV):
  Direction    XX          YY          ZZ          XY          YZ          ZX
  --------------------------------------------------------------------------------------
  Alpha Z   574.70065   574.70065   574.70065
  Ewald   29637.85394 29637.85394-36222.19046     0.00000     0.00000     0.00000
  Hartree 32505.70786 32505.70786-31499.62442     0.00000     0.00000     0.00000
  E(xc)    -627.23535  -627.23535  -629.20107     0.00000     0.00000     0.00000
  Local  -63593.52085-63593.52085 66261.10559     0.00000     0.00000     0.00000
  n-local  -647.36394  -639.47788  -646.43109     8.99245     0.00000     0.00000
  augment   513.77190   513.77189   518.74583    -0.00002    -0.00003    -0.00003
  Kinetic  1639.16402  1616.15703  1642.27995     7.01647     0.00000     0.00000
  Fock        0.00000     0.00000     0.00000     0.00000     0.00000     0.00000
  -------------------------------------------------------------------------------------
  Total      -4.48223    -4.48223    -0.61502     0.00000     0.00000     0.00000
  in kB     -21.05105   -21.05105    -2.88847     0.00000     0.00000     0.00000
  external pressure =      -15.00 kB  Pullay stress =        0.00 kB


 VOLUME and BASIS-vectors are now :
 -----------------------------------------------------------------------------
  energy-cutoff  :      415.00
  volume of cell :      341.14
      direct lattice vectors                 reciprocal lattice vectors
     3.951020398  0.000000000  0.000000000     0.253099174  0.000000000  0.000000000
     0.000000000  3.951020398  0.000000000     0.000000000  0.253099174  0.000000000
     0.000000000  0.000000000 21.853061195     0.000000000  0.000000000  0.045760179

  length of vectors
     3.951020398  3.951020398 21.853061195     0.253099174  0.253099174  0.045760179


 FORCES acting on ions
    electron-ion (+dipol)            ewald-force                    non-local-force                 convergence-correction
 -----------------------------------------------------------------------------------------------
   -.386E-14 -.263E-13 0.262E+04   0.110E-13 -.588E-14 -.262E+04   0.310E-24 0.000E+00 -.179E+01   0.108E-13 -.302E-13 -.710E-02
   0.587E-14 0.743E-14 0.530E+03   0.322E-13 -.496E-14 -.530E+03   0.258E-25 0.000E+00 0.102E+00   0.769E-14 0.217E-13 -.356E-02
   0.942E-14 0.238E-13 -.159E+04   0.912E-14 -.324E-14 0.159E+04   -.155E-24 0.310E-24 -.170E+00   -.116E-13 0.179E-13 0.440E-02
   -.655E-13 -.291E-13 0.262E+04   -.172E-13 0.622E-14 -.262E+04   0.310E-24 0.000E+00 -.179E+01   0.328E-13 -.389E-13 -.710E-02
   -.764E-13 -.436E-12 0.530E+03   0.229E-14 0.757E-14 -.530E+03   0.517E-25 0.000E+00 0.102E+00   -.813E-14 -.122E-13 -.356E-02
   -.735E-13 -.582E-12 -.159E+04   -.194E-13 0.103E-13 0.159E+04   0.258E-24 0.310E-24 -.170E+00   -.373E-13 -.409E-14 0.440E-02
   -.852E-13 0.241E-13 0.159E+04   0.842E-14 -.386E-14 -.159E+04   -.310E-24 0.414E-24 0.170E+00   0.142E-13 -.794E-14 -.442E-02
   -.383E-13 0.337E-13 -.530E+03   0.124E-13 -.113E-13 0.530E+03   0.129E-24 0.000E+00 -.102E+00   -.257E-13 0.185E-13 0.353E-02
   -.605E-13 0.318E-13 -.262E+04   0.106E-13 -.101E-13 0.262E+04   0.258E-25 0.000E+00 0.179E+01   -.201E-13 0.172E-14 0.710E-02
   0.905E-14 -.109E-12 0.159E+04   -.198E-13 0.100E-13 -.159E+04   0.103E-24 -.414E-24 0.170E+00   0.192E-13 -.227E-13 -.442E-02
   0.288E-13 0.293E-14 -.530E+03   -.171E-13 0.152E-14 0.530E+03   0.155E-24 0.000E+00 -.102E+00   0.159E-14 0.193E-13 0.353E-02
   0.939E-14 -.358E-13 -.262E+04   -.177E-13 0.202E-14 0.262E+04   0.517E-25 0.000E+00 0.179E+01   -.180E-13 0.351E-13 0.710E-02
 -----------------------------------------------------------------------------------------------
   -.341E-12 -.109E-11 0.245E-03   -.523E-14 -.173E-14 0.909E-12   0.956E-24 0.620E-24 0.200E-14   -.346E-13 -.176E-14 -.842E-04
 
 
 POSITION                                       TOTAL-FORCE (eV/Angst)
 -----------------------------------------------------------------------------------
      0.00000      0.00000      0.01741         0.000000      0.000000      0.009283
      0.00000      0.00000      3.95129         0.000000      0.000000      0.000037
      0.00000      0.00000      7.90502         0.000000      0.000000     -0.006572
      1.97551      1.97551      0.01741         0.000000      0.000000      0.009283
      1.97551      1.97551      3.95129         0.000000      0.000000      0.000037
      1.97551      1.97551      7.90502         0.000000      0.000000     -0.006572
      1.97551      0.00000      1.97254         0.000000      0.000000      0.006572
      1.97551      0.00000      5.92626         0.000000      0.000000     -0.000037
      1.97551      0.00000      9.86015         0.000000      0.000000     -0.009283
      0.00000      1.97551      1.97254         0.000000      0.000000      0.006572
      0.00000      1.97551      5.92626         0.000000      0.000000     -0.000037
      0.00000      1.97551      9.86015         0.000000      0.000000     -0.009283
 -----------------------------------------------------------------------------------
    total drift:                                0.000000      0.000000      0.000160


--------------------------------------------------------------------------------------------------------



  FREE ENERGIE OF THE ION-ELECTRON SYSTEM (eV)
  ---------------------------------------------------
  free  energy   TOTEN  =       -59.187508 eV

  energy  without entropy=      -59.187508  energy(sigma->0) =      -59.187508
 
 d Force = 0.7444207E-04[ 0.584E-04, 0.905E-04]  d Energy = 0.5993393E-04 0.145E-04
 d Force =-0.1649917E+02[-0.165E+02,-0.165E+02]  d Ewald  =-0.1649917E+02 0.183E-06


--------------------------------------------------------------------------------------------------------


    POTLOK:  cpu time    0.63: real time    0.63


--------------------------------------------------------------------------------------------------------


 Conjugate gradient step on ions:
 trial-energy change:   -0.000060  1 .order   -0.000074   -0.000090   -0.000058
  (g-gl).g = 0.782E-06      g.g   = 0.434E-05  gl.gl    = 0.728E-05
 g(Force)  = 0.434E-05   g(Stress)= 0.000E+00 ortho     = 0.342E-05
 gamma     =   0.10739
 trial     =  19.22712
 opt step  =  54.23786  (harmonic =  54.23786) maximal distance =0.00426632
 next E    =   -59.187576   (d E  =  -0.00013)


--------------------------------------------------------------------------------------------------------


    WAVPRE:  cpu time    0.12: real time    0.12
    FEWALD:  cpu time    0.00: real time    0.00
    ORTHCH:  cpu time    8.43: real time    8.43
     LOOP+:  cpu time  615.37: real time  615.43


----------------------------------------- Iteration   13(   1)  ---------------------------------------


    POTLOK:  cpu time    0.55: real time    0.55
    SETDIJ:  cpu time    0.08: real time    0.07
     EDDAV:  cpu time   58.81: real time   58.82
 BZINTS: Fermi energy:  0.023960;120.000000 electrons
         Band energy:-265.538914;  BLOECHL correction: -0.026768
       DOS:  cpu time    0.04: real time    0.04
    CHARGE:  cpu time    1.73: real time    1.73
    MIXING:  cpu time    0.02: real time    0.02
    --------------------------------------------
      LOOP:  cpu time   61.24: real time   61.24

 eigenvalue-minimisations  :  1440
 total energy-change (2. order) : 0.4527725E-03  (-0.1884797E-01)
 number of electron     120.0000445 magnetization 
 augmentation part       50.8203105 magnetization 

 Broyden mixing:
  rms(total) = 0.63700E-02    rms(broyden)= 0.63691E-02
  rms(prec ) = 0.78031E-02
  weight for this iteration     100.00

 Free energy of the ion-electron system (eV)
  ---------------------------------------------------
  alpha Z        PSCENC =       574.70065014
  Ewald energy   TEWEN  =     23083.58765967
  -1/2 Hartree   DENC   =    -33541.70219382
  -exchange  EXHF       =         0.00000000
  -V(xc)+E(xc)   XCENC  =      -356.24945087
  PAW double counting   =      8305.48991970    -7576.42975030
  entropy T*S    EENTRO =         0.00000000
  eigenvalues    EBANDS =      -265.53891371
  atomic energy  EATOM  =      9716.95502315
  ---------------------------------------------------
  free energy    TOTEN  =       -59.18705603 eV

  energy without entropy =      -59.18705603  energy(sigma->0) =      -59.18705603


--------------------------------------------------------------------------------------------------------




----------------------------------------- Iteration   13(   2)  ---------------------------------------


    POTLOK:  cpu time    0.55: real time    0.55
    SETDIJ:  cpu time    0.07: real time    0.07
     EDDAV:  cpu time   80.96: real time   80.97
 BZINTS: Fermi energy:  0.030013;120.000000 electrons
         Band energy:-264.871428;  BLOECHL correction: -0.027500
       DOS:  cpu time    0.04: real time    0.04
    CHARGE:  cpu time    1.75: real time    1.75
    MIXING:  cpu time    0.02: real time    0.02
    --------------------------------------------
      LOOP:  cpu time   83.40: real time   83.41

 eigenvalue-minimisations  :  2160
 total energy-change (2. order) :-0.1409376E-02  (-0.8396462E-03)
 number of electron     120.0000445 magnetization 
 augmentation part       50.8159641 magnetization 

 Broyden mixing:
  rms(total) = 0.25852E-01    rms(broyden)= 0.25850E-01
  rms(prec ) = 0.39617E-01
  weight for this iteration     100.00

 eigenvalues of (default mixing * dielectric matrix)
  average eigenvalue GAMMA=   0.1642
  0.1642

 Free energy of the ion-electron system (eV)
  ---------------------------------------------------
  alpha Z        PSCENC =       574.70065014
  Ewald energy   TEWEN  =     23083.58765967
  -1/2 Hartree   DENC   =    -33542.35206078
  -exchange  EXHF       =         0.00000000
  -V(xc)+E(xc)   XCENC  =      -356.25233290
  PAW double counting   =      8305.66629060    -7576.62226681
  entropy T*S    EENTRO =         0.00000000
  eigenvalues    EBANDS =      -264.87142848
  atomic energy  EATOM  =      9716.95502315
  ---------------------------------------------------
  free energy    TOTEN  =       -59.18846541 eV

  energy without entropy =      -59.18846541  energy(sigma->0) =      -59.18846541


--------------------------------------------------------------------------------------------------------




----------------------------------------- Iteration   13(   3)  ---------------------------------------


    POTLOK:  cpu time    0.56: real time    0.55
    SETDIJ:  cpu time    0.07: real time    0.07
     EDDAV:  cpu time   69.94: real time   69.94
 BZINTS: Fermi energy:  0.024245;120.000000 electrons
         Band energy:-265.481419;  BLOECHL correction: -0.026684
       DOS:  cpu time    0.04: real time    0.04
    CHARGE:  cpu time    1.70: real time    1.71
    MIXING:  cpu time    0.02: real time    0.02
    --------------------------------------------
      LOOP:  cpu time   72.33: real time   72.33

 eigenvalue-minimisations  :  1800
 total energy-change (2. order) : 0.8707528E-03  (-0.2932620E-03)
 number of electron     120.0000445 magnetization 
 augmentation part       50.8208145 magnetization 

 Broyden mixing:
  rms(total) = 0.10015E-01    rms(broyden)= 0.10011E-01
  rms(prec ) = 0.13139E-01
  weight for this iteration     100.00

 eigenvalues of (default mixing * dielectric matrix)
  average eigenvalue GAMMA=   0.2577
  0.1041  0.4112

 Free energy of the ion-electron system (eV)
  ---------------------------------------------------
  alpha Z        PSCENC =       574.70065014
  Ewald energy   TEWEN  =     23083.58765967
  -1/2 Hartree   DENC   =    -33541.74012489
  -exchange  EXHF       =         0.00000000
  -V(xc)+E(xc)   XCENC  =      -356.25196203
  PAW double counting   =      8305.63579249    -7576.59321457
  entropy T*S    EENTRO =         0.00000000
  eigenvalues    EBANDS =      -265.48141861
  atomic energy  EATOM  =      9716.95502315
  ---------------------------------------------------
  free energy    TOTEN  =       -59.18759466 eV

  energy without entropy =      -59.18759466  energy(sigma->0) =      -59.18759466


--------------------------------------------------------------------------------------------------------




----------------------------------------- Iteration   13(   4)  ---------------------------------------


    POTLOK:  cpu time    0.55: real time    0.55
    SETDIJ:  cpu time    0.08: real time    0.07
     EDDAV:  cpu time   78.90: real time   78.94
 BZINTS: Fermi energy:  0.024075;120.000000 electrons
         Band energy:-265.511495;  BLOECHL correction: -0.026848
       DOS:  cpu time    0.04: real time    0.04
    CHARGE:  cpu time    1.76: real time    1.76
    MIXING:  cpu time    0.02: real time    0.02
    --------------------------------------------
      LOOP:  cpu time   81.35: real time   81.39

 eigenvalue-minimisations  :  2088
 total energy-change (2. order) : 0.3411054E-04  (-0.4228939E-04)
 number of electron     120.0000445 magnetization 
 augmentation part       50.8204610 magnetization 

 Broyden mixing:
  rms(total) = 0.45100E-02    rms(broyden)= 0.45085E-02
  rms(prec ) = 0.49599E-02
  weight for this iteration     100.00

 eigenvalues of (default mixing * dielectric matrix)
  average eigenvalue GAMMA=   0.2462
  0.3162  0.3162  0.1061

 Free energy of the ion-electron system (eV)
  ---------------------------------------------------
  alpha Z        PSCENC =       574.70065014
  Ewald energy   TEWEN  =     23083.58765967
  -1/2 Hartree   DENC   =    -33541.70759244
  -exchange  EXHF       =         0.00000000
  -V(xc)+E(xc)   XCENC  =      -356.25176820
  PAW double counting   =      8305.67178416    -7576.63182170
  entropy T*S    EENTRO =         0.00000000
  eigenvalues    EBANDS =      -265.51149532
  atomic energy  EATOM  =      9716.95502315
  ---------------------------------------------------
  free energy    TOTEN  =       -59.18756055 eV

  energy without entropy =      -59.18756055  energy(sigma->0) =      -59.18756055


--------------------------------------------------------------------------------------------------------




----------------------------------------- Iteration   13(   5)  ---------------------------------------


    POTLOK:  cpu time    0.55: real time    0.55
    SETDIJ:  cpu time    0.07: real time    0.07
     EDDAV:  cpu time   72.65: real time   72.66
 BZINTS: Fermi energy:  0.024231;120.000000 electrons
         Band energy:-265.501090;  BLOECHL correction: -0.026838
       DOS:  cpu time    0.04: real time    0.04
    CHARGE:  cpu time    1.69: real time    1.69
    MIXING:  cpu time    0.02: real time    0.02
    --------------------------------------------
      LOOP:  cpu time   75.01: real time   75.03

 eigenvalue-minimisations  :  1888
 total energy-change (2. order) : 0.3042004E-04  (-0.5571564E-05)
 number of electron     120.0000445 magnetization 
 augmentation part       50.8204545 magnetization 

 Broyden mixing:
  rms(total) = 0.30501E-02    rms(broyden)= 0.30499E-02
  rms(prec ) = 0.32734E-02
  weight for this iteration     100.00

 eigenvalues of (default mixing * dielectric matrix)
  average eigenvalue GAMMA=   0.6378
  1.1002  1.1002  0.1054  0.2456

 Free energy of the ion-electron system (eV)
  ---------------------------------------------------
  alpha Z        PSCENC =       574.70065014
  Ewald energy   TEWEN  =     23083.58765967
  -1/2 Hartree   DENC   =    -33541.71675268
  -exchange  EXHF       =         0.00000000
  -V(xc)+E(xc)   XCENC  =      -356.25183081
  PAW double counting   =      8305.70367609    -7576.66486551
  entropy T*S    EENTRO =         0.00000000
  eigenvalues    EBANDS =      -265.50109016
  atomic energy  EATOM  =      9716.95502315
  ---------------------------------------------------
  free energy    TOTEN  =       -59.18753013 eV

  energy without entropy =      -59.18753013  energy(sigma->0) =      -59.18753013


--------------------------------------------------------------------------------------------------------




----------------------------------------- Iteration   13(   6)  ---------------------------------------


    POTLOK:  cpu time    0.55: real time    0.55
    SETDIJ:  cpu time    0.07: real time    0.07
     EDDAV:  cpu time   68.59: real time   68.60
 BZINTS: Fermi energy:  0.024053;120.000000 electrons
         Band energy:-265.530627;  BLOECHL correction: -0.026847
       DOS:  cpu time    0.04: real time    0.04
    CHARGE:  cpu time    1.74: real time    1.74
    MIXING:  cpu time    0.02: real time    0.02
    --------------------------------------------
      LOOP:  cpu time   71.02: real time   71.02

 eigenvalue-minimisations  :  1760
 total energy-change (2. order) : 0.1076239E-04  (-0.5262283E-05)
 number of electron     120.0000445 magnetization 
 augmentation part       50.8203033 magnetization 

 Broyden mixing:
  rms(total) = 0.14283E-02    rms(broyden)= 0.14282E-02
  rms(prec ) = 0.16162E-02
  weight for this iteration     100.00

 eigenvalues of (default mixing * dielectric matrix)
  average eigenvalue GAMMA=   0.8754
  2.4382  0.1053  0.2519  0.7909  0.7909

 Free energy of the ion-electron system (eV)
  ---------------------------------------------------
  alpha Z        PSCENC =       574.70065014
  Ewald energy   TEWEN  =     23083.58765967
  -1/2 Hartree   DENC   =    -33541.68263115
  -exchange  EXHF       =         0.00000000
  -V(xc)+E(xc)   XCENC  =      -356.25154295
  PAW double counting   =      8305.86226458    -7576.82831545
  entropy T*S    EENTRO =         0.00000000
  eigenvalues    EBANDS =      -265.53062734
  atomic energy  EATOM  =      9716.95502315
  ---------------------------------------------------
  free energy    TOTEN  =       -59.18751936 eV

  energy without entropy =      -59.18751936  energy(sigma->0) =      -59.18751936


--------------------------------------------------------------------------------------------------------




----------------------------------------- Iteration   13(   7)  ---------------------------------------


    POTLOK:  cpu time    0.55: real time    0.55
    SETDIJ:  cpu time    0.07: real time    0.07
     EDDAV:  cpu time   79.35: real time   79.35
 BZINTS: Fermi energy:  0.023791;120.000000 electrons
         Band energy:-265.560328;  BLOECHL correction: -0.026832
       DOS:  cpu time    0.04: real time    0.04
    CHARGE:  cpu time    1.74: real time    1.75
    MIXING:  cpu time    0.02: real time    0.02
    --------------------------------------------
      LOOP:  cpu time   81.78: real time   81.79

 eigenvalue-minimisations  :  2104
 total energy-change (2. order) : 0.2780271E-05  (-0.3066211E-05)
 number of electron     120.0000445 magnetization 
 augmentation part       50.8204241 magnetization 

 Broyden mixing:
  rms(total) = 0.31954E-03    rms(broyden)= 0.31922E-03
  rms(prec ) = 0.34851E-03
  weight for this iteration     100.00

 eigenvalues of (default mixing * dielectric matrix)
  average eigenvalue GAMMA=   0.8933
  2.3645  0.9418  0.9418  0.1053  0.7549  0.2514

 Free energy of the ion-electron system (eV)
  ---------------------------------------------------
  alpha Z        PSCENC =       574.70065014
  Ewald energy   TEWEN  =     23083.58765967
  -1/2 Hartree   DENC   =    -33541.64642551
  -exchange  EXHF       =         0.00000000
  -V(xc)+E(xc)   XCENC  =      -356.25157627
  PAW double counting   =      8306.01640586    -7576.98892602
  entropy T*S    EENTRO =         0.00000000
  eigenvalues    EBANDS =      -265.56032759
  atomic energy  EATOM  =      9716.95502315
  ---------------------------------------------------
  free energy    TOTEN  =       -59.18751658 eV

  energy without entropy =      -59.18751658  energy(sigma->0) =      -59.18751658


--------------------------------------------------------------------------------------------------------




----------------------------------------- Iteration   13(   8)  ---------------------------------------


    POTLOK:  cpu time    0.55: real time    0.55
    SETDIJ:  cpu time    0.08: real time    0.07
     EDDAV:  cpu time   39.37: real time   39.38
 BZINTS: Fermi energy:  0.023683;120.000000 electrons
         Band energy:-265.572845;  BLOECHL correction: -0.026833
       DOS:  cpu time    0.04: real time    0.04
    --------------------------------------------
      LOOP:  cpu time   40.04: real time   40.05

 eigenvalue-minimisations  :   808
 total energy-change (2. order) :-0.5581223E-06  (-0.2720602E-07)
 number of electron     120.0000445 magnetization 
 augmentation part       50.8204241 magnetization 

 Free energy of the ion-electron system (eV)
  ---------------------------------------------------
  alpha Z        PSCENC =       574.70065014
  Ewald energy   TEWEN  =     23083.58765967
  -1/2 Hartree   DENC   =    -33541.63302447
  -exchange  EXHF       =         0.00000000
  -V(xc)+E(xc)   XCENC  =      -356.25170042
  PAW double counting   =      8306.02025591    -7576.99353660
  entropy T*S    EENTRO =         0.00000000
  eigenvalues    EBANDS =      -265.57284451
  atomic energy  EATOM  =      9716.95502315
  ---------------------------------------------------
  free energy    TOTEN  =       -59.18751714 eV

  energy without entropy =      -59.18751714  energy(sigma->0) =      -59.18751714


--------------------------------------------------------------------------------------------------------




 average (electrostatic) potential at core
  the test charge radii are     1.1199
  (the norm of the test charge is              1.0000)
       1 -51.0537       2 -51.5380       3 -51.5166       4 -51.0537       5 -51.5380
       6 -51.5166       7 -51.5167       8 -51.5379       9 -51.0537      10 -51.5167
      11 -51.5379      12 -51.0537
 
 
 
 E-fermi :   0.0237     XC(G=0):  -7.7909     alpha+bet : -6.1545


 k-point   1 :       0.0000    0.0000    0.0000
  band No.  band energies     occupation 
      1      -6.4880      2.00000
      2      -5.6936      2.00000
      3      -4.8587      2.00000
      4      -4.8083      2.00000
      5      -4.8083      2.00000
      6      -4.7838      2.00000
      7      -4.6198      2.00000
      8      -4.5584      2.00000
      9      -4.5584      2.00000
     10      -4.3365      2.00000
     11      -4.3365      2.00000
     12      -4.3296      2.00000
     13      -4.2892      2.00000
     14      -4.1361      2.00000
     15      -4.0374      2.00000
     16      -4.0374      2.00000
     17      -3.8389      2.00000
     18      -3.7344      2.00000
     19      -3.7344      2.00000
     20      -3.3227      2.00000
     21      -3.2345      2.00000
     22      -3.2345      2.00000
     23      -2.8778      2.00000
     24      -2.6636      2.00000
     25      -2.4773      2.00000
     26      -2.4773      2.00000
     27      -2.1907      2.00000
     28      -2.1907      2.00000
     29      -2.0658      2.00000
     30      -2.0658      2.00000
     31      -1.5832      2.00000
     32      -1.4593      2.00000
     33      -1.4593      2.00000
     34      -1.3996      2.00000
     35      -1.1506      2.00000
     36      -1.0489      2.00000
     37      -1.0489      2.00000
     38      -1.0374      2.00000
     39      -1.0344      2.00000
     40      -0.9156      2.00000
     41      -0.9155      2.00000
     42      -0.8220      2.00000
     43      -0.7468      2.00000
     44      -0.7468      2.00000
     45      -0.5582      2.00000
     46      -0.4142      2.00000
     47      -0.4142      2.00000
     48      -0.2768      2.00000
     49      -0.1227      2.00000
     50      -0.1227      2.00000
     51      -0.0925      2.00000
     52      -0.0925      2.00000
     53      -0.0850      2.00000
     54      -0.0850      2.00000
     55      -0.0147      2.00000
     56       0.0350      1.85260
     57       0.2095      0.00797
     58       0.2095     -0.63529
     59       0.2769      0.00000
     60       0.2770      0.00000
     61       0.3186      0.00000
     62       0.3186      0.00000
     63       0.3930      0.00000
     64       0.6107      0.00000
     65       0.6108      0.00000
     66       1.9846      0.00000
     67       2.9947      0.00000
     68       4.0445      0.00000
     69       4.0445      0.00000
     70       5.1917      0.00000
     71       5.5085      0.00000
     72       5.5085      0.00000

 k-point   2 :       0.1429    0.0000    0.0000
  band No.  band energies     occupation 
      1      -6.2585      2.00000
      2      -5.4862      2.00000
      3      -4.7056      2.00000
      4      -4.6972      2.00000
      5      -4.6742      2.00000
      6      -4.6046      2.00000
      7      -4.4905      2.00000
      8      -4.4738      2.00000
      9      -4.4710      2.00000
     10      -4.2145      2.00000
     11      -4.1801      2.00000
     12      -4.1748      2.00000
     13      -4.1653      2.00000
     14      -3.9806      2.00000
     15      -3.9705      2.00000
     16      -3.9575      2.00000
     17      -3.7491      2.00000
     18      -3.5998      2.00000
     19      -3.5836      2.00000
     20      -3.2660      2.00000
     21      -3.2406      2.00000
     22      -3.2010      2.00000
     23      -2.8639      2.00000
     24      -2.5678      2.00000
     25      -2.5056      2.00000
     26      -2.4006      2.00000
     27      -2.2994      2.00000
     28      -2.2170      2.00000
     29      -2.1911      2.00000
     30      -2.0949      2.00000
     31      -1.9766      2.00000
     32      -1.5426      2.00000
     33      -1.4862      2.00000
     34      -1.3174      2.00000
     35      -1.2953      2.00000
     36      -1.2499      2.00000
     37      -1.1811      2.00000
     38      -1.1446      2.00000
     39      -1.0299      2.00000
     40      -1.0281      2.00000
     41      -0.9467      2.00000
     42      -0.8703      2.00000
     43      -0.7692      2.00000
     44      -0.6523      2.00000
     45      -0.5932      2.00000
     46      -0.5868      2.00000
     47      -0.5150      2.00000
     48      -0.4924      2.00000
     49      -0.2879      2.00000
     50      -0.2700      2.00000
     51      -0.2463      2.00000
     52      -0.1728      2.00000
     53      -0.1384      2.00000
     54      -0.1360      2.00000
     55      -0.1306      2.00000
     56      -0.1135      2.02017
     57      -0.1016      1.96199
     58      -0.0024      1.70080
     59       0.0675      0.44770
     60       0.0827      0.03682
     61       0.1227     -0.03762
     62       0.2039      0.00000
     63       0.3354      0.00000
     64       0.3851      0.00000
     65       1.0440      0.00000
     66       2.5519      0.00000
     67       2.9395      0.00000
     68       3.6598      0.00000
     69       4.2587      0.00000
     70       4.7812      0.00000
     71       5.4290      0.00000
     72       5.7568      0.00000

 k-point   3 :       0.2857    0.0000    0.0000
  band No.  band energies     occupation 
      1      -5.6144      2.00000
      2      -4.9154      2.00000
      3      -4.4256      2.00000
      4      -4.3249      2.00000
      5      -4.3040      2.00000
      6      -4.2317      2.00000
      7      -4.1776      2.00000
      8      -4.1300      2.00000
      9      -4.1067      2.00000
     10      -3.8989      2.00000
     11      -3.8422      2.00000
     12      -3.7985      2.00000
     13      -3.7887      2.00000
     14      -3.7830      2.00000
     15      -3.7496      2.00000
     16      -3.5074      2.00000
     17      -3.4856      2.00000
     18      -3.2940      2.00000
     19      -3.2263      2.00000
     20      -3.1821      2.00000
     21      -3.1773      2.00000
     22      -3.1241      2.00000
     23      -3.0501      2.00000
     24      -2.5272      2.00000
     25      -2.5049      2.00000
     26      -2.3589      2.00000
     27      -2.3452      2.00000
     28      -2.3261      2.00000
     29      -2.3169      2.00000
     30      -2.2017      2.00000
     31      -2.0970      2.00000
     32      -2.0584      2.00000
     33      -1.7609      2.00000
     34      -1.7022      2.00000
     35      -1.5972      2.00000
     36      -1.5654      2.00000
     37      -1.5237      2.00000
     38      -1.3902      2.00000
     39      -1.3397      2.00000
     40      -1.2534      2.00000
     41      -1.1242      2.00000
     42      -1.0187      2.00000
     43      -0.9011      2.00000
     44      -0.8518      2.00000
     45      -0.8506      2.00000
     46      -0.8498      2.00000
     47      -0.8406      2.00000
     48      -0.8193      2.00000
     49      -0.7414      2.00000
     50      -0.6667      2.00000
     51      -0.5620      2.00000
     52      -0.5045      2.00000
     53      -0.4734      2.00000
     54      -0.4546      2.00000
     55      -0.4216      2.00000
     56      -0.4123      2.00000
     57      -0.2838      2.00000
     58      -0.2776      2.00000
     59      -0.1777      2.16342
     60      -0.0813      2.22093
     61      -0.0636      1.93386
     62       0.1848      0.00000
     63       0.1898      0.00000
     64       0.7497      0.00000
     65       1.0367      0.00000
     66       2.1328      0.00000
     67       2.2599      0.00000
     68       3.6056      0.00000
     69       3.6916      0.00000
     70       4.9123      0.00000
     71       5.0421      0.00000
     72       6.1724      0.00000

 k-point   4 :       0.4286    0.0000    0.0000
  band No.  band energies     occupation 
      1      -4.7597      2.00000
      2      -4.2704      2.00000
      3      -4.1805      2.00000
      4      -3.9252      2.00000
      5      -3.8855      2.00000
      6      -3.8672      2.00000
      7      -3.7145      2.00000
      8      -3.7064      2.00000
      9      -3.6048      2.00000
     10      -3.5192      2.00000
     11      -3.5096      2.00000
     12      -3.4859      2.00000
     13      -3.4444      2.00000
     14      -3.3987      2.00000
     15      -3.3890      2.00000
     16      -3.3465      2.00000
     17      -3.2621      2.00000
     18      -3.2482      2.00000
     19      -3.2144      2.00000
     20      -3.1866      2.00000
     21      -3.0890      2.00000
     22      -2.8872      2.00000
     23      -2.8403      2.00000
     24      -2.7939      2.00000
     25      -2.7555      2.00000
     26      -2.7346      2.00000
     27      -2.6538      2.00000
     28      -2.5219      2.00000
     29      -2.3820      2.00000
     30      -2.3156      2.00000
     31      -2.0857      2.00000
     32      -2.0657      2.00000
     33      -1.9782      2.00000
     34      -1.9700      2.00000
     35      -1.6965      2.00000
     36      -1.6817      2.00000
     37      -1.6002      2.00000
     38      -1.4794      2.00000
     39      -1.4770      2.00000
     40      -1.4147      2.00000
     41      -1.4060      2.00000
     42      -1.3955      2.00000
     43      -1.3366      2.00000
     44      -1.3292      2.00000
     45      -1.2765      2.00000
     46      -1.2067      2.00000
     47      -1.0901      2.00000
     48      -1.0552      2.00000
     49      -1.0395      2.00000
     50      -0.9906      2.00000
     51      -0.9567      2.00000
     52      -0.9521      2.00000
     53      -0.8380      2.00000
     54      -0.8083      2.00000
     55      -0.6961      2.00000
     56      -0.6864      2.00000
     57      -0.6147      2.00000
     58      -0.2869      2.00000
     59      -0.2184      2.00000
     60      -0.2176      2.00000
     61      -0.1691      2.10304
     62       0.1631      0.00000
     63       0.1733      0.00000
     64       0.6611      0.00000
     65       0.6806      0.00000
     66       1.8507      0.00000
     67       1.8626      0.00000
     68       3.2444      0.00000
     69       3.3898      0.00000
     70       4.8358      0.00000
     71       5.0114      0.00000
     72       6.2182      0.00000

 k-point   5 :       0.1429    0.1429    0.0000
  band No.  band energies     occupation 
      1      -6.0434      2.00000
      2      -5.3143      2.00000
      3      -4.6161      2.00000
      4      -4.5647      2.00000
      5      -4.5647      2.00000
      6      -4.5234      2.00000
      7      -4.3982      2.00000
      8      -4.3982      2.00000
      9      -4.3189      2.00000
     10      -4.1351      2.00000
     11      -4.0590      2.00000
     12      -4.0590      2.00000
     13      -3.9660      2.00000
     14      -3.9445      2.00000
     15      -3.9438      2.00000
     16      -3.9438      2.00000
     17      -3.4937      2.00000
     18      -3.4527      2.00000
     19      -3.4527      2.00000
     20      -3.2374      2.00000
     21      -3.2374      2.00000
     22      -3.1138      2.00000
     23      -2.8185      2.00000
     24      -2.4888      2.00000
     25      -2.4873      2.00000
     26      -2.3789      2.00000
     27      -2.2871      2.00000
     28      -2.2535      2.00000
     29      -2.2535      2.00000
     30      -2.1449      2.00000
     31      -2.0994      2.00000
     32      -1.6808      2.00000
     33      -1.6656      2.00000
     34      -1.3657      2.00000
     35      -1.3657      2.00000
     36      -1.2804      2.00000
     37      -1.2403      2.00000
     38      -1.1456      2.00000
     39      -1.0801      2.00000
     40      -1.0713      2.00000
     41      -1.0454      2.00000
     42      -1.0454      2.00000
     43      -0.9652      2.00000
     44      -0.8888      2.00000
     45      -0.6781      2.00000
     46      -0.6781      2.00000
     47      -0.6040      2.00000
     48      -0.6010      2.00000
     49      -0.5235      2.00000
     50      -0.5234      2.00000
     51      -0.4554      2.00000
     52      -0.4103      2.00000
     53      -0.4103      2.00000
     54      -0.1918      2.00000
     55      -0.1128      2.00000
     56      -0.0648      2.00512
     57      -0.0648      1.95287
     58      -0.0380      1.91507
     59       0.0411      1.01744
     60       0.0411      0.31633
     61       0.0978      0.00729
     62       0.1938      0.00000
     63       0.2424      0.00000
     64       0.2424      0.00000
     65       1.3874      0.00000
     66       2.9695      0.00000
     67       3.6251      0.00000
     68       3.6251      0.00000
     69       4.1696      0.00000
     70       4.7430      0.00000
     71       4.7430      0.00000
     72       5.6733      0.00000

 k-point   6 :       0.2857    0.1429    0.0000
  band No.  band energies     occupation 
      1      -5.4466      2.00000
      2      -4.8672      2.00000
      3      -4.3238      2.00000
      4      -4.3141      2.00000
      5      -4.3090      2.00000
      6      -4.2303      2.00000
      7      -4.2055      2.00000
      8      -4.1429      2.00000
      9      -3.9102      2.00000
     10      -3.8895      2.00000
     11      -3.8752      2.00000
     12      -3.8570      2.00000
     13      -3.8184      2.00000
     14      -3.7430      2.00000
     15      -3.6811      2.00000
     16      -3.5110      2.00000
     17      -3.2526      2.00000
     18      -3.1842      2.00000
     19      -3.1201      2.00000
     20      -3.0866      2.00000
     21      -3.0010      2.00000
     22      -2.9113      2.00000
     23      -2.7867      2.00000
     24      -2.4819      2.00000
     25      -2.3781      2.00000
     26      -2.3103      2.00000
     27      -2.3035      2.00000
     28      -2.2736      2.00000
     29      -2.2481      2.00000
     30      -2.2160      2.00000
     31      -2.1600      2.00000
     32      -2.0964      2.00000
     33      -1.8995      2.00000
     34      -1.8161      2.00000
     35      -1.7250      2.00000
     36      -1.5827      2.00000
     37      -1.5656      2.00000
     38      -1.4869      2.00000
     39      -1.3960      2.00000
     40      -1.3677      2.00000
     41      -1.2266      2.00000
     42      -1.2063      2.00000
     43      -1.2052      2.00000
     44      -1.1831      2.00000
     45      -1.0825      2.00000
     46      -0.9902      2.00000
     47      -0.9248      2.00000
     48      -0.8859      2.00000
     49      -0.8516      2.00000
     50      -0.7976      2.00000
     51      -0.6690      2.00000
     52      -0.5786      2.00000
     53      -0.4729      2.00000
     54      -0.4528      2.00000
     55      -0.3500      2.00000
     56      -0.1969      2.00000
     57      -0.1118      2.00000
     58      -0.0963      2.00000
     59      -0.0925      2.07618
     60       0.0147      1.76300
     61       0.0610      0.32757
     62       0.1050      0.00000
     63       0.1146      0.00000
     64       0.7455      0.00000
     65       1.6965      0.00000
     66       2.2867      0.00000
     67       2.6196      0.00000
     68       3.7975      0.00000
     69       3.9462      0.00000
     70       4.9628      0.00000
     71       5.1089      0.00000
     72       5.2357      0.00000

 k-point   7 :       0.4286    0.1429    0.0000
  band No.  band energies     occupation 
      1      -4.6742      2.00000
      2      -4.3649      2.00000
      3      -4.2201      2.00000
      4      -4.0875      2.00000
      5      -4.0655      2.00000
      6      -3.9158      2.00000
      7      -3.8876      2.00000
      8      -3.8830      2.00000
      9      -3.7271      2.00000
     10      -3.7133      2.00000
     11      -3.6559      2.00000
     12      -3.5401      2.00000
     13      -3.4370      2.00000
     14      -3.4070      2.00000
     15      -3.2768      2.00000
     16      -3.2326      2.00000
     17      -3.1581      2.00000
     18      -3.1495      2.00000
     19      -2.9736      2.00000
     20      -2.9130      2.00000
     21      -2.8179      2.00000
     22      -2.7470      2.00000
     23      -2.6669      2.00000
     24      -2.6345      2.00000
     25      -2.5981      2.00000
     26      -2.5095      2.00000
     27      -2.4768      2.00000
     28      -2.3813      2.00000
     29      -2.3074      2.00000
     30      -2.2662      2.00000
     31      -2.1987      2.00000
     32      -2.1167      2.00000
     33      -2.0154      2.00000
     34      -2.0011      2.00000
     35      -1.8237      2.00000
     36      -1.7755      2.00000
     37      -1.7753      2.00000
     38      -1.7518      2.00000
     39      -1.6733      2.00000
     40      -1.6575      2.00000
     41      -1.6345      2.00000
     42      -1.5302      2.00000
     43      -1.4362      2.00000
     44      -1.2953      2.00000
     45      -1.2764      2.00000
     46      -1.2262      2.00000
     47      -1.0653      2.00000
     48      -1.0096      2.00000
     49      -0.9060      2.00000
     50      -0.8245      2.00000
     51      -0.8098      2.00000
     52      -0.7912      2.00000
     53      -0.5805      2.00000
     54      -0.5132      2.00000
     55      -0.4434      2.00000
     56      -0.3576      2.00000
     57      -0.3344      2.00000
     58      -0.2973      2.00000
     59      -0.1371      2.00000
     60      -0.0597      2.00000
     61      -0.0063      1.90655
     62       0.0475      0.00000
     63       0.1779      0.00000
     64       0.6085      0.00000
     65       0.8263      0.00000
     66       1.8407      0.00000
     67       1.9073      0.00000
     68       3.2668      0.00000
     69       3.4663      0.00000
     70       4.8588      0.00000
     71       5.1620      0.00000
     72       6.2547      0.00000

 k-point   8 :       0.2857    0.2857    0.0000
  band No.  band energies     occupation 
      1      -5.0166      2.00000
      2      -4.7562      2.00000
      3      -4.4504      2.00000
      4      -4.2478      2.00000
      5      -4.2267      2.00000
      6      -4.2267      2.00000
      7      -4.0918      2.00000
      8      -4.0918      2.00000
      9      -3.9161      2.00000
     10      -3.8709      2.00000
     11      -3.8088      2.00000
     12      -3.8088      2.00000
     13      -3.4833      2.00000
     14      -3.4029      2.00000
     15      -3.4029      2.00000
     16      -3.1515      2.00000
     17      -3.1515      2.00000
     18      -3.1343      2.00000
     19      -2.8385      2.00000
     20      -2.8385      2.00000
     21      -2.8085      2.00000
     22      -2.6621      2.00000
     23      -2.4388      2.00000
     24      -2.2949      2.00000
     25      -2.2725      2.00000
     26      -2.2681      2.00000
     27      -2.2364      2.00000
     28      -2.2364      2.00000
     29      -2.2221      2.00000
     30      -2.1987      2.00000
     31      -2.0824      2.00000
     32      -2.0824      2.00000
     33      -2.0258      2.00000
     34      -1.9889      2.00000
     35      -1.9610      2.00000
     36      -1.7839      2.00000
     37      -1.7839      2.00000
     38      -1.7739      2.00000
     39      -1.6597      2.00000
     40      -1.6597      2.00000
     41      -1.6098      2.00000
     42      -1.5752      2.00000
     43      -1.3663      2.00000
     44      -1.3139      2.00000
     45      -1.3139      2.00000
     46      -1.2982      2.00000
     47      -0.8851      2.00000
     48      -0.7471      2.00000
     49      -0.7471      2.00000
     50      -0.7283      2.00000
     51      -0.6682      2.00000
     52      -0.5933      2.00000
     53      -0.4097      2.00000
     54      -0.4097      2.00000
     55      -0.4049      2.00000
     56      -0.2678      2.00000
     57      -0.0517      2.00000
     58      -0.0131      2.00000
     59      -0.0130      1.99639
     60       0.0112      1.98647
     61       0.0498      0.00903
     62       0.0498      0.00000
     63       0.0917      0.00000
     64       0.9856      0.00000
     65       2.7985      0.00000
     66       2.8754      0.00000
     67       2.8754      0.00000
     68       3.4460      0.00000
     69       3.4461      0.00000
     70       4.0434      0.00000
     71       4.0434      0.00000
     72       4.6005      0.00000

 k-point   9 :       0.4286    0.2857    0.0000
  band No.  band energies     occupation 
      1      -4.6283      2.00000
      2      -4.6168      2.00000
      3      -4.4367      2.00000
      4      -4.4324      2.00000
      5      -4.3188      2.00000
      6      -4.1200      2.00000
      7      -4.0633      2.00000
      8      -4.0496      2.00000
      9      -3.7040      2.00000
     10      -3.6690      2.00000
     11      -3.5790      2.00000
     12      -3.4636      2.00000
     13      -3.3466      2.00000
     14      -3.2352      2.00000
     15      -3.0709      2.00000
     16      -3.0442      2.00000
     17      -2.9753      2.00000
     18      -2.8635      2.00000
     19      -2.8124      2.00000
     20      -2.6950      2.00000
     21      -2.6703      2.00000
     22      -2.6660      2.00000
     23      -2.6371      2.00000
     24      -2.5101      2.00000
     25      -2.4874      2.00000
     26      -2.4183      2.00000
     27      -2.3931      2.00000
     28      -2.3827      2.00000
     29      -2.2771      2.00000
     30      -2.1592      2.00000
     31      -2.1177      2.00000
     32      -2.0917      2.00000
     33      -2.0848      2.00000
     34      -2.0405      2.00000
     35      -1.9987      2.00000
     36      -1.9427      2.00000
     37      -1.8431      2.00000
     38      -1.8055      2.00000
     39      -1.7373      2.00000
     40      -1.6308      2.00000
     41      -1.4500      2.00000
     42      -1.4494      2.00000
     43      -1.3721      2.00000
     44      -1.3494      2.00000
     45      -1.2674      2.00000
     46      -1.0150      2.00000
     47      -0.9316      2.00000
     48      -0.7473      2.00000
     49      -0.6880      2.00000
     50      -0.6499      2.00000
     51      -0.5965      2.00000
     52      -0.5394      2.00000
     53      -0.3382      2.00000
     54      -0.2392      2.00000
     55      -0.1743      2.00000
     56      -0.1569      2.00000
     57      -0.1507      2.00000
     58      -0.1380      2.00000
     59      -0.0656      2.00000
     60      -0.0629      2.00000
     61       0.0413      0.14497
     62       0.0512      0.00000
     63       0.4791      0.00000
     64       1.1625      0.00000
     65       1.4132      0.00000
     66       1.8436      0.00000
     67       2.0449      0.00000
     68       3.1206      0.00000
     69       3.6043      0.00000
     70       4.1106      0.00000
     71       4.1410      0.00000
     72       5.1355      0.00000

 k-point  10 :       0.4286    0.4286    0.0000
  band No.  band energies     occupation 
      1      -4.7412      2.00000
      2      -4.7349      2.00000
      3      -4.6786      2.00000
      4      -4.6786      2.00000
      5      -4.2859      2.00000
      6      -4.2355      2.00000
      7      -4.1942      2.00000
      8      -4.1942      2.00000
      9      -3.6164      2.00000
     10      -3.6052      2.00000
     11      -3.5000      2.00000
     12      -3.5000      2.00000
     13      -3.0116      2.00000
     14      -2.9461      2.00000
     15      -2.9461      2.00000
     16      -2.8929      2.00000
     17      -2.8015      2.00000
     18      -2.8015      2.00000
     19      -2.6707      2.00000
     20      -2.6459      2.00000
     21      -2.6242      2.00000
     22      -2.6053      2.00000
     23      -2.6053      2.00000
     24      -2.5376      2.00000
     25      -2.5376      2.00000
     26      -2.4821      2.00000
     27      -2.4771      2.00000
     28      -2.4698      2.00000
     29      -2.2675      2.00000
     30      -2.2675      2.00000
     31      -2.2131      2.00000
     32      -2.1443      2.00000
     33      -2.0929      2.00000
     34      -2.0841      2.00000
     35      -2.0470      2.00000
     36      -2.0470      2.00000
     37      -1.5944      2.00000
     38      -1.5663      2.00000
     39      -1.5242      2.00000
     40      -1.5242      2.00000
     41      -1.4386      2.00000
     42      -1.3727      2.00000
     43      -1.3727      2.00000
     44      -1.2799      2.00000
     45      -0.9497      2.00000
     46      -0.6470      2.00000
     47      -0.6470      2.00000
     48      -0.6108      2.00000
     49      -0.5797      2.00000
     50      -0.5569      2.00000
     51      -0.5569      2.00000
     52      -0.3665      2.00000
     53      -0.2112      2.00000
     54      -0.1715      2.00000
     55      -0.1715      2.00000
     56      -0.1538      2.00000
     57      -0.0719      2.00000
     58      -0.0592      2.00000
     59      -0.0592      2.00000
     60       0.0223      2.00000
     61       0.6554      0.00000
     62       0.8127      0.00000
     63       1.0606      0.00000
     64       1.9746      0.00000
     65       2.0197      0.00000
     66       2.0197      0.00000
     67       2.3167      0.00000
     68       2.3168      0.00000
     69       2.4310      0.00000
     70       2.4311      0.00000
     71       3.2800      0.00000
     72       3.6970      0.00000


--------------------------------------------------------------------------------------------------------


 soft charge-density along one line, spin component           1
         0         1         2         3         4         5         6         7         8         9
 total charge-density along one line
 
 pseudopotential strength for first ion, spin component:           1
-11.498   0.000   0.000   0.000   0.000   0.125   0.000   0.000
  0.000 -11.399   0.000   0.000   0.000   0.000   0.109   0.000
  0.000   0.000 -11.370   0.000   0.000   0.000   0.000   0.105
  0.000   0.000   0.000 -11.399   0.000   0.000   0.000   0.000
  0.000   0.000   0.000   0.000 -11.442   0.000   0.000   0.000
  0.125   0.000   0.000   0.000   0.000   0.321   0.000   0.000
  0.000   0.109   0.000   0.000   0.000   0.000   0.324   0.000
  0.000   0.000   0.105   0.000   0.000   0.000   0.000   0.324
  0.000   0.000   0.000   0.109   0.000   0.000   0.000   0.000
  0.000   0.000   0.000   0.000   0.117   0.000   0.000   0.000
  0.000   0.000  -0.021   0.000   0.000   0.000   0.000   0.003
  0.000   0.000   0.002   0.000   0.000   0.000   0.000   0.000
  0.000  -0.016   0.000   0.000   0.000   0.000   0.003   0.000
  0.000   0.000  -0.019   0.000   0.000   0.000   0.000   0.003
  0.000   0.000   0.000  -0.016   0.000   0.000   0.000   0.000
  0.000   0.013   0.000   0.000   0.000   0.000  -0.002   0.000
  0.000   0.000   0.015   0.000   0.000   0.000   0.000  -0.002
  0.000   0.000   0.000   0.013   0.000   0.000   0.000   0.000
 total augmentation occupancy for first ion, spin component:           1
  1.650   0.000   0.000   0.000   0.000   0.184   0.000   0.000   0.000   0.000   0.000   0.000   0.000   0.000   0.000   0.000
  0.000   1.823   0.000   0.000   0.000   0.000   0.082   0.000   0.000   0.000   0.000   0.000  -0.010   0.000   0.000  -0.021
  0.000   0.000   1.863   0.000   0.000   0.000   0.000   0.058   0.000   0.000   0.018  -0.045   0.000   0.008   0.000   0.000
  0.000   0.000   0.000   1.823   0.000   0.000   0.000   0.000   0.082   0.000   0.000   0.000   0.000   0.000  -0.010   0.000
  0.000   0.000   0.000   0.000   1.859   0.000   0.000   0.000   0.000   0.047   0.000   0.000   0.000   0.000   0.000   0.000
  0.184   0.000   0.000   0.000   0.000   0.104   0.000   0.000   0.000   0.000   0.000   0.000   0.000   0.000   0.000   0.000
  0.000   0.082   0.000   0.000   0.000   0.000   0.097   0.000   0.000   0.000   0.000   0.000   0.052   0.000   0.000  -0.002
  0.000   0.000   0.058   0.000   0.000   0.000   0.000   0.093   0.000   0.000  -0.082   0.020   0.000   0.037   0.000   0.000
  0.000   0.000   0.000   0.082   0.000   0.000   0.000   0.000   0.097   0.000   0.000   0.000   0.000   0.000   0.052   0.000
  0.000   0.000   0.000   0.000   0.047   0.000   0.000   0.000   0.000   0.101   0.000   0.000   0.000   0.000   0.000   0.000
  0.000   0.000   0.018   0.000   0.000   0.000   0.000  -0.082   0.000   0.000   0.960  -0.310   0.000   0.096   0.000   0.000
  0.000   0.000  -0.045   0.000   0.000   0.000   0.000   0.020   0.000   0.000  -0.310   0.115   0.000  -0.047   0.000   0.000
  0.000  -0.010   0.000   0.000   0.000   0.000   0.052   0.000   0.000   0.000   0.000   0.000   0.098   0.000   0.000  -0.002
  0.000   0.000   0.008   0.000   0.000   0.000   0.000   0.037   0.000   0.000   0.096  -0.047   0.000   0.060   0.000   0.000
  0.000   0.000   0.000  -0.010   0.000   0.000   0.000   0.000   0.052   0.000   0.000   0.000   0.000   0.000   0.098   0.000
  0.000  -0.021   0.000   0.000   0.000   0.000  -0.002   0.000   0.000   0.000   0.000   0.000  -0.002   0.000   0.000   0.000
  0.000   0.000  -0.028   0.000   0.000   0.000   0.000  -0.001   0.000   0.000  -0.005   0.002   0.000  -0.001   0.000   0.000
  0.000   0.000   0.000  -0.021   0.000   0.000   0.000   0.000  -0.002   0.000   0.000   0.000   0.000   0.000  -0.002   0.000


------------------------ aborting loop because EDIFF is reached ----------------------------------------


    CHARGE:  cpu time    1.67: real time    1.67
    FORLOC:  cpu time    0.06: real time    0.06
    FORNL :  cpu time   25.91: real time   25.91
    STRESS:  cpu time   69.20: real time   69.21
    FORCOR:  cpu time    0.59: real time    0.59
    FORHAR:  cpu time    0.19: real time    0.19
    MIXING:  cpu time    0.03: real time    0.02

  FORCE on cell =-STRESS in cart. coord.  units (eV):
  Direction    XX          YY          ZZ          XY          YZ          ZX
  --------------------------------------------------------------------------------------
  Alpha Z   574.70065   574.70065   574.70065
  Ewald   29668.93359 29668.93359-36254.29333     0.00000     0.00000     0.00000
  Hartree 32536.10702 32536.10702-31530.48578     0.00000     0.00000     0.00000
  E(xc)    -627.25388  -627.25388  -629.22037     0.00000     0.00000     0.00000
  Local  -63655.04295-63655.04295 66324.05834     0.00000     0.00000     0.00000
  n-local  -647.24978  -639.36180  -646.29391     8.93014     0.00000     0.00000
  augment   513.77693   513.77693   518.73865    -0.00005    -0.00003    -0.00003
  Kinetic  1639.18393  1616.18143  1642.30009     7.12431     0.00000     0.00000
  Fock        0.00000     0.00000     0.00000     0.00000     0.00000     0.00000
  -------------------------------------------------------------------------------------
  Total      -4.40175    -4.40175    -0.49565     0.00000     0.00000     0.00000
  in kB     -20.67310   -20.67310    -2.32787     0.00000     0.00000     0.00000
  external pressure =      -14.56 kB  Pullay stress =        0.00 kB


 VOLUME and BASIS-vectors are now :
 -----------------------------------------------------------------------------
  energy-cutoff  :      415.00
  volume of cell :      341.14
      direct lattice vectors                 reciprocal lattice vectors
     3.951020398  0.000000000  0.000000000     0.253099174  0.000000000  0.000000000
     0.000000000  3.951020398  0.000000000     0.000000000  0.253099174  0.000000000
     0.000000000  0.000000000 21.853061195     0.000000000  0.000000000  0.045760179

  length of vectors
     3.951020398  3.951020398 21.853061195     0.253099174  0.253099174  0.045760179


 FORCES acting on ions
    electron-ion (+dipol)            ewald-force                    non-local-force                 convergence-correction
 -----------------------------------------------------------------------------------------------
   0.152E-13 -.304E-15 0.262E+04   0.132E-13 -.814E-14 -.262E+04   0.101E-23 0.000E+00 -.179E+01   -.332E-13 0.598E-14 -.203E-01
   0.173E-13 -.135E-14 0.530E+03   0.921E-14 0.168E-14 -.530E+03   0.258E-25 -.207E-24 0.100E+00   -.300E-13 0.319E-14 -.231E-02
   0.209E-13 -.175E-13 -.159E+04   0.580E-14 -.833E-14 0.159E+04   0.103E-24 -.349E-24 -.175E+00   -.276E-13 -.104E-13 0.592E-02
   -.686E-13 -.657E-13 0.262E+04   -.183E-13 0.323E-14 -.262E+04   0.187E-23 -.801E-24 -.179E+01   -.181E-14 0.109E-13 -.203E-01
   -.679E-13 -.307E-12 0.530E+03   -.207E-13 0.145E-13 -.530E+03   0.258E-24 0.000E+00 0.100E+00   -.238E-13 0.671E-14 -.231E-02
   -.717E-13 -.396E-13 -.159E+04   -.195E-13 0.634E-14 0.159E+04   0.517E-25 0.414E-24 -.175E+00   -.199E-13 0.719E-14 0.592E-02
   -.877E-13 0.212E-13 0.159E+04   0.187E-13 -.663E-14 -.159E+04   -.121E-25 -.207E-24 0.175E+00   -.128E-13 -.148E-13 -.594E-02
   -.505E-13 0.306E-13 -.530E+03   0.198E-13 -.148E-13 0.530E+03   0.517E-25 -.207E-24 -.100E+00   -.338E-13 -.132E-13 0.228E-02
   -.736E-13 0.172E-13 -.262E+04   0.174E-13 -.351E-14 0.262E+04   -.141E-23 0.414E-24 0.179E+01   -.171E-15 -.230E-13 0.203E-01
   0.236E-13 -.629E-13 0.159E+04   -.668E-14 0.804E-14 -.159E+04   0.207E-24 0.414E-24 0.175E+00   -.157E-13 -.718E-14 -.594E-02
   0.226E-13 -.118E-12 -.530E+03   -.101E-13 -.197E-14 0.530E+03   -.142E-24 0.000E+00 -.100E+00   -.248E-13 -.159E-13 0.228E-02
   0.231E-13 -.679E-13 -.262E+04   -.140E-13 0.786E-14 0.262E+04   -.373E-24 0.207E-24 0.179E+01   -.138E-13 -.292E-13 0.203E-01
 -----------------------------------------------------------------------------------------------
   -.297E-12 -.610E-12 0.372E-03   -.523E-14 -.173E-14 0.000E+00   0.164E-23 -.323E-24 -.200E-14   -.238E-12 -.798E-13 -.850E-04
 
 
 POSITION                                       TOTAL-FORCE (eV/Angst)
 -----------------------------------------------------------------------------------
      0.00000      0.00000      0.02016         0.000000      0.000000     -0.004256
      0.00000      0.00000      3.95140         0.000000      0.000000     -0.000792
      0.00000      0.00000      7.90486         0.000000      0.000000     -0.018073
      1.97551      1.97551      0.02016         0.000000      0.000000     -0.004256
      1.97551      1.97551      3.95140         0.000000      0.000000     -0.000792
      1.97551      1.97551      7.90486         0.000000      0.000000     -0.018073
      1.97551      0.00000      1.97269         0.000000      0.000000      0.018073
      1.97551      0.00000      5.92615         0.000000      0.000000      0.000792
      1.97551      0.00000      9.85739         0.000000      0.000000      0.004256
      0.00000      1.97551      1.97269         0.000000      0.000000      0.018073
      0.00000      1.97551      5.92615         0.000000      0.000000      0.000792
      0.00000      1.97551      9.85739         0.000000      0.000000      0.004256
 -----------------------------------------------------------------------------------
    total drift:                                0.000000      0.000000      0.000287


--------------------------------------------------------------------------------------------------------



  FREE ENERGIE OF THE ION-ELECTRON SYSTEM (eV)
  ---------------------------------------------------
  free  energy   TOTEN  =       -59.187517 eV

  energy  without entropy=      -59.187517  energy(sigma->0) =      -59.187517
 
 d Force = 0.3515967E-04[-0.360E-04, 0.106E-03]  d Energy = 0.8909296E-05 0.263E-04
 d Force =-0.3005641E+02[-0.301E+02,-0.300E+02]  d Ewald  =-0.3005641E+02 0.111E-05


--------------------------------------------------------------------------------------------------------


    POTLOK:  cpu time    0.63: real time    0.63


--------------------------------------------------------------------------------------------------------




--------------------------------------------------------------------------------------------------------


  
 reached required accuracy - stopping structural energy minimisation
 writing wavefunctions
     LOOP+:  cpu time  665.65: real time  665.75
    4ORBIT:  cpu time    0.00: real time    0.00
 BZINTS: Fermi energy:  0.023683;120.000000 electrons
         Band energy:-265.572845;  BLOECHL correction: -0.026833

 total amount of memory used by VASP on root node    96818. kBytes
========================================================================

   base      :      30000. kBytes
   nonl-proj :      10751. kBytes
   fftplans  :       6239. kBytes
   grid      :      10451. kBytes
   one-center:        186. kBytes
   wavefun   :      39191. kBytes
 
  
  
 General timing and accounting informations for this job:
 ========================================================
  
                  Total CPU time used (sec):     9302.577
                            User time (sec):     9290.033
                          System time (sec):       12.545
                         Elapsed time (sec):     9305.087
  
                   Maximum memory used (kb):           0.
                   Average memory used (kb):           0.
  
                          Minor page faults:      1112650
                          Major page faults:            5
                 Voluntary context switches:        45764
