Pd Bulk                                 
 1.00000000000
 3.95102039821 0.00000000000 0.00000000000
 0.00000000000 3.95102039821 0.00000000000
 0.00000000000 0.00000000000 21.85306119462
 12 
Selective dynamics
Direct
0.00000000000 0.00000000000 0.00000000000  T  T  T
0.00000000000 0.00000000000 0.18079940211  T  T  T
0.00000000000 0.00000000000 0.36159880422  T  T  T
0.50000000000 0.50000000000 0.00000000000  T  T  T
0.50000000000 0.50000000000 0.18079940211  T  T  T
0.50000000000 0.50000000000 0.36159880422  T  T  T
0.50000000000 0.00000000000 0.09039970105  T  T  T
0.50000000000 0.00000000000 0.27119910316  T  T  T
0.50000000000 0.00000000000 0.45199850527  T  T  T
0.00000000000 0.50000000000 0.09039970105  T  T  T
0.00000000000 0.50000000000 0.27119910316  T  T  T
0.00000000000 0.50000000000 0.45199850527  T  T  T
