Pd Bulk                                 
 1.00000000000
 2.56586635540 0.00000000000 0.00000000000
 1.28293317951 2.22210544818 0.00000000000
 0.00000000000 0.00000000000 22.57012664425
 6 
Selective dynamics
Direct
0.00000000000 0.00000000000 0.00000000000  T  T  T
0.00000000000 0.00000000000 0.27846823464  T  T  T
0.33333333333 0.33333333333 0.09282274488  T  T  T
0.33333333333 0.33333333333 0.37129097951  T  T  T
0.66666666667 0.66666666667 0.18564548976  T  T  T
0.66666666667 0.66666666667 0.46411372439  T  T  T
