Pd Bulk                                 
   1.00000000000000     
     2.5658663553999999    0.0000000000000000    0.0000000000000000
     1.2829331795100001    2.2221054481800002    0.0000000000000000
     0.0000000000000000    0.0000000000000000   22.5701266442499993
   Cu
     6
Selective dynamics
Direct
  0.0000000000000000  0.0000000000000000  0.0004503230537990   T   T   T
  0.0000000000000000  0.0000000000000000  0.2785345495623722   T   T   T
  0.3333333333300033  0.3333333333300033  0.0925083731765218   T   T   T
  0.3333333333300033  0.3333333333300033  0.3716053512134816   T   T   T
  0.6666666666699967  0.6666666666699967  0.1855791748376284   T   T   T
  0.6666666666699967  0.6666666666699967  0.4636634013362043   T   T   T
 
  0.00000000E+00  0.00000000E+00  0.00000000E+00
  0.00000000E+00  0.00000000E+00  0.00000000E+00
  0.00000000E+00  0.00000000E+00  0.00000000E+00
  0.00000000E+00  0.00000000E+00  0.00000000E+00
  0.00000000E+00  0.00000000E+00  0.00000000E+00
  0.00000000E+00  0.00000000E+00  0.00000000E+00
