 vasp.5.3.3 18Dez12 (build Jan 18 2013 11:47:36) complex                        
  
 executed on             LinuxIFC date 2017.04.25  00:28:48
 running on    2 total cores
 distrk:  each k-point on    2 cores,    1 groups
 distr:  one band on NCORES_PER_BAND=   1 cores,    2 groups


--------------------------------------------------------------------------------------------------------


 INCAR:
 POTCAR:   PAW_PBE Cu 05Jan2001                   
 POTCAR:   PAW_PBE Cu 05Jan2001                   
   VRHFIN =Cu: d10 p1                                                           
   LEXCH  = PE                                                                  
   EATOM  =  1390.9800 eV,  102.2341 Ry                                         
                                                                                
   TITEL  = PAW_PBE Cu 05Jan2001                                                
   LULTRA =        F    use ultrasoft PP ?                                      
   IUNSCR =        1    unscreen: 0-lin 1-nonlin 2-no                           
   RPACOR =    2.000    partial core radius                                     
   POMASS =   63.546; ZVAL   =   11.000    mass and valenz                      
   RCORE  =    2.300    outmost cutoff radius                                   
   RWIGS  =    2.480; RWIGS  =    1.312    wigner-seitz radius (au A)           
   ENMAX  =  273.214; ENMIN  =  204.910 eV                                      
   RCLOC  =    1.712    cutoff for local pot                                    
   LCOR   =        T    correct aug charges                                     
   LPAW   =        T    paw PP                                                  
   EAUG   =  516.456                                                            
   DEXC   =    -.008                                                            
   RMAX   =    2.789    core radius for proj-oper                               
   RAUG   =    1.300    factor for augmentation sphere                          
   RDEP   =    2.302    radius for radial grids                                 
   QCUT   =   -4.481; QGAM   =    8.962    optimization parameters              
                                                                                
   Description                                                                  
     l     E      TYP  RCUT    TYP  RCUT                                        
     2   .000     23  2.300                                                     
     2   .000     23  2.300                                                     
     0   .000     23  2.300                                                     
     0   .000     23  2.300                                                     
     1  -.200     23  2.300                                                     
     1   .000     23  2.300                                                     
     3   .000      7   .000                                                     
  local pseudopotential read in
  partial core-charges read in
  atomic valenz-charges read in
  non local Contribution for L=           2  read in
    real space projection operators read in
  non local Contribution for L=           2  read in
    real space projection operators read in
  non local Contribution for L=           0  read in
    real space projection operators read in
  non local Contribution for L=           0  read in
    real space projection operators read in
  non local Contribution for L=           1  read in
    real space projection operators read in
  non local Contribution for L=           1  read in
    real space projection operators read in
    PAW grid and wavefunctions read in
 
   number of l-projection  operators is LMAX  =           6
   number of lm-projection operators is LMMAX =          18
 
 PAW_PBE Cu 05Jan2001                   :
 energy of atom  1       EATOM=-1390.9800
 kinetic energy error for atom=    0.0086 (will be added to EATOM!!)
 
 
 POSCAR: Pd Bulk                                 
  positions in direct lattice
  No initial velocities read in
 exchange correlation table for  LEXCH =        8
   RHO(1)=    0.500       N(1)  =     2000
   RHO(2)=  100.500       N(2)  =     4000
 


--------------------------------------------------------------------------------------------------------


 ion  position               nearest neighbor table
   1  0.000  0.000  0.000-   3 2.57   3 2.57   3 2.57
   2  0.000  0.000  0.278-   4 2.57   5 2.57   4 2.57   5 2.57   4 2.57   5 2.57
   3  0.333  0.333  0.093-   5 2.57   1 2.57   1 2.57   5 2.57   5 2.57   1 2.57
   4  0.333  0.333  0.371-   2 2.57   6 2.57   2 2.57   2 2.57   6 2.57   6 2.57
   5  0.667  0.667  0.186-   3 2.57   2 2.57   2 2.57   3 2.57   3 2.57   2 2.57
   6  0.667  0.667  0.464-   4 2.57   4 2.57   4 2.57
 
  LATTYP: Found a hexagonal cell.
 ALAT       =     2.5658663560
 C/A-ratio  =     8.7962986037
  
  Lattice vectors:
  
 A1 = (   1.2829331759,  -2.2221054482,   0.0000000000)
 A2 = (  -2.5658663554,   0.0000000000,   0.0000000000)
 A3 = (   0.0000000000,   0.0000000000, -22.5701266442)


Analysis of symmetry for initial positions (statically):
=====================================================================
 Subroutine PRICEL returns:
 Original cell was already a primitive cell.
 

 Routine SETGRP: Setting up the symmetry group for a 
 hexagonal supercell.


 Subroutine GETGRP returns: Found 12 space group operations
 (whereof  6 operations were pure point group operations)
 out of a pool of 24 trial point group operations.


The static configuration has the point symmetry C_3v.
 The point group associated with its full space group is D_3d.


Analysis of symmetry for dynamics (positions and initial velocities):
=====================================================================
 Subroutine PRICEL returns:
 Original cell was already a primitive cell.
 

 Routine SETGRP: Setting up the symmetry group for a 
 hexagonal supercell.


 Subroutine GETGRP returns: Found 12 space group operations
 (whereof  6 operations were pure point group operations)
 out of a pool of 24 trial point group operations.


The dynamic configuration has the point symmetry C_3v.
 The point group associated with its full space group is D_3d.


Analysis of constrained symmetry for selective dynamics:
=====================================================================
 Subroutine PRICEL returns:
 Original cell was already a primitive cell.
 

 Routine SETGRP: Setting up the symmetry group for a 
 hexagonal supercell.


 Subroutine GETGRP returns: Found 12 space group operations
 (whereof  6 operations were pure point group operations)
 out of a pool of 24 trial point group operations.


The constrained configuration has the point symmetry C_3v.
 The point group associated with its full space group is D_3d.


 irot  :   1
 --------------------------------------------------------------------
 isymop:   1   0   0
           0   1   0
           0   0   1

 gtrans:     0.0000000     0.0000000     0.0000000

 ptrans:     0.0000000     0.0000000     0.0000000
 rotmap:
 (   1->   1)  (   2->   2)  (   3->   3)  (   4->   4)  (   5->   5) 
 (   6->   6) 


 irot  :   2
 --------------------------------------------------------------------
 isymop:   0   1   0
          -1  -1   0
           0   0   1

 gtrans:     0.0000000     0.0000000     0.0000000

 ptrans:     0.0000000     0.0000000     0.0000000
 rotmap:
 (   1->   1)  (   2->   2)  (   3->   3)  (   4->   4)  (   5->   5) 
 (   6->   6) 


 irot  :   3
 --------------------------------------------------------------------
 isymop:  -1  -1   0
           1   0   0
           0   0   1

 gtrans:     0.0000000     0.0000000     0.0000000

 ptrans:     0.0000000     0.0000000     0.0000000
 rotmap:
 (   1->   1)  (   2->   2)  (   3->   3)  (   4->   4)  (   5->   5) 
 (   6->   6) 


 irot  :   4
 --------------------------------------------------------------------
 isymop:   0   1   0
           1   0   0
           0   0   1

 gtrans:     0.0000000     0.0000000     0.0000000

 ptrans:     0.0000000     0.0000000     0.0000000
 rotmap:
 (   1->   1)  (   2->   2)  (   3->   3)  (   4->   4)  (   5->   5) 
 (   6->   6) 


 irot  :   5
 --------------------------------------------------------------------
 isymop:  -1  -1   0
           0   1   0
           0   0   1

 gtrans:     0.0000000     0.0000000     0.0000000

 ptrans:     0.0000000     0.0000000     0.0000000
 rotmap:
 (   1->   1)  (   2->   2)  (   3->   3)  (   4->   4)  (   5->   5) 
 (   6->   6) 


 irot  :   6
 --------------------------------------------------------------------
 isymop:   1   0   0
          -1  -1   0
           0   0   1

 gtrans:     0.0000000     0.0000000     0.0000000

 ptrans:     0.0000000     0.0000000     0.0000000
 rotmap:
 (   1->   1)  (   2->   2)  (   3->   3)  (   4->   4)  (   5->   5) 
 (   6->   6) 


 irot  :   7
 --------------------------------------------------------------------
 isymop:  -1   0   0
           0  -1   0
           0   0  -1

 gtrans:    -0.3333333    -0.3333333    -0.5358863

 ptrans:     0.0000000     0.0000000     0.0000000
 rotmap:
 (   1->   6)  (   2->   5)  (   3->   4)  (   4->   3)  (   5->   2) 
 (   6->   1) 


 irot  :   8
 --------------------------------------------------------------------
 isymop:   0  -1   0
           1   1   0
           0   0  -1

 gtrans:    -0.3333333    -0.3333333    -0.5358863

 ptrans:     0.0000000     0.0000000     0.0000000
 rotmap:
 (   1->   6)  (   2->   5)  (   3->   4)  (   4->   3)  (   5->   2) 
 (   6->   1) 


 irot  :   9
 --------------------------------------------------------------------
 isymop:   1   1   0
          -1   0   0
           0   0  -1

 gtrans:    -0.3333333    -0.3333333    -0.5358863

 ptrans:     0.0000000     0.0000000     0.0000000
 rotmap:
 (   1->   6)  (   2->   5)  (   3->   4)  (   4->   3)  (   5->   2) 
 (   6->   1) 


 irot  :  10
 --------------------------------------------------------------------
 isymop:   0  -1   0
          -1   0   0
           0   0  -1

 gtrans:    -0.3333333    -0.3333333    -0.5358863

 ptrans:     0.0000000     0.0000000     0.0000000
 rotmap:
 (   1->   6)  (   2->   5)  (   3->   4)  (   4->   3)  (   5->   2) 
 (   6->   1) 


 irot  :  11
 --------------------------------------------------------------------
 isymop:   1   1   0
           0  -1   0
           0   0  -1

 gtrans:    -0.3333333    -0.3333333    -0.5358863

 ptrans:     0.0000000     0.0000000     0.0000000
 rotmap:
 (   1->   6)  (   2->   5)  (   3->   4)  (   4->   3)  (   5->   2) 
 (   6->   1) 


 irot  :  12
 --------------------------------------------------------------------
 isymop:  -1   0   0
           1   1   0
           0   0  -1

 gtrans:    -0.3333333    -0.3333333    -0.5358863

 ptrans:     0.0000000     0.0000000     0.0000000
 rotmap:
 (   1->   6)  (   2->   5)  (   3->   4)  (   4->   3)  (   5->   2) 
 (   6->   1) 
 
 
 KPOINTS: K-Points                                

Automatic generation of k-mesh.
Space group operators:
 irot       det(A)        alpha          n_x          n_y          n_z        tau_x        tau_y        tau_z
    1     1.000000     0.000000     1.000000     0.000000     0.000000     0.000000     0.000000     0.000000
    2     1.000000   120.000000     0.000000     0.000000     1.000000     0.000000     0.000000     0.000000
    3     1.000000   120.000000     0.000000     0.000000    -1.000000     0.000000     0.000000     0.000000
    4    -1.000000   180.000000     0.500000    -0.866025     0.000000     0.000000     0.000000     0.000000
    5    -1.000000   180.000000     1.000000     0.000000     0.000000     0.000000     0.000000     0.000000
    6    -1.000000   180.000000    -0.500000    -0.866025     0.000000     0.000000     0.000000     0.000000
    7    -1.000000     0.000000     1.000000     0.000000     0.000000    -0.333333    -0.333333    -0.535886
    8    -1.000000   120.000000     0.000000     0.000000     1.000000    -0.333333    -0.333333    -0.535886
    9    -1.000000   120.000000     0.000000     0.000000    -1.000000    -0.333333    -0.333333    -0.535886
   10     1.000000   180.000000     0.500000    -0.866025     0.000000    -0.333333    -0.333333    -0.535886
   11     1.000000   180.000000     1.000000     0.000000     0.000000    -0.333333    -0.333333    -0.535886
   12     1.000000   180.000000    -0.500000    -0.866025     0.000000    -0.333333    -0.333333    -0.535886
 
 Subroutine IBZKPT returns following result:
 ===========================================
 
 Found      8 irreducible k-points:
 
 Following reciprocal coordinates:
            Coordinates               Weight
  0.000000  0.000000  0.000000      1.000000
  0.142857  0.000000  0.000000      6.000000
  0.285714  0.000000  0.000000      6.000000
  0.428571  0.000000  0.000000      6.000000
  0.285714  0.142857  0.000000      6.000000
  0.428571  0.142857  0.000000     12.000000
 -0.428571  0.142857  0.000000      6.000000
 -0.428571  0.285714  0.000000      6.000000
 
 Following cartesian coordinates:
            Coordinates               Weight
  0.000000  0.000000  0.000000      1.000000
  0.055676 -0.032145  0.000000      6.000000
  0.111352 -0.064289  0.000000      6.000000
  0.167028 -0.096434  0.000000      6.000000
  0.111352  0.000000  0.000000      6.000000
  0.167028 -0.032145  0.000000     12.000000
 -0.167028  0.160723  0.000000      6.000000
 -0.167028  0.225012  0.000000      6.000000
 
 TETIRR: Found     28 inequivalent tetrahedra from      294


--------------------------------------------------------------------------------------------------------




 Dimension of arrays:
   k-points           NKPTS =      8   k-points in BZ     NKDIM =      8   number of bands    NBANDS=     40
   number of dos      NEDOS =    301   number of ions     NIONS =      6
   non local maximal  LDIM  =      6   non local SUM 2l+1 LMDIM =     18
   total plane-waves  NPLWV =  21952
   max r-space proj   IRMAX =      1   max aug-charges    IRDMAX=   6186
   dimension x,y,z NGX =    14 NGY =   14 NGZ =  112
   dimension x,y,z NGXF=    28 NGYF=   28 NGZF=  224
   support grid    NGXF=    28 NGYF=   28 NGZF=  224
   ions per type =               6
 NGX,Y,Z   is equivalent  to a cutoff of   9.07,  9.07,  8.25 a.u.
 NGXF,Y,Z  is equivalent  to a cutoff of  18.14, 18.14, 16.50 a.u.


 I would recommend the setting:
   dimension x,y,z NGX =    13 NGY =   13 NGZ =  112
 SYSTEM =  unknown system                          
 POSCAR =  Pd Bulk                                 

 Startparameter for this run:
   NWRITE =      2    write-flag & timer
   PREC   = normal    normal or accurate (medium, high low for compatibility)
   ISTART =      0    job   : 0-new  1-cont  2-samecut
   ICHARG =      2    charge: 1-file 2-atom 10-const
   ISPIN  =      1    spin polarized calculation?
   LNONCOLLINEAR =      F non collinear calculations
   LSORBIT =      F    spin-orbit coupling
   INIWAV =      1    electr: 0-lowe 1-rand  2-diag
   LASPH  =      F    aspherical Exc in radial PAW
   METAGGA=      F    non-selfconsistent MetaGGA calc.

 Electronic Relaxation 1
   ENCUT  =  415.0 eV  30.50 Ry    5.52 a.u.   4.26  4.26 37.49*2*pi/ulx,y,z
   ENINI  =  415.0     initial cutoff
   ENAUG  =  516.5 eV  augmentation charge cutoff
   NELM   =    101;   NELMIN=  2; NELMDL= -5     # of ELM steps 
   EDIFF  = 0.1E-05   stopping-criterion for ELM
   LREAL  =      F    real-space projection
   NLSPLINE    = F    spline interpolate recip. space projectors
   LCOMPAT=      F    compatible to vasp.4.4
   GGA_COMPAT  = T    GGA compatible to vasp.4.4-vasp.4.6
   LMAXPAW     = -100 max onsite density
   LMAXMIX     =    2 max onsite mixed and CHGCAR
   VOSKOWN=      0    Vosko Wilk Nusair interpolation
   ROPT   =    0.00000
 Ionic relaxation
   EDIFFG = 0.1E-03   stopping-criterion for IOM
   NSW    =    101    number of steps for IOM
   NBLOCK =      1;   KBLOCK =    101    inner block; outer block 
   IBRION =      2    ionic relax: 0-MD 1-quasi-New 2-CG
   NFREE  =      1    steps in history (QN), initial steepest desc. (CG)
   ISIF   =      2    stress and relaxation
   IWAVPR =     11    prediction:  0-non 1-charg 2-wave 3-comb
   ISYM   =      2    0-nonsym 1-usesym 2-fastsym
   LCORR  =      T    Harris-Foulkes like correction to forces

   POTIM  = 0.0500    time-step for ionic-motion
   TEIN   =    0.0    initial temperature
   TEBEG  =    0.0;   TEEND  =   0.0 temperature during run
   SMASS  =  -3.00    Nose mass-parameter (am)
   estimated Nose-frequenzy (Omega)   =  0.10E-29 period in steps =****** mass=  -0.150E-27a.u.
   SCALEE = 1.0000    scale energy and forces
   NPACO  =    256;   APACO  = 16.0  distance and # of slots for P.C.
   PSTRESS=    0.0 pullay stress

  Mass of Ions in am
   POMASS =  63.55
  Ionic Valenz
   ZVAL   =  11.00
  Atomic Wigner-Seitz radii
   RWIGS  =  -1.00
  virtual crystal weights 
   VCA    =   1.00
   NELECT =      66.0000    total number of electrons
   NUPDOWN=      -1.0000    fix difference up-down

 DOS related values:
   EMIN   =  10.00;   EMAX   =-10.00  energy-range for DOS
   EFERMI =   0.00
   ISMEAR =    -5;   SIGMA  =   0.20  broadening in eV -4-tet -1-fermi 0-gaus

 Electronic relaxation 2 (details)
   IALGO  =     38    algorithm
   LDIAG  =      T    sub-space diagonalisation (order eigenvalues)
   LSUBROT=      T    optimize rotation matrix (better conditioning)
   TURBO    =      0    0=normal 1=particle mesh
   IRESTART =      0    0=no restart 2=restart with 2 vectors
   NREBOOT  =      0    no. of reboots
   NMIN     =      0    reboot dimension
   EREF     =   0.00    reference energy to select bands
   IMIX   =      4    mixing-type and parameters
     AMIX     =   0.40;   BMIX     =  1.00
     AMIX_MAG =   1.60;   BMIX_MAG =  1.00
     AMIN     =   0.10
     WC   =   100.;   INIMIX=   1;  MIXPRE=   1;  MAXMIX= -45

 Intra band minimization:
   WEIMIN = 0.0010     energy-eigenvalue tresh-hold
   EBREAK =  0.62E-08  absolut break condition
   DEPER  =   0.30     relativ break condition  

   TIME   =   0.40     timestep for ELM

  volume/ion in A,a.u.               =      21.45       144.74
  Fermi-wavevector in a.u.,A,eV,Ry     =   1.310424  2.476343 23.364083  1.717212
  Thomas-Fermi vector in A             =   2.440955
 
 Write flags
   LWAVE  =      T    write WAVECAR
   LCHARG =      T    write CHGCAR
   LVTOT  =      F    write LOCPOT, total local potential
   LVHAR  =      F    write LOCPOT, Hartree potential only
   LELF   =      F    write electronic localiz. function (ELF)
   LORBIT =      0    0 simple, 1 ext, 2 COOP (PROOUT)


 Dipole corrections
   LMONO  =      F    monopole corrections only (constant potential shift)
   LDIPOL =      F    correct potential (dipole corrections)
   IDIPOL =      0    1-x, 2-y, 3-z, 4-all directions 
   EPSILON=  1.0000000 bulk dielectric constant

 Exchange correlation treatment:
   GGA     =    PE    GGA type
   LEXCH   =     8    internal setting for exchange type
   VOSKOWN=      0    Vosko Wilk Nusair interpolation
   LHFCALC =     F    Hartree Fock is set to
   LHFONE  =     F    Hartree Fock one center treatment
   AEXX    =    0.0000 exact exchange contribution

 Linear response parameters
   LEPSILON=     F    determine dielectric tensor
   LRPA    =     F    only Hartree local field effects (RPA)
   LNABLA  =     F    use nabla operator in PAW spheres
   LVEL    =     F    velocity operator in full k-point grid
   LINTERFAST=   F  fast interpolation
   KINTER  =     0    interpolate to denser k-point grid
   CSHIFT  =0.1000    complex shift for real part using Kramers Kronig
   OMEGAMAX=  -1.0    maximum frequency
   DEG_THRESHOLD= 0.2000000E-02 threshold for treating states as degnerate
   RTIME   =    0.100 relaxation time in fs

 Orbital magnetization related:
   ORBITALMAG=     F  switch on orbital magnetization
   LCHIMAG   =     F  perturbation theory with respect to B field
   DQ        =  0.001000  dq finite difference perturbation B field



--------------------------------------------------------------------------------------------------------


 conjugate gradient relaxation of ions
   using selective dynamics as specified on POSCAR
 charge density and potential will be updated during run
 non-spin polarized calculation
 Variant of blocked Davidson
 Davidson routine will perform the subspace rotation
 perform sub-space diagonalisation
    after iterative eigenvector-optimisation
 modified Broyden-mixing scheme, WC =      100.0
 initial mixing is a Kerker type mixing with AMIX =  0.4000 and BMIX =      1.0000
 Hartree-type preconditioning will be used
 using additional bands            7
 reciprocal scheme for non local part
 use partial core corrections
 calculate Harris-corrections to forces 
   (improved forces if not selfconsistent)
 use gradient corrections 
 use of overlap-Matrix (Vanderbilt PP)
 Fermi weights with tetrahedron method with Bloechl corrections


--------------------------------------------------------------------------------------------------------


  energy-cutoff  :      415.00
  volume of cell :      128.69
      direct lattice vectors                 reciprocal lattice vectors
     2.565866355  0.000000000  0.000000000     0.389731912 -0.225011824  0.000000000
     1.282933180  2.222105448  0.000000000     0.000000000  0.450023648  0.000000000
     0.000000000  0.000000000 22.570126644     0.000000000  0.000000000  0.044306353

  length of vectors
     2.565866355  2.565866358 22.570126644     0.450023648  0.450023648  0.044306353


 
 k-points in units of 2pi/SCALE and weight: K-Points                                
   0.00000000  0.00000000  0.00000000       0.020
   0.05567599 -0.03214455  0.00000000       0.122
   0.11135197 -0.06428909  0.00000000       0.122
   0.16702796 -0.09643364  0.00000000       0.122
   0.11135197  0.00000000  0.00000000       0.122
   0.16702796 -0.03214455  0.00000000       0.245
  -0.16702796  0.16072273  0.00000000       0.122
  -0.16702796  0.22501182  0.00000000       0.122
 
 k-points in reciprocal lattice and weights: K-Points                                
   0.00000000  0.00000000  0.00000000       0.020
   0.14285714  0.00000000  0.00000000       0.122
   0.28571429  0.00000000  0.00000000       0.122
   0.42857143  0.00000000  0.00000000       0.122
   0.28571429  0.14285714  0.00000000       0.122
   0.42857143  0.14285714  0.00000000       0.245
  -0.42857143  0.14285714  0.00000000       0.122
  -0.42857143  0.28571429  0.00000000       0.122
 
 position of ions in fractional coordinates (direct lattice) 
   0.00000000  0.00000000  0.00000000
   0.00000000  0.00000000  0.27846823
   0.33333333  0.33333333  0.09282274
   0.33333333  0.33333333  0.37129098
   0.66666667  0.66666667  0.18564549
   0.66666667  0.66666667  0.46411372
 
 position of ions in cartesian coordinates  (Angst):
   0.00000000  0.00000000  0.00000000
   0.00000000  0.00000000  6.28506332
   1.28293318  0.74070182  2.09502111
   1.28293318  0.74070182  8.38008443
   2.56586636  1.48140363  4.19004221
   2.56586636  1.48140363 10.47510554
 


--------------------------------------------------------------------------------------------------------


 k-point  1 :   0.0000 0.0000 0.0000  plane waves:    2541
 k-point  2 :   0.1429 0.0000 0.0000  plane waves:    2467
 k-point  3 :   0.2857 0.0000 0.0000  plane waves:    2447
 k-point  4 :   0.4286 0.0000 0.0000  plane waves:    2474
 k-point  5 :   0.2857 0.1429 0.0000  plane waves:    2466
 k-point  6 :   0.4286 0.1429 0.0000  plane waves:    2465
 k-point  7 :  -0.4286 0.1429 0.0000  plane waves:    2494
 k-point  8 :  -0.4286 0.2857 0.0000  plane waves:    2466

 maximum and minimum number of plane-waves per node :      2541     2447

 maximum number of plane-waves:      2541
 maximum index in each direction: 
   IXMAX=    4   IYMAX=    4   IZMAX=   37
   IXMIN=   -4   IYMIN=   -4   IZMIN=  -37

 WARNING: aliasing errors must be expected set NGX to  18 to avoid them
 WARNING: aliasing errors must be expected set NGY to  18 to avoid them
 WARNING: aliasing errors must be expected set NGZ to 150 to avoid them
 aliasing errors are usually negligible using standard VASP settings
 and one can safely disregard these warnings

 serial   3D FFT for wavefunctions
 parallel 3D FFT for charge:
    minimum data exchange during FFTs selected (reduces bandwidth)


 total amount of memory used by VASP on root node    53828. kBytes
========================================================================

   base      :      30000. kBytes
   nonl-proj :       3172. kBytes
   fftplans  :       6052. kBytes
   grid      :       7727. kBytes
   one-center:         93. kBytes
   wavefun   :       6784. kBytes
 
 Broyden mixing: mesh for mixing (old mesh)
   NGX =  9   NGY =  9   NGZ = 75
  (NGX  = 28   NGY  = 28   NGZ  =224)
  gives a total of   6075 points

 initial charge density was supplied:
 charge density of overlapping atoms calculated
 number of electron      66.0000000 magnetization 
 keeping initial charge density in first step


--------------------------------------------------------------------------------------------------------


 Maximum index for augmentation-charges         2932 (set IRDMAX)


--------------------------------------------------------------------------------------------------------


 First call to EWALD:  gamma=   0.351
 Maximum number of real-space cells 6x 6x 1
 Maximum number of reciprocal cells 2x 2x11

 FEWALD executed in parallel
    FEWALD:  cpu time    0.00: real time    0.00


----------------------------------------- Iteration    1(   1)  ---------------------------------------


    POTLOK:  cpu time    0.12: real time    0.12
    SETDIJ:  cpu time    0.01: real time    0.01
     EDDAV:  cpu time    1.56: real time    1.56
 BZINTS: Fermi energy: 11.711361; 66.000000 electrons
         Band energy: 357.055332;  BLOECHL correction: -0.084650
       DOS:  cpu time    0.00: real time    0.00
    --------------------------------------------
      LOOP:  cpu time    1.69: real time    1.75

 eigenvalue-minimisations  :   640
 total energy-change (2. order) : 0.4410644E+03  (-0.2744463E+04)
 number of electron      66.0000000 magnetization 
 augmentation part       66.0000000 magnetization 

 Free energy of the ion-electron system (eV)
  ---------------------------------------------------
  alpha Z        PSCENC =       357.41536616
  Ewald energy   TEWEN  =     19813.76149029
  -1/2 Hartree   DENC   =    -27831.10547837
  -exchange  EXHF       =         0.00000000
  -V(xc)+E(xc)   XCENC  =       262.25748026
  PAW double counting   =      6492.31375417    -7356.46204051
  entropy T*S    EENTRO =         0.00000000
  eigenvalues    EBANDS =       357.05533227
  atomic energy  EATOM  =      8345.82850422
  ---------------------------------------------------
  free energy    TOTEN  =       441.06440850 eV

  energy without entropy =      441.06440850  energy(sigma->0) =      441.06440850


--------------------------------------------------------------------------------------------------------




----------------------------------------- Iteration    1(   2)  ---------------------------------------


     EDDAV:  cpu time    1.55: real time    1.55
 BZINTS: Fermi energy:  1.759647; 66.000000 electrons
         Band energy: -76.821774;  BLOECHL correction: -0.404698
       DOS:  cpu time    0.00: real time    0.00
    --------------------------------------------
      LOOP:  cpu time    1.55: real time    1.57

 eigenvalue-minimisations  :   640
 total energy-change (2. order) :-0.4338771E+03  (-0.4164663E+03)
 number of electron      66.0000000 magnetization 
 augmentation part       66.0000000 magnetization 

 Free energy of the ion-electron system (eV)
  ---------------------------------------------------
  alpha Z        PSCENC =       357.41536616
  Ewald energy   TEWEN  =     19813.76149029
  -1/2 Hartree   DENC   =    -27831.10547837
  -exchange  EXHF       =         0.00000000
  -V(xc)+E(xc)   XCENC  =       262.25748026
  PAW double counting   =      6492.31375417    -7356.46204051
  entropy T*S    EENTRO =         0.00000000
  eigenvalues    EBANDS =       -76.82177386
  atomic energy  EATOM  =      8345.82850422
  ---------------------------------------------------
  free energy    TOTEN  =         7.18730236 eV

  energy without entropy =        7.18730236  energy(sigma->0) =        7.18730236


--------------------------------------------------------------------------------------------------------




----------------------------------------- Iteration    1(   3)  ---------------------------------------


     EDDAV:  cpu time    1.63: real time    1.63
 BZINTS: Fermi energy:  1.013215; 66.000000 electrons
         Band energy:-109.923097;  BLOECHL correction: -0.441227
       DOS:  cpu time    0.00: real time    0.00
    --------------------------------------------
      LOOP:  cpu time    1.63: real time    1.65

 eigenvalue-minimisations  :   696
 total energy-change (2. order) :-0.3310132E+02  (-0.3252778E+02)
 number of electron      66.0000000 magnetization 
 augmentation part       66.0000000 magnetization 

 Free energy of the ion-electron system (eV)
  ---------------------------------------------------
  alpha Z        PSCENC =       357.41536616
  Ewald energy   TEWEN  =     19813.76149029
  -1/2 Hartree   DENC   =    -27831.10547837
  -exchange  EXHF       =         0.00000000
  -V(xc)+E(xc)   XCENC  =       262.25748026
  PAW double counting   =      6492.31375417    -7356.46204051
  entropy T*S    EENTRO =         0.00000000
  eigenvalues    EBANDS =      -109.92309664
  atomic energy  EATOM  =      8345.82850422
  ---------------------------------------------------
  free energy    TOTEN  =       -25.91402042 eV

  energy without entropy =      -25.91402042  energy(sigma->0) =      -25.91402042


--------------------------------------------------------------------------------------------------------




----------------------------------------- Iteration    1(   4)  ---------------------------------------


     EDDAV:  cpu time    1.70: real time    1.70
 BZINTS: Fermi energy:  1.006810; 66.000000 electrons
         Band energy:-110.296462;  BLOECHL correction: -0.440156
       DOS:  cpu time    0.00: real time    0.00
    --------------------------------------------
      LOOP:  cpu time    1.70: real time    1.73

 eigenvalue-minimisations  :   704
 total energy-change (2. order) :-0.3733656E+00  (-0.3731592E+00)
 number of electron      66.0000000 magnetization 
 augmentation part       66.0000000 magnetization 

 Free energy of the ion-electron system (eV)
  ---------------------------------------------------
  alpha Z        PSCENC =       357.41536616
  Ewald energy   TEWEN  =     19813.76149029
  -1/2 Hartree   DENC   =    -27831.10547837
  -exchange  EXHF       =         0.00000000
  -V(xc)+E(xc)   XCENC  =       262.25748026
  PAW double counting   =      6492.31375417    -7356.46204051
  entropy T*S    EENTRO =         0.00000000
  eigenvalues    EBANDS =      -110.29646221
  atomic energy  EATOM  =      8345.82850422
  ---------------------------------------------------
  free energy    TOTEN  =       -26.28738599 eV

  energy without entropy =      -26.28738599  energy(sigma->0) =      -26.28738599


--------------------------------------------------------------------------------------------------------




----------------------------------------- Iteration    1(   5)  ---------------------------------------


     EDDAV:  cpu time    1.72: real time    1.72
 BZINTS: Fermi energy:  1.006781; 66.000000 electrons
         Band energy:-110.298588;  BLOECHL correction: -0.440134
       DOS:  cpu time    0.00: real time    0.00
    CHARGE:  cpu time    0.10: real time    0.10
    MIXING:  cpu time    0.00: real time    0.01
    --------------------------------------------
      LOOP:  cpu time    1.83: real time    1.84

 eigenvalue-minimisations  :   728
 total energy-change (2. order) :-0.2125381E-02  (-0.2131012E-02)
 number of electron      65.9999981 magnetization 
 augmentation part       40.2551290 magnetization 

 Broyden mixing:
  rms(total) = 0.16675E+01    rms(broyden)= 0.16675E+01
  rms(prec ) = 0.17679E+01
  weight for this iteration     100.00

 Free energy of the ion-electron system (eV)
  ---------------------------------------------------
  alpha Z        PSCENC =       357.41536616
  Ewald energy   TEWEN  =     19813.76149029
  -1/2 Hartree   DENC   =    -27831.10547837
  -exchange  EXHF       =         0.00000000
  -V(xc)+E(xc)   XCENC  =       262.25748026
  PAW double counting   =      6492.31375417    -7356.46204051
  entropy T*S    EENTRO =         0.00000000
  eigenvalues    EBANDS =      -110.29858759
  atomic energy  EATOM  =      8345.82850422
  ---------------------------------------------------
  free energy    TOTEN  =       -26.28951137 eV

  energy without entropy =      -26.28951137  energy(sigma->0) =      -26.28951137


--------------------------------------------------------------------------------------------------------




----------------------------------------- Iteration    1(   6)  ---------------------------------------


    POTLOK:  cpu time    0.12: real time    0.11
    SETDIJ:  cpu time    0.01: real time    0.01
     EDDAV:  cpu time    1.69: real time    1.68
 BZINTS: Fermi energy: -0.954643; 66.000000 electrons
         Band energy:-294.223422;  BLOECHL correction: -0.655091
       DOS:  cpu time    0.00: real time    0.00
    CHARGE:  cpu time    0.11: real time    0.11
    MIXING:  cpu time    0.01: real time    0.01
    --------------------------------------------
      LOOP:  cpu time    1.93: real time    1.99

 eigenvalue-minimisations  :   720
 total energy-change (2. order) : 0.2719955E+01  (-0.5457175E+01)
 number of electron      65.9999979 magnetization 
 augmentation part       44.8983004 magnetization 

 Broyden mixing:
  rms(total) = 0.82466E+00    rms(broyden)= 0.82457E+00
  rms(prec ) = 0.87412E+00
  weight for this iteration     100.00

 eigenvalues of (default mixing * dielectric matrix)
  average eigenvalue GAMMA=   0.6719
  0.6719

 Free energy of the ion-electron system (eV)
  ---------------------------------------------------
  alpha Z        PSCENC =       357.41536616
  Ewald energy   TEWEN  =     19813.76149029
  -1/2 Hartree   DENC   =    -27684.79294927
  -exchange  EXHF       =         0.00000000
  -V(xc)+E(xc)   XCENC  =       254.83332185
  PAW double counting   =      6339.09402961    -7155.48589724
  entropy T*S    EENTRO =         0.00000000
  eigenvalues    EBANDS =      -294.22342159
  atomic energy  EATOM  =      8345.82850422
  ---------------------------------------------------
  free energy    TOTEN  =       -23.56955597 eV

  energy without entropy =      -23.56955597  energy(sigma->0) =      -23.56955597


--------------------------------------------------------------------------------------------------------




----------------------------------------- Iteration    1(   7)  ---------------------------------------


    POTLOK:  cpu time    0.12: real time    0.11
    SETDIJ:  cpu time    0.01: real time    0.01
     EDDAV:  cpu time    1.75: real time    1.75
 BZINTS: Fermi energy: -0.047088; 66.000000 electrons
         Band energy:-197.012401;  BLOECHL correction: -0.571968
       DOS:  cpu time    0.00: real time    0.00
    CHARGE:  cpu time    0.10: real time    0.10
    MIXING:  cpu time    0.01: real time    0.01
    --------------------------------------------
      LOOP:  cpu time    1.99: real time    2.02

 eigenvalue-minimisations  :   744
 total energy-change (2. order) : 0.2105692E+01  (-0.1060337E+01)
 number of electron      65.9999980 magnetization 
 augmentation part       43.1878470 magnetization 

 Broyden mixing:
  rms(total) = 0.12413E+00    rms(broyden)= 0.12409E+00
  rms(prec ) = 0.14713E+00
  weight for this iteration     100.00

 eigenvalues of (default mixing * dielectric matrix)
  average eigenvalue GAMMA=   0.9707
  1.3090  0.6323

 Free energy of the ion-electron system (eV)
  ---------------------------------------------------
  alpha Z        PSCENC =       357.41536616
  Ewald energy   TEWEN  =     19813.76149029
  -1/2 Hartree   DENC   =    -27746.96828138
  -exchange  EXHF       =         0.00000000
  -V(xc)+E(xc)   XCENC  =       257.09066197
  PAW double counting   =      6464.22081742    -7315.80002157
  entropy T*S    EENTRO =         0.00000000
  eigenvalues    EBANDS =      -197.01240093
  atomic energy  EATOM  =      8345.82850422
  ---------------------------------------------------
  free energy    TOTEN  =       -21.46386382 eV

  energy without entropy =      -21.46386382  energy(sigma->0) =      -21.46386382


--------------------------------------------------------------------------------------------------------




----------------------------------------- Iteration    1(   8)  ---------------------------------------


    POTLOK:  cpu time    0.12: real time    0.12
    SETDIJ:  cpu time    0.01: real time    0.01
     EDDAV:  cpu time    1.89: real time    1.89
 BZINTS: Fermi energy: -0.079281; 66.000000 electrons
         Band energy:-199.785792;  BLOECHL correction: -0.553739
       DOS:  cpu time    0.00: real time    0.00
    CHARGE:  cpu time    0.11: real time    0.11
    MIXING:  cpu time    0.01: real time    0.01
    --------------------------------------------
      LOOP:  cpu time    2.14: real time    2.19

 eigenvalue-minimisations  :   824
 total energy-change (2. order) : 0.2680326E-02  (-0.5378078E-01)
 number of electron      65.9999980 magnetization 
 augmentation part       43.1266896 magnetization 

 Broyden mixing:
  rms(total) = 0.14698E+00    rms(broyden)= 0.14697E+00
  rms(prec ) = 0.17977E+00
  weight for this iteration     100.00

 eigenvalues of (default mixing * dielectric matrix)
  average eigenvalue GAMMA=   0.7766
  1.4323  0.6211  0.2765

 Free energy of the ion-electron system (eV)
  ---------------------------------------------------
  alpha Z        PSCENC =       357.41536616
  Ewald energy   TEWEN  =     19813.76149029
  -1/2 Hartree   DENC   =    -27736.52760089
  -exchange  EXHF       =         0.00000000
  -V(xc)+E(xc)   XCENC  =       256.83692636
  PAW double counting   =      6503.89341585    -7362.88349332
  entropy T*S    EENTRO =         0.00000000
  eigenvalues    EBANDS =      -199.78579215
  atomic energy  EATOM  =      8345.82850422
  ---------------------------------------------------
  free energy    TOTEN  =       -21.46118349 eV

  energy without entropy =      -21.46118349  energy(sigma->0) =      -21.46118349


--------------------------------------------------------------------------------------------------------




----------------------------------------- Iteration    1(   9)  ---------------------------------------


    POTLOK:  cpu time    0.11: real time    0.11
    SETDIJ:  cpu time    0.01: real time    0.01
     EDDAV:  cpu time    1.75: real time    1.75
 BZINTS: Fermi energy: -0.001139; 66.000000 electrons
         Band energy:-193.652611;  BLOECHL correction: -0.569534
       DOS:  cpu time    0.00: real time    0.00
    CHARGE:  cpu time    0.10: real time    0.10
    MIXING:  cpu time    0.00: real time    0.01
    --------------------------------------------
      LOOP:  cpu time    1.97: real time    1.99

 eigenvalue-minimisations  :   736
 total energy-change (2. order) : 0.3756456E-01  (-0.1808846E-01)
 number of electron      65.9999980 magnetization 
 augmentation part       43.0952838 magnetization 

 Broyden mixing:
  rms(total) = 0.90982E-01    rms(broyden)= 0.90980E-01
  rms(prec ) = 0.97617E-01
  weight for this iteration     100.00

 eigenvalues of (default mixing * dielectric matrix)
  average eigenvalue GAMMA=   0.9340
  2.1173  0.6151  0.6151  0.3887

 Free energy of the ion-electron system (eV)
  ---------------------------------------------------
  alpha Z        PSCENC =       357.41536616
  Ewald energy   TEWEN  =     19813.76149029
  -1/2 Hartree   DENC   =    -27738.57123105
  -exchange  EXHF       =         0.00000000
  -V(xc)+E(xc)   XCENC  =       256.64161146
  PAW double counting   =      6525.61324112    -7388.45998987
  entropy T*S    EENTRO =         0.00000000
  eigenvalues    EBANDS =      -193.65261125
  atomic energy  EATOM  =      8345.82850422
  ---------------------------------------------------
  free energy    TOTEN  =       -21.42361893 eV

  energy without entropy =      -21.42361893  energy(sigma->0) =      -21.42361893


--------------------------------------------------------------------------------------------------------




----------------------------------------- Iteration    1(  10)  ---------------------------------------


    POTLOK:  cpu time    0.12: real time    0.12
    SETDIJ:  cpu time    0.01: real time    0.01
     EDDAV:  cpu time    2.16: real time    2.16
 BZINTS: Fermi energy: -0.004368; 66.000000 electrons
         Band energy:-195.241589;  BLOECHL correction: -0.571207
       DOS:  cpu time    0.00: real time    0.00
    CHARGE:  cpu time    0.10: real time    0.10
    MIXING:  cpu time    0.01: real time    0.01
    --------------------------------------------
      LOOP:  cpu time    2.40: real time    2.42

 eigenvalue-minimisations  :   968
 total energy-change (2. order) : 0.1387539E-01  (-0.4280318E-02)
 number of electron      65.9999980 magnetization 
 augmentation part       43.1367875 magnetization 

 Broyden mixing:
  rms(total) = 0.50141E-01    rms(broyden)= 0.50140E-01
  rms(prec ) = 0.55862E-01
  weight for this iteration     100.00

 eigenvalues of (default mixing * dielectric matrix)
  average eigenvalue GAMMA=   0.9477
  2.3932  0.8471  0.7253  0.4093  0.3638

 Free energy of the ion-electron system (eV)
  ---------------------------------------------------
  alpha Z        PSCENC =       357.41536616
  Ewald energy   TEWEN  =     19813.76149029
  -1/2 Hartree   DENC   =    -27732.92476761
  -exchange  EXHF       =         0.00000000
  -V(xc)+E(xc)   XCENC  =       256.30827920
  PAW double counting   =      6548.63626195    -7415.19328916
  entropy T*S    EENTRO =         0.00000000
  eigenvalues    EBANDS =      -195.24158859
  atomic energy  EATOM  =      8345.82850422
  ---------------------------------------------------
  free energy    TOTEN  =       -21.40974354 eV

  energy without entropy =      -21.40974354  energy(sigma->0) =      -21.40974354


--------------------------------------------------------------------------------------------------------




----------------------------------------- Iteration    1(  11)  ---------------------------------------


    POTLOK:  cpu time    0.12: real time    0.12
    SETDIJ:  cpu time    0.01: real time    0.01
     EDDAV:  cpu time    1.68: real time    1.68
 BZINTS: Fermi energy:  0.009860; 66.000000 electrons
         Band energy:-194.758528;  BLOECHL correction: -0.577533
       DOS:  cpu time    0.00: real time    0.00
    CHARGE:  cpu time    0.11: real time    0.11
    MIXING:  cpu time    0.01: real time    0.01
    --------------------------------------------
      LOOP:  cpu time    1.93: real time    1.99

 eigenvalue-minimisations  :   712
 total energy-change (2. order) : 0.2627793E-02  (-0.2294535E-02)
 number of electron      65.9999980 magnetization 
 augmentation part       43.1729110 magnetization 

 Broyden mixing:
  rms(total) = 0.16582E-01    rms(broyden)= 0.16580E-01
  rms(prec ) = 0.18451E-01
  weight for this iteration     100.00

 eigenvalues of (default mixing * dielectric matrix)
  average eigenvalue GAMMA=   1.0786
  2.0887  2.0887  0.8390  0.7042  0.4245  0.3265

 Free energy of the ion-electron system (eV)
  ---------------------------------------------------
  alpha Z        PSCENC =       357.41536616
  Ewald energy   TEWEN  =     19813.76149029
  -1/2 Hartree   DENC   =    -27732.06681602
  -exchange  EXHF       =         0.00000000
  -V(xc)+E(xc)   XCENC  =       256.15049039
  PAW double counting   =      6557.47825228    -7425.21587531
  entropy T*S    EENTRO =         0.00000000
  eigenvalues    EBANDS =      -194.75852774
  atomic energy  EATOM  =      8345.82850422
  ---------------------------------------------------
  free energy    TOTEN  =       -21.40711575 eV

  energy without entropy =      -21.40711575  energy(sigma->0) =      -21.40711575


--------------------------------------------------------------------------------------------------------




----------------------------------------- Iteration    1(  12)  ---------------------------------------


    POTLOK:  cpu time    0.12: real time    0.12
    SETDIJ:  cpu time    0.01: real time    0.01
     EDDAV:  cpu time    1.66: real time    1.65
 BZINTS: Fermi energy:  0.019259; 66.000000 electrons
         Band energy:-194.689939;  BLOECHL correction: -0.579338
       DOS:  cpu time    0.00: real time    0.00
    CHARGE:  cpu time    0.09: real time    0.09
    MIXING:  cpu time    0.00: real time    0.01
    --------------------------------------------
      LOOP:  cpu time    1.88: real time    1.90

 eigenvalue-minimisations  :   688
 total energy-change (2. order) : 0.3118856E-03  (-0.1035887E-02)
 number of electron      65.9999980 magnetization 
 augmentation part       43.2122808 magnetization 

 Broyden mixing:
  rms(total) = 0.10212E-01    rms(broyden)= 0.10211E-01
  rms(prec ) = 0.11551E-01
  weight for this iteration     100.00

 eigenvalues of (default mixing * dielectric matrix)
  average eigenvalue GAMMA=   1.1443
  2.7393  1.9198  0.9595  0.9595  0.6728  0.4355  0.3237

 Free energy of the ion-electron system (eV)
  ---------------------------------------------------
  alpha Z        PSCENC =       357.41536616
  Ewald energy   TEWEN  =     19813.76149029
  -1/2 Hartree   DENC   =    -27732.37564919
  -exchange  EXHF       =         0.00000000
  -V(xc)+E(xc)   XCENC  =       256.09387580
  PAW double counting   =      6559.63365394    -7427.07410599
  entropy T*S    EENTRO =         0.00000000
  eigenvalues    EBANDS =      -194.68993908
  atomic energy  EATOM  =      8345.82850422
  ---------------------------------------------------
  free energy    TOTEN  =       -21.40680386 eV

  energy without entropy =      -21.40680386  energy(sigma->0) =      -21.40680386


--------------------------------------------------------------------------------------------------------




----------------------------------------- Iteration    1(  13)  ---------------------------------------


    POTLOK:  cpu time    0.12: real time    0.12
    SETDIJ:  cpu time    0.02: real time    0.01
     EDDAV:  cpu time    1.66: real time    1.66
 BZINTS: Fermi energy:  0.041772; 66.000000 electrons
         Band energy:-193.078796;  BLOECHL correction: -0.578985
       DOS:  cpu time    0.00: real time    0.00
    CHARGE:  cpu time    0.11: real time    0.11
    MIXING:  cpu time    0.01: real time    0.01
    --------------------------------------------
      LOOP:  cpu time    1.92: real time    1.98

 eigenvalue-minimisations  :   704
 total energy-change (2. order) : 0.2159231E-03  (-0.2601568E-03)
 number of electron      65.9999980 magnetization 
 augmentation part       43.2054593 magnetization 

 Broyden mixing:
  rms(total) = 0.70291E-02    rms(broyden)= 0.70287E-02
  rms(prec ) = 0.80600E-02
  weight for this iteration     100.00

 eigenvalues of (default mixing * dielectric matrix)
  average eigenvalue GAMMA=   1.1243
  2.4944  2.1574  1.0185  1.0185  0.8521  0.6911  0.4391  0.3232

 Free energy of the ion-electron system (eV)
  ---------------------------------------------------
  alpha Z        PSCENC =       357.41536616
  Ewald energy   TEWEN  =     19813.76149029
  -1/2 Hartree   DENC   =    -27733.49219245
  -exchange  EXHF       =         0.00000000
  -V(xc)+E(xc)   XCENC  =       256.09461393
  PAW double counting   =      6563.06634917    -7431.00192362
  entropy T*S    EENTRO =         0.00000000
  eigenvalues    EBANDS =      -193.07879563
  atomic energy  EATOM  =      8345.82850422
  ---------------------------------------------------
  free energy    TOTEN  =       -21.40658794 eV

  energy without entropy =      -21.40658794  energy(sigma->0) =      -21.40658794


--------------------------------------------------------------------------------------------------------




----------------------------------------- Iteration    1(  14)  ---------------------------------------


    POTLOK:  cpu time    0.10: real time    0.09
    SETDIJ:  cpu time    0.01: real time    0.01
     EDDAV:  cpu time    1.44: real time    1.44
 BZINTS: Fermi energy:  0.053659; 66.000000 electrons
         Band energy:-192.125238;  BLOECHL correction: -0.578561
       DOS:  cpu time    0.00: real time    0.00
    CHARGE:  cpu time    0.10: real time    0.10
    MIXING:  cpu time    0.01: real time    0.01
    --------------------------------------------
      LOOP:  cpu time    1.65: real time    1.70

 eigenvalue-minimisations  :   688
 total energy-change (2. order) : 0.3606223E-04  (-0.6736810E-04)
 number of electron      65.9999980 magnetization 
 augmentation part       43.1978963 magnetization 

 Broyden mixing:
  rms(total) = 0.28975E-02    rms(broyden)= 0.28972E-02
  rms(prec ) = 0.37641E-02
  weight for this iteration     100.00

 eigenvalues of (default mixing * dielectric matrix)
  average eigenvalue GAMMA=   1.1814
  2.7245  2.3603  1.1928  1.1928  0.8552  0.8552  0.6897  0.3233  0.4391

 Free energy of the ion-electron system (eV)
  ---------------------------------------------------
  alpha Z        PSCENC =       357.41536616
  Ewald energy   TEWEN  =     19813.76149029
  -1/2 Hartree   DENC   =    -27734.53982233
  -exchange  EXHF       =         0.00000000
  -V(xc)+E(xc)   XCENC  =       256.11681468
  PAW double counting   =      6562.54450470    -7430.40817202
  entropy T*S    EENTRO =         0.00000000
  eigenvalues    EBANDS =      -192.12523757
  atomic energy  EATOM  =      8345.82850422
  ---------------------------------------------------
  free energy    TOTEN  =       -21.40655187 eV

  energy without entropy =      -21.40655187  energy(sigma->0) =      -21.40655187


--------------------------------------------------------------------------------------------------------




----------------------------------------- Iteration    1(  15)  ---------------------------------------


    POTLOK:  cpu time    0.11: real time    0.11
    SETDIJ:  cpu time    0.01: real time    0.01
     EDDAV:  cpu time    1.64: real time    1.64
 BZINTS: Fermi energy:  0.071043; 66.000000 electrons
         Band energy:-190.916729;  BLOECHL correction: -0.578621
       DOS:  cpu time    0.00: real time    0.00
    CHARGE:  cpu time    0.10: real time    0.10
    MIXING:  cpu time    0.01: real time    0.01
    --------------------------------------------
      LOOP:  cpu time    1.88: real time    1.94

 eigenvalue-minimisations  :   672
 total energy-change (2. order) :-0.1492337E-03  (-0.2299933E-04)
 number of electron      65.9999980 magnetization 
 augmentation part       43.1944779 magnetization 

 Broyden mixing:
  rms(total) = 0.24280E-02    rms(broyden)= 0.24279E-02
  rms(prec ) = 0.28502E-02
  weight for this iteration     100.00

 eigenvalues of (default mixing * dielectric matrix)
  average eigenvalue GAMMA=   1.3376
  2.7507  2.7507  2.1789  1.5012  0.9299  0.9299  0.8829  0.6892  0.3233  0.4389

 Free energy of the ion-electron system (eV)
  ---------------------------------------------------
  alpha Z        PSCENC =       357.41536616
  Ewald energy   TEWEN  =     19813.76149029
  -1/2 Hartree   DENC   =    -27735.71676460
  -exchange  EXHF       =         0.00000000
  -V(xc)+E(xc)   XCENC  =       256.12108179
  PAW double counting   =      6562.60417596    -7430.50382643
  entropy T*S    EENTRO =         0.00000000
  eigenvalues    EBANDS =      -190.91672850
  atomic energy  EATOM  =      8345.82850422
  ---------------------------------------------------
  free energy    TOTEN  =       -21.40670111 eV

  energy without entropy =      -21.40670111  energy(sigma->0) =      -21.40670111


--------------------------------------------------------------------------------------------------------




----------------------------------------- Iteration    1(  16)  ---------------------------------------


    POTLOK:  cpu time    0.11: real time    0.11
    SETDIJ:  cpu time    0.01: real time    0.01
     EDDAV:  cpu time    1.68: real time    1.68
 BZINTS: Fermi energy:  0.079517; 66.000000 electrons
         Band energy:-190.426363;  BLOECHL correction: -0.578944
       DOS:  cpu time    0.00: real time    0.00
    CHARGE:  cpu time    0.10: real time    0.10
    MIXING:  cpu time    0.01: real time    0.01
    --------------------------------------------
      LOOP:  cpu time    1.92: real time    1.93

 eigenvalue-minimisations  :   688
 total energy-change (2. order) :-0.1349363E-03  (-0.1253656E-04)
 number of electron      65.9999980 magnetization 
 augmentation part       43.1991620 magnetization 

 Broyden mixing:
  rms(total) = 0.15159E-02    rms(broyden)= 0.15158E-02
  rms(prec ) = 0.17419E-02
  weight for this iteration     100.00

 eigenvalues of (default mixing * dielectric matrix)
  average eigenvalue GAMMA=   1.3960
  3.8758  2.8516  1.9195  1.3403  1.2487  0.3233  0.4389  0.8936  0.8936  0.6872
  0.8833

 Free energy of the ion-electron system (eV)
  ---------------------------------------------------
  alpha Z        PSCENC =       357.41536616
  Ewald energy   TEWEN  =     19813.76149029
  -1/2 Hartree   DENC   =    -27736.30654639
  -exchange  EXHF       =         0.00000000
  -V(xc)+E(xc)   XCENC  =       256.11605331
  PAW double counting   =      6561.74296339    -7429.53830386
  entropy T*S    EENTRO =         0.00000000
  eigenvalues    EBANDS =      -190.42636315
  atomic energy  EATOM  =      8345.82850422
  ---------------------------------------------------
  free energy    TOTEN  =       -21.40683604 eV

  energy without entropy =      -21.40683604  energy(sigma->0) =      -21.40683604


--------------------------------------------------------------------------------------------------------




----------------------------------------- Iteration    1(  17)  ---------------------------------------


    POTLOK:  cpu time    0.12: real time    0.12
    SETDIJ:  cpu time    0.01: real time    0.01
     EDDAV:  cpu time    1.68: real time    1.68
 BZINTS: Fermi energy:  0.086191; 66.000000 electrons
         Band energy:-189.931747;  BLOECHL correction: -0.578826
       DOS:  cpu time    0.00: real time    0.00
    CHARGE:  cpu time    0.11: real time    0.11
    MIXING:  cpu time    0.01: real time    0.01
    --------------------------------------------
      LOOP:  cpu time    1.93: real time    1.97

 eigenvalue-minimisations  :   696
 total energy-change (2. order) :-0.9144596E-04  (-0.3872764E-05)
 number of electron      65.9999980 magnetization 
 augmentation part       43.1964959 magnetization 

 Broyden mixing:
  rms(total) = 0.70681E-03    rms(broyden)= 0.70678E-03
  rms(prec ) = 0.93240E-03
  weight for this iteration     100.00

 eigenvalues of (default mixing * dielectric matrix)
  average eigenvalue GAMMA=   1.6141
  5.3491  2.8645  2.8645  1.5962  1.5962  0.3233  0.4389  0.9090  0.9090  0.6865
  0.9162  0.9162

 Free energy of the ion-electron system (eV)
  ---------------------------------------------------
  alpha Z        PSCENC =       357.41536616
  Ewald energy   TEWEN  =     19813.76149029
  -1/2 Hartree   DENC   =    -27736.76520071
  -exchange  EXHF       =         0.00000000
  -V(xc)+E(xc)   XCENC  =       256.12092997
  PAW double counting   =      6561.94727592    -7429.78354632
  entropy T*S    EENTRO =         0.00000000
  eigenvalues    EBANDS =      -189.93174701
  atomic energy  EATOM  =      8345.82850422
  ---------------------------------------------------
  free energy    TOTEN  =       -21.40692749 eV

  energy without entropy =      -21.40692749  energy(sigma->0) =      -21.40692749


--------------------------------------------------------------------------------------------------------




----------------------------------------- Iteration    1(  18)  ---------------------------------------


    POTLOK:  cpu time    0.11: real time    0.11
    SETDIJ:  cpu time    0.01: real time    0.01
     EDDAV:  cpu time    1.60: real time    1.60
 BZINTS: Fermi energy:  0.088880; 66.000000 electrons
         Band energy:-189.781907;  BLOECHL correction: -0.578872
       DOS:  cpu time    0.00: real time    0.00
    CHARGE:  cpu time    0.09: real time    0.09
    MIXING:  cpu time    0.01: real time    0.01
    --------------------------------------------
      LOOP:  cpu time    1.83: real time    1.86

 eigenvalue-minimisations  :   648
 total energy-change (2. order) :-0.1090503E-03  (-0.2127150E-05)
 number of electron      65.9999980 magnetization 
 augmentation part       43.1975699 magnetization 

 Broyden mixing:
  rms(total) = 0.12339E-02    rms(broyden)= 0.12339E-02
  rms(prec ) = 0.13288E-02
  weight for this iteration     100.00

 eigenvalues of (default mixing * dielectric matrix)
  average eigenvalue GAMMA=   1.6346
  5.6970  3.6491  2.5030  1.6886  1.6886  0.3233  0.4389  0.6869  0.9539  0.9539
  0.9134  0.9134  0.8396

 Free energy of the ion-electron system (eV)
  ---------------------------------------------------
  alpha Z        PSCENC =       357.41536616
  Ewald energy   TEWEN  =     19813.76149029
  -1/2 Hartree   DENC   =    -27736.85817757
  -exchange  EXHF       =         0.00000000
  -V(xc)+E(xc)   XCENC  =       256.11574623
  PAW double counting   =      6562.13575971    -7430.02381886
  entropy T*S    EENTRO =         0.00000000
  eigenvalues    EBANDS =      -189.78190672
  atomic energy  EATOM  =      8345.82850422
  ---------------------------------------------------
  free energy    TOTEN  =       -21.40703654 eV

  energy without entropy =      -21.40703654  energy(sigma->0) =      -21.40703654


--------------------------------------------------------------------------------------------------------




----------------------------------------- Iteration    1(  19)  ---------------------------------------


    POTLOK:  cpu time    0.12: real time    0.12
    SETDIJ:  cpu time    0.02: real time    0.01
     EDDAV:  cpu time    1.65: real time    1.65
 BZINTS: Fermi energy:  0.090653; 66.000000 electrons
         Band energy:-189.647270;  BLOECHL correction: -0.578835
       DOS:  cpu time    0.00: real time    0.00
    CHARGE:  cpu time    0.11: real time    0.11
    MIXING:  cpu time    0.01: real time    0.01
    --------------------------------------------
      LOOP:  cpu time    1.92: real time    1.97

 eigenvalue-minimisations  :   688
 total energy-change (2. order) :-0.3020961E-04  (-0.1095308E-05)
 number of electron      65.9999980 magnetization 
 augmentation part       43.1969056 magnetization 

 Broyden mixing:
  rms(total) = 0.23577E-03    rms(broyden)= 0.23570E-03
  rms(prec ) = 0.26252E-03
  weight for this iteration     100.00

 eigenvalues of (default mixing * dielectric matrix)
  average eigenvalue GAMMA=   1.7899
  6.9628  3.6844  2.4714  2.4714  1.7288  1.7288  0.3233  0.4389  0.6869  0.8927
  0.8927  0.9621  0.9621  0.8515

 Free energy of the ion-electron system (eV)
  ---------------------------------------------------
  alpha Z        PSCENC =       357.41536616
  Ewald energy   TEWEN  =     19813.76149029
  -1/2 Hartree   DENC   =    -27737.01986844
  -exchange  EXHF       =         0.00000000
  -V(xc)+E(xc)   XCENC  =       256.11856917
  PAW double counting   =      6562.03109070    -7429.89494858
  entropy T*S    EENTRO =         0.00000000
  eigenvalues    EBANDS =      -189.64727027
  atomic energy  EATOM  =      8345.82850422
  ---------------------------------------------------
  free energy    TOTEN  =       -21.40706675 eV

  energy without entropy =      -21.40706675  energy(sigma->0) =      -21.40706675


--------------------------------------------------------------------------------------------------------




----------------------------------------- Iteration    1(  20)  ---------------------------------------


    POTLOK:  cpu time    0.12: real time    0.12
    SETDIJ:  cpu time    0.01: real time    0.01
     EDDAV:  cpu time    1.50: real time    1.50
 BZINTS: Fermi energy:  0.090899; 66.000000 electrons
         Band energy:-189.645129;  BLOECHL correction: -0.578901
       DOS:  cpu time    0.00: real time    0.00
    CHARGE:  cpu time    0.10: real time    0.10
    MIXING:  cpu time    0.01: real time    0.01
    --------------------------------------------
      LOOP:  cpu time    1.75: real time    1.79

 eigenvalue-minimisations  :   592
 total energy-change (2. order) :-0.2521335E-04  (-0.4418556E-06)
 number of electron      65.9999980 magnetization 
 augmentation part       43.1978575 magnetization 

 Broyden mixing:
  rms(total) = 0.41008E-03    rms(broyden)= 0.41007E-03
  rms(prec ) = 0.43589E-03
  weight for this iteration     100.00

 eigenvalues of (default mixing * dielectric matrix)
  average eigenvalue GAMMA=   1.8583
  7.7003  4.4249  2.3716  2.3306  2.3306  0.3233  0.4389  1.2407  1.2407  0.6867
  0.8928  0.8928  1.0529  1.0529  0.8946

 Free energy of the ion-electron system (eV)
  ---------------------------------------------------
  alpha Z        PSCENC =       357.41536616
  Ewald energy   TEWEN  =     19813.76149029
  -1/2 Hartree   DENC   =    -27737.04726818
  -exchange  EXHF       =         0.00000000
  -V(xc)+E(xc)   XCENC  =       256.11762993
  PAW double counting   =      6561.99111227    -7429.82879783
  entropy T*S    EENTRO =         0.00000000
  eigenvalues    EBANDS =      -189.64512883
  atomic energy  EATOM  =      8345.82850422
  ---------------------------------------------------
  free energy    TOTEN  =       -21.40709196 eV

  energy without entropy =      -21.40709196  energy(sigma->0) =      -21.40709196


--------------------------------------------------------------------------------------------------------




----------------------------------------- Iteration    1(  21)  ---------------------------------------


    POTLOK:  cpu time    0.10: real time    0.10
    SETDIJ:  cpu time    0.01: real time    0.01
     EDDAV:  cpu time    1.20: real time    1.20
 BZINTS: Fermi energy:  0.091195; 66.000000 electrons
         Band energy:-189.615845;  BLOECHL correction: -0.578863
       DOS:  cpu time    0.00: real time    0.00
    CHARGE:  cpu time    0.10: real time    0.10
    MIXING:  cpu time    0.01: real time    0.01
    --------------------------------------------
      LOOP:  cpu time    1.43: real time    1.45

 eigenvalue-minimisations  :   416
 total energy-change (2. order) :-0.6090369E-05  (-0.1728826E-06)
 number of electron      65.9999980 magnetization 
 augmentation part       43.1972627 magnetization 

 Broyden mixing:
  rms(total) = 0.10274E-03    rms(broyden)= 0.10272E-03
  rms(prec ) = 0.10943E-03
  weight for this iteration     100.00

 eigenvalues of (default mixing * dielectric matrix)
  average eigenvalue GAMMA=   1.8666
  8.4233  4.3571  2.6964  2.4210  1.7146  1.7146  1.4594  0.3233  0.4389  0.6867
  0.8898  0.8898  1.0125  1.0125  0.9125  0.9125

 Free energy of the ion-electron system (eV)
  ---------------------------------------------------
  alpha Z        PSCENC =       357.41536616
  Ewald energy   TEWEN  =     19813.76149029
  -1/2 Hartree   DENC   =    -27737.06612759
  -exchange  EXHF       =         0.00000000
  -V(xc)+E(xc)   XCENC  =       256.11848697
  PAW double counting   =      6562.02970296    -7429.87867581
  entropy T*S    EENTRO =         0.00000000
  eigenvalues    EBANDS =      -189.61584524
  atomic energy  EATOM  =      8345.82850422
  ---------------------------------------------------
  free energy    TOTEN  =       -21.40709805 eV

  energy without entropy =      -21.40709805  energy(sigma->0) =      -21.40709805


--------------------------------------------------------------------------------------------------------




----------------------------------------- Iteration    1(  22)  ---------------------------------------


    POTLOK:  cpu time    0.11: real time    0.11
    SETDIJ:  cpu time    0.01: real time    0.01
     EDDAV:  cpu time    1.12: real time    1.12
 BZINTS: Fermi energy:  0.091345; 66.000000 electrons
         Band energy:-189.602368;  BLOECHL correction: -0.578847
       DOS:  cpu time    0.00: real time    0.00
    --------------------------------------------
      LOOP:  cpu time    1.24: real time    1.26

 eigenvalue-minimisations  :   376
 total energy-change (2. order) : 0.3618334E-07  (-0.4809485E-07)
 number of electron      65.9999980 magnetization 
 augmentation part       43.1972627 magnetization 

 Free energy of the ion-electron system (eV)
  ---------------------------------------------------
  alpha Z        PSCENC =       357.41536616
  Ewald energy   TEWEN  =     19813.76149029
  -1/2 Hartree   DENC   =    -27737.07737334
  -exchange  EXHF       =         0.00000000
  -V(xc)+E(xc)   XCENC  =       256.11888814
  PAW double counting   =      6562.05064525    -7429.90225072
  entropy T*S    EENTRO =         0.00000000
  eigenvalues    EBANDS =      -189.60236802
  atomic energy  EATOM  =      8345.82850422
  ---------------------------------------------------
  free energy    TOTEN  =       -21.40709802 eV

  energy without entropy =      -21.40709802  energy(sigma->0) =      -21.40709802


--------------------------------------------------------------------------------------------------------




 average (electrostatic) potential at core
  the test charge radii are     1.0053
  (the norm of the test charge is              1.0000)
       1 -43.4121       2 -43.6689       3 -43.6665       4 -43.6665       5 -43.6688
       6 -43.4120
 
 
 
 E-fermi :   0.0913     XC(G=0):  -7.8878     alpha+bet : -5.3032


 k-point   1 :       0.0000    0.0000    0.0000
  band No.  band energies     occupation 
      1      -9.0202      2.00000
      2      -8.3832      2.00000
      3      -7.3892      2.00000
      4      -6.2330      2.00000
      5      -5.3241      2.00000
      6      -5.0238      2.00000
      7      -3.1334      2.00000
      8      -3.1136      2.00000
      9      -2.9815      2.00000
     10      -2.9815      2.00000
     11      -2.9675      2.00000
     12      -2.9421      2.00000
     13      -2.9421      2.00000
     14      -2.8949      2.00000
     15      -2.8949      2.00000
     16      -2.8567      2.00000
     17      -2.8567      2.00000
     18      -2.8461      2.00000
     19      -2.6482      2.00000
     20      -2.6482      2.00000
     21      -2.6329      2.00000
     22      -2.6329      2.00000
     23      -2.3085      2.00000
     24      -2.1788      2.00000
     25      -2.1788      2.00000
     26      -2.1414      2.00000
     27      -2.1414      2.00000
     28      -2.0229      2.00000
     29      -2.0229      2.00000
     30      -1.8314      2.00000
     31      -1.8314      2.00000
     32      -1.6451      2.00000
     33      -1.6451      2.00000
     34      -1.5945      2.00000
     35      -1.5945      2.00000
     36      -0.8223      2.74969
     37      -0.3126      0.76425
     38       4.2198      0.00000
     39       4.2483      0.00000
     40       5.7408      0.00000

 k-point   2 :       0.1429    0.0000    0.0000
  band No.  band energies     occupation 
      1      -8.3777      2.00000
      2      -7.7569      2.00000
      3      -6.7930      2.00000
      4      -5.6855      2.00000
      5      -4.8493      2.00000
      6      -4.6268      2.00000
      7      -3.4027      2.00000
      8      -3.2981      2.00000
      9      -3.2194      2.00000
     10      -3.1527      2.00000
     11      -3.0856      2.00000
     12      -2.9984      2.00000
     13      -2.8758      2.00000
     14      -2.8396      2.00000
     15      -2.8169      2.00000
     16      -2.7935      2.00000
     17      -2.7679      2.00000
     18      -2.7146      2.00000
     19      -2.6843      2.00000
     20      -2.6735      2.00000
     21      -2.6563      2.00000
     22      -2.4998      2.00000
     23      -2.4444      2.00000
     24      -2.3395      2.00000
     25      -2.2706      2.00000
     26      -2.2256      2.00000
     27      -2.1354      2.00000
     28      -2.1244      2.00000
     29      -2.0071      2.00000
     30      -2.0025      2.00000
     31      -1.8310      2.00000
     32      -1.6737      2.00000
     33      -1.6450      2.00000
     34      -1.5858      2.00000
     35      -1.0192      2.12417
     36       0.2126      0.32116
     37       1.0348     -0.03750
     38       4.6771      0.00000
     39       4.8294      0.00000
     40       6.2969      0.00000

 k-point   3 :       0.2857    0.0000    0.0000
  band No.  band energies     occupation 
      1      -6.6358      2.00000
      2      -6.1238      2.00000
      3      -5.3914      2.00000
      4      -4.6763      2.00000
      5      -4.1822      2.00000
      6      -4.0110      2.00000
      7      -3.9077      2.00000
      8      -3.6845      2.00000
      9      -3.4669      2.00000
     10      -3.3603      2.00000
     11      -3.2485      2.00000
     12      -3.1681      2.00000
     13      -2.9522      2.00000
     14      -2.8462      2.00000
     15      -2.7891      2.00000
     16      -2.7421      2.00000
     17      -2.6046      2.00000
     18      -2.5942      2.00000
     19      -2.5461      2.00000
     20      -2.5157      2.00000
     21      -2.3721      2.00000
     22      -2.2409      2.00000
     23      -2.1556      2.00000
     24      -2.1456      2.00000
     25      -2.0720      2.00000
     26      -2.0640      2.00000
     27      -1.9551      2.00000
     28      -1.8702      2.00000
     29      -1.8302      2.00000
     30      -1.8025      2.00000
     31      -1.7698      2.00000
     32      -1.6437      2.00000
     33      -1.5655      2.00000
     34      -1.0046      2.15406
     35       0.2687      0.50211
     36       1.9985      0.00000
     37       3.5151      0.00000
     38       6.0211      0.00000
     39       6.6443      0.00000
     40       7.9655      0.00000

 k-point   4 :       0.4286    0.0000    0.0000
  band No.  band energies     occupation 
      1      -5.0268      2.00000
      2      -4.7871      2.00000
      3      -4.7328      2.00000
      4      -4.5185      2.00000
      5      -4.2571      2.00000
      6      -4.1936      2.00000
      7      -4.1160      2.00000
      8      -3.9776      2.00000
      9      -3.7188      2.00000
     10      -3.3580      2.00000
     11      -3.0843      2.00000
     12      -3.0090      2.00000
     13      -2.9134      2.00000
     14      -2.8688      2.00000
     15      -2.6818      2.00000
     16      -2.6799      2.00000
     17      -2.4289      2.00000
     18      -2.3555      2.00000
     19      -2.0807      2.00000
     20      -2.0141      2.00000
     21      -1.8272      2.00000
     22      -1.7577      2.00000
     23      -1.6797      2.00000
     24      -1.6640      2.00000
     25      -1.6385      2.00000
     26      -1.6292      2.00000
     27      -1.6049      2.00000
     28      -1.5435      2.00000
     29      -1.4044      2.00000
     30      -1.4010      2.00000
     31      -1.2034      2.07765
     32      -0.6901      1.94251
     33      -0.2998      1.62294
     34       0.6477      0.08274
     35       1.9565      0.00000
     36       2.9500      0.00000
     37       4.3654      0.00000
     38       5.0169      0.00000
     39       5.6398      0.00000
     40       6.3758      0.00000

 k-point   5 :       0.2857    0.1429    0.0000
  band No.  band energies     occupation 
      1      -7.1689      2.00000
      2      -6.6024      2.00000
      3      -5.7492      2.00000
      4      -4.8298      2.00000
      5      -4.1793      2.00000
      6      -4.0383      2.00000
      7      -3.6401      2.00000
      8      -3.6032      2.00000
      9      -3.4703      2.00000
     10      -3.3743      2.00000
     11      -3.3473      2.00000
     12      -3.2504      2.00000
     13      -3.0444      2.00000
     14      -2.9886      2.00000
     15      -2.9528      2.00000
     16      -2.8568      2.00000
     17      -2.8008      2.00000
     18      -2.6555      2.00000
     19      -2.5580      2.00000
     20      -2.4705      2.00000
     21      -2.4136      2.00000
     22      -2.3622      2.00000
     23      -2.3299      2.00000
     24      -2.2218      2.00000
     25      -2.1963      2.00000
     26      -2.0301      2.00000
     27      -1.9931      2.00000
     28      -1.9723      2.00000
     29      -1.8395      2.00000
     30      -1.8337      2.00000
     31      -1.7595      2.00000
     32      -1.6938      2.00000
     33      -1.6620      2.00000
     34      -1.1442      2.14452
     35      -0.0982      1.18279
     36       1.4907      0.00000
     37       2.7965      0.00000
     38       5.5904      0.00000
     39       6.0500      0.00000
     40       7.4640      0.00000

 k-point   6 :       0.4286    0.1429    0.0000
  band No.  band energies     occupation 
      1      -5.2835      2.00000
      2      -4.9782      2.00000
      3      -4.6318      2.00000
      4      -4.3327      2.00000
      5      -4.0677      2.00000
      6      -3.9895      2.00000
      7      -3.8413      2.00000
      8      -3.6871      2.00000
      9      -3.5601      2.00000
     10      -3.4274      2.00000
     11      -3.3047      2.00000
     12      -3.2168      2.00000
     13      -3.0583      2.00000
     14      -3.0428      2.00000
     15      -2.8559      2.00000
     16      -2.7600      2.00000
     17      -2.6828      2.00000
     18      -2.6024      2.00000
     19      -2.5590      2.00000
     20      -2.4478      2.00000
     21      -2.2757      2.00000
     22      -2.1408      2.00000
     23      -2.1321      2.00000
     24      -1.9953      2.00000
     25      -1.8833      2.00000
     26      -1.8620      2.00000
     27      -1.6599      2.00000
     28      -1.6291      2.00000
     29      -1.5810      2.00000
     30      -1.5370      2.00000
     31      -1.1042      2.01219
     32      -0.9643      1.89782
     33      -0.6066      1.66375
     34       0.3116      0.52979
     35       1.7626     -0.07993
     36       3.5696      0.00000
     37       5.4164      0.00000
     38       6.4072      0.00000
     39       6.9754      0.00000
     40       7.7043      0.00000

 k-point   7 :      -0.4286    0.1429    0.0000
  band No.  band energies     occupation 
      1      -4.6123      2.00000
      2      -4.5099      2.00000
      3      -4.3320      2.00000
      4      -4.3046      2.00000
      5      -4.1530      2.00000
      6      -3.9969      2.00000
      7      -3.9627      2.00000
      8      -3.8665      2.00000
      9      -3.6477      2.00000
     10      -3.4307      2.00000
     11      -3.2707      2.00000
     12      -3.0918      2.00000
     13      -3.0326      2.00000
     14      -2.8902      2.00000
     15      -2.7995      2.00000
     16      -2.7025      2.00000
     17      -2.6423      2.00000
     18      -2.4294      2.00000
     19      -2.2997      2.00000
     20      -2.1253      2.00000
     21      -2.0606      2.00000
     22      -2.0139      2.00000
     23      -1.8446      2.00000
     24      -1.7867      2.00000
     25      -1.7173      2.00000
     26      -1.6625      2.00000
     27      -1.6573      2.00000
     28      -1.6175      2.00000
     29      -1.5484      2.00000
     30      -1.5156      2.00000
     31       0.7174      0.64028
     32       1.1265      0.15889
     33       1.5075     -0.21663
     34       1.8864      0.00000
     35       2.2736      0.00000
     36       2.5535      0.00000
     37       4.1843      0.00000
     38       4.9389      0.00000
     39       5.7298      0.00000
     40       6.4399      0.00000

 k-point   8 :      -0.4286    0.2857    0.0000
  band No.  band energies     occupation 
      1      -4.1480      2.00000
      2      -4.1416      2.00000
      3      -4.0609      2.00000
      4      -3.9787      2.00000
      5      -3.9557      2.00000
      6      -3.8242      2.00000
      7      -3.7702      2.00000
      8      -3.6349      2.00000
      9      -3.6136      2.00000
     10      -3.5214      2.00000
     11      -3.4671      2.00000
     12      -3.2738      2.00000
     13      -3.2219      2.00000
     14      -3.0525      2.00000
     15      -3.0465      2.00000
     16      -2.6946      2.00000
     17      -2.6787      2.00000
     18      -2.6512      2.00000
     19      -2.6487      2.00000
     20      -2.3848      2.00000
     21      -2.3271      2.00000
     22      -2.2190      2.00000
     23      -2.1003      2.00000
     24      -2.0747      2.00000
     25      -1.9091      2.00000
     26      -1.7636      2.00000
     27      -1.6496      2.00000
     28      -1.6334      2.00000
     29      -1.6073      2.00000
     30      -1.5414      2.00000
     31       1.0534      0.12260
     32       1.4529      0.00434
     33       2.1737     -0.12619
     34       3.2140      0.00000
     35       4.4403      0.00000
     36       5.0965      0.00000
     37       5.1784      0.00000
     38       5.5053      0.00000
     39       5.6313      0.00000
     40       6.2998      0.00000


--------------------------------------------------------------------------------------------------------


 soft charge-density along one line, spin component           1
         0         1         2         3         4         5         6         7         8         9
 total charge-density along one line
 
 pseudopotential strength for first ion, spin component:           1
 -9.039   0.000   0.000   0.000   0.000   0.000  -0.005   0.000   0.000   0.000   0.921   0.000   0.000   0.000   0.000   0.000
  0.000   0.000  -8.995   0.000   0.000   0.000   0.000   0.000  -0.005   0.000   0.000   0.000   0.900   0.000   0.000   0.000
  0.000   0.000   0.000   0.000  -8.988   0.000   0.000   0.000   0.000   0.000   0.000   0.000   0.000   0.000   0.896   0.000
 -0.005   0.000   0.000   0.000   0.000   0.000  -8.995   0.000   0.000   0.000   0.002   0.000   0.000   0.000   0.000   0.000
  0.000   0.000  -0.005   0.000   0.000   0.000   0.000   0.000  -9.039   0.000   0.000   0.000   0.002   0.000   0.000   0.000
  0.921   0.000   0.000   0.000   0.000   0.000   0.002   0.000   0.000   0.000   1.150   0.000   0.000   0.000   0.000   0.000
  0.000   0.000   0.900   0.000   0.000   0.000   0.000   0.000   0.002   0.000   0.000   0.000   1.159   0.000   0.000   0.000
  0.000   0.000   0.000   0.000   0.896   0.000   0.000   0.000   0.000   0.000   0.000   0.000   0.000   0.000   1.161   0.000
  0.002   0.000   0.000   0.000   0.000   0.000   0.900   0.000   0.000   0.000  -0.001   0.000   0.000   0.000   0.000   0.000
  0.000   0.000   0.002   0.000   0.000   0.000   0.000   0.000   0.921   0.000   0.000   0.000  -0.001   0.000   0.000   0.000
  0.000   0.000   0.000   0.000  -0.007   0.000   0.000   0.000   0.000   0.000   0.000   0.000   0.000   0.000   0.003   0.000
  0.000   0.000   0.000   0.000   0.000   0.000   0.000   0.000   0.000   0.000   0.000   0.000   0.000   0.000   0.000   0.000
  0.000   0.000  -0.010   0.000   0.000   0.000   0.000   0.000   0.000   0.000   0.000   0.000   0.006   0.000   0.000   0.000
  0.000   0.000   0.000   0.000  -0.010   0.000   0.000   0.000   0.000   0.000   0.000   0.000   0.000   0.000   0.006   0.000
  0.000   0.000   0.000   0.000   0.000   0.000  -0.010   0.000   0.000   0.000   0.000   0.000   0.000   0.000   0.000   0.000
  0.000   0.000   0.005   0.000   0.000   0.000   0.000   0.000   0.000   0.000   0.000   0.000  -0.002   0.000   0.000   0.000
  0.000   0.000   0.000   0.000   0.005   0.000   0.000   0.000   0.000   0.000   0.000   0.000   0.000   0.000  -0.003   0.000
  0.000   0.000   0.000   0.000   0.000   0.000   0.005   0.000   0.000   0.000   0.000   0.000   0.000   0.000   0.000   0.000
 total augmentation occupancy for first ion, spin component:           1
  1.905   0.000   0.000  -0.003   0.000  -0.021   0.000   0.000   0.010   0.000   0.000   0.000   0.000   0.000   0.007   0.000
  0.000   1.915   0.000   0.000  -0.003   0.000  -0.057   0.000   0.000   0.010   0.000   0.000  -0.002   0.000   0.000  -0.004
  0.000   0.000   1.920   0.000   0.000   0.000   0.000  -0.047   0.000   0.000   0.012   0.038   0.000   0.035   0.000   0.000
 -0.003   0.000   0.000   1.915   0.000   0.010   0.000   0.000  -0.057   0.000   0.000   0.000   0.000   0.000  -0.002   0.000
  0.000  -0.003   0.000   0.000   1.905   0.000   0.010   0.000   0.000  -0.021   0.000   0.000   0.007   0.000   0.000  -0.001
 -0.021   0.000   0.000   0.010   0.000   0.064   0.000   0.000   0.001   0.000   0.000   0.000   0.000   0.000   0.005   0.000
  0.000  -0.057   0.000   0.000   0.010   0.000   0.043   0.000   0.000   0.001   0.000   0.000   0.031   0.000   0.000  -0.003
  0.000   0.000  -0.047   0.000   0.000   0.000   0.000   0.061   0.000   0.000  -0.081   0.014   0.000   0.044   0.000   0.000
  0.010   0.000   0.000  -0.057   0.000   0.001   0.000   0.000   0.043   0.000   0.000   0.000   0.000   0.000   0.031   0.000
  0.000   0.010   0.000   0.000  -0.021   0.000   0.001   0.000   0.000   0.064   0.000   0.000   0.005   0.000   0.000   0.000
  0.000   0.000   0.012   0.000   0.000   0.000   0.000  -0.081   0.000   0.000   1.236  -0.287   0.000   0.067   0.000   0.000
  0.000   0.000   0.038   0.000   0.000   0.000   0.000   0.014   0.000   0.000  -0.287   0.112   0.000  -0.046   0.000   0.000
  0.000  -0.002   0.000   0.000   0.007   0.000   0.031   0.000   0.000   0.005   0.000   0.000   0.170   0.000   0.000  -0.011
  0.000   0.000   0.035   0.000   0.000   0.000   0.000   0.044   0.000   0.000   0.067  -0.046   0.000   0.097   0.000   0.000
  0.007   0.000   0.000  -0.002   0.000   0.005   0.000   0.000   0.031   0.000   0.000   0.000   0.000   0.000   0.170   0.000
  0.000  -0.004   0.000   0.000  -0.001   0.000  -0.003   0.000   0.000   0.000   0.000   0.000  -0.011   0.000   0.000   0.001
  0.000   0.000  -0.008   0.000   0.000   0.000   0.000  -0.002   0.000   0.000  -0.013   0.006   0.000  -0.007   0.000   0.000
 -0.001   0.000   0.000  -0.004   0.000   0.000   0.000   0.000  -0.003   0.000   0.000   0.000   0.000   0.000  -0.011   0.000


------------------------ aborting loop because EDIFF is reached ----------------------------------------


    CHARGE:  cpu time    0.10: real time    0.10
    FORLOC:  cpu time    0.01: real time    0.01
    FORNL :  cpu time    0.44: real time    0.44
    STRESS:  cpu time    1.12: real time    1.12
    FORCOR:  cpu time    0.13: real time    0.13
    FORHAR:  cpu time    0.04: real time    0.04
    MIXING:  cpu time    0.02: real time    0.01

  FORCE on cell =-STRESS in cart. coord.  units (eV):
  Direction    XX          YY          ZZ          XY          YZ          ZX
  --------------------------------------------------------------------------------------
  Alpha Z   357.41537   357.41537   357.41537
  Ewald   24198.12544 24198.12544-28582.49268     0.00000     0.00000     0.00000
  Hartree 26498.94354 26498.94354-25260.82493     0.00000     0.00000     0.00000
  E(xc)    -375.35237  -375.35221  -375.89687    -0.00014     0.00000     0.00000
  Local  -51266.68910-51266.69106 53271.94822     0.00170     0.00000     0.00000
  n-local  -226.08230  -216.53144  -222.44633     4.23575    -0.40086     0.13601
  augment   337.90497   337.90657   339.10204    -0.00139     0.00000     0.00001
  Kinetic   486.00713   453.84056   472.55648   -12.58350    -0.86001     0.56871
  Fock        0.00000     0.00000     0.00000     0.00000     0.00000     0.00000
  -------------------------------------------------------------------------------------
  Total      -1.03529    -1.03529    -0.63870     0.00000     0.00000     0.00000
  in kB     -12.88955   -12.88955    -7.95197     0.00000     0.00000     0.00000
  external pressure =      -11.24 kB  Pullay stress =        0.00 kB


 VOLUME and BASIS-vectors are now :
 -----------------------------------------------------------------------------
  energy-cutoff  :      415.00
  volume of cell :      128.69
      direct lattice vectors                 reciprocal lattice vectors
     2.565866355  0.000000000  0.000000000     0.389731912 -0.225011824  0.000000000
     1.282933180  2.222105448  0.000000000     0.000000000  0.450023648  0.000000000
     0.000000000  0.000000000 22.570126644     0.000000000  0.000000000  0.044306353

  length of vectors
     2.565866355  2.565866358 22.570126644     0.450023648  0.450023648  0.044306353


 FORCES acting on ions
    electron-ion (+dipol)            ewald-force                    non-local-force                 convergence-correction
 -----------------------------------------------------------------------------------------------
   -.204E-06 -.723E-07 0.424E+04   0.370E-07 -.349E-07 -.424E+04   -.867E-18 0.000E+00 -.111E+01   -.949E-10 -.543E-10 -.384E-04
   -.204E-06 -.118E-06 -.851E+03   -.578E-13 -.501E-13 0.851E+03   -.813E-19 -.542E-19 0.241E+00   -.158E-09 -.912E-10 -.366E-03
   -.361E-05 -.208E-05 0.255E+04   0.618E-09 0.639E-09 -.255E+04   -.379E-18 -.163E-18 -.626E+00   0.217E-09 0.125E-09 -.225E-02
   -.247E-05 -.143E-05 -.255E+04   0.992E-09 0.291E-09 0.255E+04   0.515E-18 0.271E-18 0.626E+00   -.236E-09 -.136E-09 0.225E-02
   0.502E-05 0.290E-05 0.851E+03   -.806E-09 -.466E-09 -.851E+03   0.136E-18 0.542E-19 -.241E+00   0.169E-09 0.975E-10 0.365E-03
   0.234E-05 0.131E-05 -.424E+04   -.378E-07 0.344E-07 0.424E+04   0.173E-17 0.000E+00 0.111E+01   0.102E-09 0.583E-10 0.357E-04
 -----------------------------------------------------------------------------------------------
   0.871E-06 0.503E-06 0.810E-03   0.331E-13 -.695E-13 -.909E-12   0.106E-17 0.108E-18 0.000E+00   -.427E-12 -.368E-12 -.385E-05
 
 
 POSITION                                       TOTAL-FORCE (eV/Angst)
 -----------------------------------------------------------------------------------
      0.00000      0.00000      0.00000         0.000000      0.000000      0.072060
      0.00000      0.00000      6.28506         0.000000      0.000000     -0.009337
      1.28293      0.74070      2.09502         0.000000      0.000000     -0.072262
      1.28293      0.74070      8.38008         0.000000      0.000000      0.072262
      2.56587      1.48140      4.19004         0.000000      0.000000      0.009337
      2.56587      1.48140     10.47511         0.000000      0.000000     -0.072060
 -----------------------------------------------------------------------------------
    total drift:                                0.000001      0.000001      0.000806


--------------------------------------------------------------------------------------------------------



  FREE ENERGIE OF THE ION-ELECTRON SYSTEM (eV)
  ---------------------------------------------------
  free  energy   TOTEN  =       -21.40709802 eV

  energy  without entropy=      -21.40709802  energy(sigma->0) =      -21.40709802
 


--------------------------------------------------------------------------------------------------------


    POTLOK:  cpu time    0.13: real time    0.13


--------------------------------------------------------------------------------------------------------




--------------------------------------------------------------------------------------------------------


    WAVPRE:  cpu time    0.03: real time    0.03
 FEWALD executed in parallel
    FEWALD:  cpu time    0.00: real time    0.00
    ORTHCH:  cpu time    0.16: real time    0.16
     LOOP+:  cpu time   42.57: real time   43.47


----------------------------------------- Iteration    2(   1)  ---------------------------------------


    POTLOK:  cpu time    0.12: real time    0.12
    SETDIJ:  cpu time    0.01: real time    0.01
     EDDAV:  cpu time    1.60: real time    1.60
 BZINTS: Fermi energy:  0.091339; 66.000000 electrons
         Band energy:-189.618900;  BLOECHL correction: -0.578816
       DOS:  cpu time    0.00: real time    0.00
    CHARGE:  cpu time    0.10: real time    0.10
    MIXING:  cpu time    0.00: real time    0.00
    --------------------------------------------
      LOOP:  cpu time    1.84: real time    1.85

 eigenvalue-minimisations  :   648
 total energy-change (2. order) :-0.5062881E-04  (-0.2593796E-03)
 number of electron      65.9999981 magnetization 
 augmentation part       43.1969944 magnetization 

 Broyden mixing:
  rms(total) = 0.36303E-03    rms(broyden)= 0.36263E-03
  rms(prec ) = 0.38090E-03
  weight for this iteration     100.00

 Free energy of the ion-electron system (eV)
  ---------------------------------------------------
  alpha Z        PSCENC =       357.41536616
  Ewald energy   TEWEN  =     19815.00588962
  -1/2 Hartree   DENC   =    -27738.30945817
  -exchange  EXHF       =         0.00000000
  -V(xc)+E(xc)   XCENC  =       256.11960012
  PAW double counting   =      6562.03933075    -7429.88748144
  entropy T*S    EENTRO =         0.00000000
  eigenvalues    EBANDS =      -189.61889994
  atomic energy  EATOM  =      8345.82850422
  ---------------------------------------------------
  free energy    TOTEN  =       -21.40714868 eV

  energy without entropy =      -21.40714868  energy(sigma->0) =      -21.40714868


--------------------------------------------------------------------------------------------------------




----------------------------------------- Iteration    2(   2)  ---------------------------------------


    POTLOK:  cpu time    0.12: real time    0.12
    SETDIJ:  cpu time    0.01: real time    0.01
     EDDAV:  cpu time    1.69: real time    1.69
 BZINTS: Fermi energy:  0.091420; 66.000000 electrons
         Band energy:-189.613229;  BLOECHL correction: -0.578842
       DOS:  cpu time    0.00: real time    0.00
    CHARGE:  cpu time    0.10: real time    0.10
    MIXING:  cpu time    0.00: real time    0.01
    --------------------------------------------
      LOOP:  cpu time    1.93: real time    1.96

 eigenvalue-minimisations  :   704
 total energy-change (2. order) :-0.1251476E-04  (-0.1010849E-05)
 number of electron      65.9999981 magnetization 
 augmentation part       43.1971025 magnetization 

 Broyden mixing:
  rms(total) = 0.28082E-03    rms(broyden)= 0.28079E-03
  rms(prec ) = 0.30476E-03
  weight for this iteration     100.00

 eigenvalues of (default mixing * dielectric matrix)
  average eigenvalue GAMMA=   0.8713
  0.8713

 Free energy of the ion-electron system (eV)
  ---------------------------------------------------
  alpha Z        PSCENC =       357.41536616
  Ewald energy   TEWEN  =     19815.00588962
  -1/2 Hartree   DENC   =    -27738.31552226
  -exchange  EXHF       =         0.00000000
  -V(xc)+E(xc)   XCENC  =       256.11940135
  PAW double counting   =      6562.05354346    -7429.90111475
  entropy T*S    EENTRO =         0.00000000
  eigenvalues    EBANDS =      -189.61322900
  atomic energy  EATOM  =      8345.82850422
  ---------------------------------------------------
  free energy    TOTEN  =       -21.40716120 eV

  energy without entropy =      -21.40716120  energy(sigma->0) =      -21.40716120


--------------------------------------------------------------------------------------------------------




----------------------------------------- Iteration    2(   3)  ---------------------------------------


    POTLOK:  cpu time    0.11: real time    0.11
    SETDIJ:  cpu time    0.01: real time    0.01
     EDDAV:  cpu time    1.16: real time    1.16
 BZINTS: Fermi energy:  0.091328; 66.000000 electrons
         Band energy:-189.620535;  BLOECHL correction: -0.578810
       DOS:  cpu time    0.00: real time    0.00
    CHARGE:  cpu time    0.10: real time    0.10
    MIXING:  cpu time    0.01: real time    0.01
    --------------------------------------------
      LOOP:  cpu time    1.39: real time    1.47

 eigenvalue-minimisations  :   400
 total energy-change (2. order) : 0.1448776E-04  (-0.2037461E-06)
 number of electron      65.9999981 magnetization 
 augmentation part       43.1970933 magnetization 

 Broyden mixing:
  rms(total) = 0.26616E-03    rms(broyden)= 0.26615E-03
  rms(prec ) = 0.30911E-03
  weight for this iteration     100.00

 eigenvalues of (default mixing * dielectric matrix)
  average eigenvalue GAMMA=   1.3652
  2.3952  0.3353

 Free energy of the ion-electron system (eV)
  ---------------------------------------------------
  alpha Z        PSCENC =       357.41536616
  Ewald energy   TEWEN  =     19815.00588962
  -1/2 Hartree   DENC   =    -27738.30706194
  -exchange  EXHF       =         0.00000000
  -V(xc)+E(xc)   XCENC  =       256.11945887
  PAW double counting   =      6562.06374067    -7429.91250905
  entropy T*S    EENTRO =         0.00000000
  eigenvalues    EBANDS =      -189.62053524
  atomic energy  EATOM  =      8345.82850422
  ---------------------------------------------------
  free energy    TOTEN  =       -21.40714671 eV

  energy without entropy =      -21.40714671  energy(sigma->0) =      -21.40714671


--------------------------------------------------------------------------------------------------------




----------------------------------------- Iteration    2(   4)  ---------------------------------------


    POTLOK:  cpu time    0.12: real time    0.11
    SETDIJ:  cpu time    0.01: real time    0.01
     EDDAV:  cpu time    1.09: real time    1.09
 BZINTS: Fermi energy:  0.091505; 66.000000 electrons
         Band energy:-189.605970;  BLOECHL correction: -0.578828
       DOS:  cpu time    0.00: real time    0.00
    CHARGE:  cpu time    0.11: real time    0.11
    MIXING:  cpu time    0.01: real time    0.01
    --------------------------------------------
      LOOP:  cpu time    1.33: real time    1.36

 eigenvalue-minimisations  :   368
 total energy-change (2. order) :-0.1162795E-04  (-0.6563100E-07)
 number of electron      65.9999981 magnetization 
 augmentation part       43.1969885 magnetization 

 Broyden mixing:
  rms(total) = 0.12419E-03    rms(broyden)= 0.12418E-03
  rms(prec ) = 0.14588E-03
  weight for this iteration     100.00

 eigenvalues of (default mixing * dielectric matrix)
  average eigenvalue GAMMA=   1.1190
  2.5653  0.4355  0.3562

 Free energy of the ion-electron system (eV)
  ---------------------------------------------------
  alpha Z        PSCENC =       357.41536616
  Ewald energy   TEWEN  =     19815.00588962
  -1/2 Hartree   DENC   =    -27738.31923835
  -exchange  EXHF       =         0.00000000
  -V(xc)+E(xc)   XCENC  =       256.11953446
  PAW double counting   =      6562.08562524    -7429.93686965
  entropy T*S    EENTRO =         0.00000000
  eigenvalues    EBANDS =      -189.60597002
  atomic energy  EATOM  =      8345.82850422
  ---------------------------------------------------
  free energy    TOTEN  =       -21.40715834 eV

  energy without entropy =      -21.40715834  energy(sigma->0) =      -21.40715834


--------------------------------------------------------------------------------------------------------




----------------------------------------- Iteration    2(   5)  ---------------------------------------


    POTLOK:  cpu time    0.12: real time    0.12
    SETDIJ:  cpu time    0.02: real time    0.01
     EDDAV:  cpu time    1.10: real time    1.10
 BZINTS: Fermi energy:  0.091436; 66.000000 electrons
         Band energy:-189.611711;  BLOECHL correction: -0.578824
       DOS:  cpu time    0.00: real time    0.00
    CHARGE:  cpu time    0.10: real time    0.10
    MIXING:  cpu time    0.01: real time    0.01
    --------------------------------------------
      LOOP:  cpu time    1.34: real time    1.41

 eigenvalue-minimisations  :   368
 total energy-change (2. order) : 0.3491121E-05  (-0.1722917E-07)
 number of electron      65.9999981 magnetization 
 augmentation part       43.1970255 magnetization 

 Broyden mixing:
  rms(total) = 0.38711E-04    rms(broyden)= 0.38705E-04
  rms(prec ) = 0.48890E-04
  weight for this iteration     100.00

 eigenvalues of (default mixing * dielectric matrix)
  average eigenvalue GAMMA=   1.0304
  2.6206  0.3069  0.6541  0.5398

 Free energy of the ion-electron system (eV)
  ---------------------------------------------------
  alpha Z        PSCENC =       357.41536616
  Ewald energy   TEWEN  =     19815.00588962
  -1/2 Hartree   DENC   =    -27738.31400839
  -exchange  EXHF       =         0.00000000
  -V(xc)+E(xc)   XCENC  =       256.11945780
  PAW double counting   =      6562.08483587    -7429.93548868
  entropy T*S    EENTRO =         0.00000000
  eigenvalues    EBANDS =      -189.61171144
  atomic energy  EATOM  =      8345.82850422
  ---------------------------------------------------
  free energy    TOTEN  =       -21.40715485 eV

  energy without entropy =      -21.40715485  energy(sigma->0) =      -21.40715485


--------------------------------------------------------------------------------------------------------




----------------------------------------- Iteration    2(   6)  ---------------------------------------


    POTLOK:  cpu time    0.10: real time    0.10
    SETDIJ:  cpu time    0.01: real time    0.01
     EDDAV:  cpu time    1.05: real time    1.05
 BZINTS: Fermi energy:  0.091437; 66.000000 electrons
         Band energy:-189.612135;  BLOECHL correction: -0.578829
       DOS:  cpu time    0.00: real time    0.00
    CHARGE:  cpu time    0.11: real time    0.11
    MIXING:  cpu time    0.00: real time    0.01
    --------------------------------------------
      LOOP:  cpu time    1.28: real time    1.31

 eigenvalue-minimisations  :   352
 total energy-change (2. order) :-0.1403170E-05  (-0.6728749E-08)
 number of electron      65.9999981 magnetization 
 augmentation part       43.1970729 magnetization 

 Broyden mixing:
  rms(total) = 0.28719E-04    rms(broyden)= 0.28717E-04
  rms(prec ) = 0.30382E-04
  weight for this iteration     100.00

 eigenvalues of (default mixing * dielectric matrix)
  average eigenvalue GAMMA=   0.9537
  2.5609  0.7681  0.7681  0.3778  0.2936

 Free energy of the ion-electron system (eV)
  ---------------------------------------------------
  alpha Z        PSCENC =       357.41536616
  Ewald energy   TEWEN  =     19815.00588962
  -1/2 Hartree   DENC   =    -27738.31422738
  -exchange  EXHF       =         0.00000000
  -V(xc)+E(xc)   XCENC  =       256.11939065
  PAW double counting   =      6562.08306314    -7429.93300756
  entropy T*S    EENTRO =         0.00000000
  eigenvalues    EBANDS =      -189.61213510
  atomic energy  EATOM  =      8345.82850422
  ---------------------------------------------------
  free energy    TOTEN  =       -21.40715625 eV

  energy without entropy =      -21.40715625  energy(sigma->0) =      -21.40715625


--------------------------------------------------------------------------------------------------------




----------------------------------------- Iteration    2(   7)  ---------------------------------------


    POTLOK:  cpu time    0.13: real time    0.13
    SETDIJ:  cpu time    0.02: real time    0.02
     EDDAV:  cpu time    1.08: real time    1.09
 BZINTS: Fermi energy:  0.091448; 66.000000 electrons
         Band energy:-189.611166;  BLOECHL correction: -0.578829
       DOS:  cpu time    0.00: real time    0.00
    --------------------------------------------
      LOOP:  cpu time    1.24: real time    1.30

 eigenvalue-minimisations  :   376
 total energy-change (2. order) :-0.5880902E-06  (-0.3233253E-08)
 number of electron      65.9999981 magnetization 
 augmentation part       43.1970729 magnetization 

 Free energy of the ion-electron system (eV)
  ---------------------------------------------------
  alpha Z        PSCENC =       357.41536616
  Ewald energy   TEWEN  =     19815.00588962
  -1/2 Hartree   DENC   =    -27738.31509138
  -exchange  EXHF       =         0.00000000
  -V(xc)+E(xc)   XCENC  =       256.11940217
  PAW double counting   =      6562.08307533    -7429.93313721
  entropy T*S    EENTRO =         0.00000000
  eigenvalues    EBANDS =      -189.61116575
  atomic energy  EATOM  =      8345.82850422
  ---------------------------------------------------
  free energy    TOTEN  =       -21.40715684 eV

  energy without entropy =      -21.40715684  energy(sigma->0) =      -21.40715684


--------------------------------------------------------------------------------------------------------




 average (electrostatic) potential at core
  the test charge radii are     1.0053
  (the norm of the test charge is              1.0000)
       1 -43.4126       2 -43.6687       3 -43.6666       4 -43.6666       5 -43.6686
       6 -43.4124
 
 
 
 E-fermi :   0.0914     XC(G=0):  -7.8830     alpha+bet : -5.3032


 k-point   1 :       0.0000    0.0000    0.0000
  band No.  band energies     occupation 
      1      -9.0199      2.00000
      2      -8.3836      2.00000
      3      -7.3900      2.00000
      4      -6.2328      2.00000
      5      -5.3240      2.00000
      6      -5.0237      2.00000
      7      -3.1337      2.00000
      8      -3.1133      2.00000
      9      -2.9814      2.00000
     10      -2.9814      2.00000
     11      -2.9674      2.00000
     12      -2.9419      2.00000
     13      -2.9419      2.00000
     14      -2.8949      2.00000
     15      -2.8949      2.00000
     16      -2.8567      2.00000
     17      -2.8567      2.00000
     18      -2.8460      2.00000
     19      -2.6488      2.00000
     20      -2.6488      2.00000
     21      -2.6334      2.00000
     22      -2.6334      2.00000
     23      -2.3088      2.00000
     24      -2.1786      2.00000
     25      -2.1786      2.00000
     26      -2.1414      2.00000
     27      -2.1414      2.00000
     28      -2.0233      2.00000
     29      -2.0233      2.00000
     30      -1.8316      2.00000
     31      -1.8316      2.00000
     32      -1.6452      2.00000
     33      -1.6452      2.00000
     34      -1.5946      2.00000
     35      -1.5946      2.00000
     36      -0.8220      2.74929
     37      -0.3122      0.76359
     38       4.2308      0.00000
     39       4.2481      0.00000
     40       5.7400      0.00000

 k-point   2 :       0.1429    0.0000    0.0000
  band No.  band energies     occupation 
      1      -8.3774      2.00000
      2      -7.7574      2.00000
      3      -6.7939      2.00000
      4      -5.6854      2.00000
      5      -4.8494      2.00000
      6      -4.6267      2.00000
      7      -3.4028      2.00000
      8      -3.2980      2.00000
      9      -3.2194      2.00000
     10      -3.1527      2.00000
     11      -3.0859      2.00000
     12      -2.9985      2.00000
     13      -2.8760      2.00000
     14      -2.8397      2.00000
     15      -2.8167      2.00000
     16      -2.7934      2.00000
     17      -2.7677      2.00000
     18      -2.7148      2.00000
     19      -2.6844      2.00000
     20      -2.6735      2.00000
     21      -2.6565      2.00000
     22      -2.5004      2.00000
     23      -2.4450      2.00000
     24      -2.3395      2.00000
     25      -2.2706      2.00000
     26      -2.2259      2.00000
     27      -2.1355      2.00000
     28      -2.1245      2.00000
     29      -2.0074      2.00000
     30      -2.0024      2.00000
     31      -1.8312      2.00000
     32      -1.6739      2.00000
     33      -1.6451      2.00000
     34      -1.5858      2.00000
     35      -1.0191      2.12433
     36       0.2129      0.32085
     37       1.0351     -0.03750
     38       4.6770      0.00000
     39       4.8402      0.00000
     40       6.2961      0.00000

 k-point   3 :       0.2857    0.0000    0.0000
  band No.  band energies     occupation 
      1      -6.6356      2.00000
      2      -6.1242      2.00000
      3      -5.3922      2.00000
      4      -4.6764      2.00000
      5      -4.1823      2.00000
      6      -4.0110      2.00000
      7      -3.9076      2.00000
      8      -3.6848      2.00000
      9      -3.4672      2.00000
     10      -3.3605      2.00000
     11      -3.2485      2.00000
     12      -3.1683      2.00000
     13      -2.9523      2.00000
     14      -2.8463      2.00000
     15      -2.7889      2.00000
     16      -2.7422      2.00000
     17      -2.6048      2.00000
     18      -2.5944      2.00000
     19      -2.5464      2.00000
     20      -2.5158      2.00000
     21      -2.3726      2.00000
     22      -2.2411      2.00000
     23      -2.1556      2.00000
     24      -2.1458      2.00000
     25      -2.0719      2.00000
     26      -2.0640      2.00000
     27      -1.9553      2.00000
     28      -1.8705      2.00000
     29      -1.8305      2.00000
     30      -1.8026      2.00000
     31      -1.7696      2.00000
     32      -1.6437      2.00000
     33      -1.5654      2.00000
     34      -1.0043      2.15395
     35       0.2691      0.50156
     36       1.9988      0.00000
     37       3.5155      0.00000
     38       6.0212      0.00000
     39       6.6537      0.00000
     40       7.9653      0.00000

 k-point   4 :       0.4286    0.0000    0.0000
  band No.  band energies     occupation 
      1      -5.0266      2.00000
      2      -4.7870      2.00000
      3      -4.7330      2.00000
      4      -4.5189      2.00000
      5      -4.2571      2.00000
      6      -4.1941      2.00000
      7      -4.1163      2.00000
      8      -3.9781      2.00000
      9      -3.7195      2.00000
     10      -3.3582      2.00000
     11      -3.0843      2.00000
     12      -3.0090      2.00000
     13      -2.9133      2.00000
     14      -2.8689      2.00000
     15      -2.6821      2.00000
     16      -2.6798      2.00000
     17      -2.4292      2.00000
     18      -2.3562      2.00000
     19      -2.0808      2.00000
     20      -2.0142      2.00000
     21      -1.8275      2.00000
     22      -1.7578      2.00000
     23      -1.6795      2.00000
     24      -1.6641      2.00000
     25      -1.6384      2.00000
     26      -1.6292      2.00000
     27      -1.6050      2.00000
     28      -1.5435      2.00000
     29      -1.4048      2.00000
     30      -1.4013      2.00000
     31      -1.2034      2.07765
     32      -0.6902      1.94262
     33      -0.3000      1.62335
     34       0.6480      0.08264
     35       1.9569      0.00000
     36       2.9502      0.00000
     37       4.3654      0.00000
     38       5.0170      0.00000
     39       5.6399      0.00000
     40       6.3757      0.00000

 k-point   5 :       0.2857    0.1429    0.0000
  band No.  band energies     occupation 
      1      -7.1686      2.00000
      2      -6.6028      2.00000
      3      -5.7501      2.00000
      4      -4.8298      2.00000
      5      -4.1793      2.00000
      6      -4.0382      2.00000
      7      -3.6399      2.00000
      8      -3.6035      2.00000
      9      -3.4706      2.00000
     10      -3.3743      2.00000
     11      -3.3473      2.00000
     12      -3.2506      2.00000
     13      -3.0448      2.00000
     14      -2.9890      2.00000
     15      -2.9530      2.00000
     16      -2.8569      2.00000
     17      -2.8007      2.00000
     18      -2.6555      2.00000
     19      -2.5581      2.00000
     20      -2.4708      2.00000
     21      -2.4138      2.00000
     22      -2.3620      2.00000
     23      -2.3302      2.00000
     24      -2.2218      2.00000
     25      -2.1963      2.00000
     26      -2.0302      2.00000
     27      -1.9934      2.00000
     28      -1.9724      2.00000
     29      -1.8397      2.00000
     30      -1.8339      2.00000
     31      -1.7596      2.00000
     32      -1.6937      2.00000
     33      -1.6620      2.00000
     34      -1.1441      2.14449
     35      -0.0979      1.18229
     36       1.4911      0.00000
     37       2.7968      0.00000
     38       5.5904      0.00000
     39       6.0601      0.00000
     40       7.4632      0.00000

 k-point   6 :       0.4286    0.1429    0.0000
  band No.  band energies     occupation 
      1      -5.2832      2.00000
      2      -4.9784      2.00000
      3      -4.6324      2.00000
      4      -4.3330      2.00000
      5      -4.0679      2.00000
      6      -3.9894      2.00000
      7      -3.8414      2.00000
      8      -3.6874      2.00000
      9      -3.5606      2.00000
     10      -3.4280      2.00000
     11      -3.3049      2.00000
     12      -3.2167      2.00000
     13      -3.0582      2.00000
     14      -3.0430      2.00000
     15      -2.8561      2.00000
     16      -2.7600      2.00000
     17      -2.6831      2.00000
     18      -2.6029      2.00000
     19      -2.5593      2.00000
     20      -2.4480      2.00000
     21      -2.2760      2.00000
     22      -2.1409      2.00000
     23      -2.1320      2.00000
     24      -1.9954      2.00000
     25      -1.8832      2.00000
     26      -1.8620      2.00000
     27      -1.6598      2.00000
     28      -1.6291      2.00000
     29      -1.5811      2.00000
     30      -1.5371      2.00000
     31      -1.1042      2.01219
     32      -0.9644      1.89794
     33      -0.6069      1.66399
     34       0.3119      0.52953
     35       1.7631     -0.07983
     36       3.5699      0.00000
     37       5.4167      0.00000
     38       6.4075      0.00000
     39       6.9752      0.00000
     40       7.7041      0.00000

 k-point   7 :      -0.4286    0.1429    0.0000
  band No.  band energies     occupation 
      1      -4.6121      2.00000
      2      -4.5097      2.00000
      3      -4.3323      2.00000
      4      -4.3048      2.00000
      5      -4.1528      2.00000
      6      -3.9972      2.00000
      7      -3.9635      2.00000
      8      -3.8672      2.00000
      9      -3.6484      2.00000
     10      -3.4309      2.00000
     11      -3.2705      2.00000
     12      -3.0918      2.00000
     13      -3.0329      2.00000
     14      -2.8903      2.00000
     15      -2.7995      2.00000
     16      -2.7025      2.00000
     17      -2.6428      2.00000
     18      -2.4295      2.00000
     19      -2.3002      2.00000
     20      -2.1257      2.00000
     21      -2.0609      2.00000
     22      -2.0138      2.00000
     23      -1.8447      2.00000
     24      -1.7867      2.00000
     25      -1.7172      2.00000
     26      -1.6625      2.00000
     27      -1.6573      2.00000
     28      -1.6175      2.00000
     29      -1.5484      2.00000
     30      -1.5156      2.00000
     31       0.7176      0.64028
     32       1.1265      0.15913
     33       1.5073     -0.21634
     34       1.8863      0.00000
     35       2.2735      0.00000
     36       2.5534      0.00000
     37       4.1844      0.00000
     38       4.9393      0.00000
     39       5.7302      0.00000
     40       6.4399      0.00000

 k-point   8 :      -0.4286    0.2857    0.0000
  band No.  band energies     occupation 
      1      -4.1477      2.00000
      2      -4.1413      2.00000
      3      -4.0607      2.00000
      4      -3.9790      2.00000
      5      -3.9564      2.00000
      6      -3.8241      2.00000
      7      -3.7705      2.00000
      8      -3.6355      2.00000
      9      -3.6140      2.00000
     10      -3.5216      2.00000
     11      -3.4679      2.00000
     12      -3.2738      2.00000
     13      -3.2224      2.00000
     14      -3.0525      2.00000
     15      -3.0466      2.00000
     16      -2.6950      2.00000
     17      -2.6791      2.00000
     18      -2.6516      2.00000
     19      -2.6491      2.00000
     20      -2.3848      2.00000
     21      -2.3273      2.00000
     22      -2.2190      2.00000
     23      -2.1001      2.00000
     24      -2.0747      2.00000
     25      -1.9090      2.00000
     26      -1.7636      2.00000
     27      -1.6496      2.00000
     28      -1.6334      2.00000
     29      -1.6073      2.00000
     30      -1.5415      2.00000
     31       1.0535      0.12260
     32       1.4527      0.00444
     33       2.1734     -0.12613
     34       3.2143      0.00000
     35       4.4406      0.00000
     36       5.0967      0.00000
     37       5.1787      0.00000
     38       5.5052      0.00000
     39       5.6311      0.00000
     40       6.2997      0.00000


--------------------------------------------------------------------------------------------------------


 soft charge-density along one line, spin component           1
         0         1         2         3         4         5         6         7         8         9
 total charge-density along one line
 
 pseudopotential strength for first ion, spin component:           1
 -9.039   0.000   0.000   0.000   0.000   0.000  -0.005   0.000   0.000   0.000   0.921   0.000   0.000   0.000   0.000   0.000
  0.000   0.000  -8.995   0.000   0.000   0.000   0.000   0.000  -0.005   0.000   0.000   0.000   0.900   0.000   0.000   0.000
  0.000   0.000   0.000   0.000  -8.989   0.000   0.000   0.000   0.000   0.000   0.000   0.000   0.000   0.000   0.897   0.000
 -0.005   0.000   0.000   0.000   0.000   0.000  -8.995   0.000   0.000   0.000   0.002   0.000   0.000   0.000   0.000   0.000
  0.000   0.000  -0.005   0.000   0.000   0.000   0.000   0.000  -9.039   0.000   0.000   0.000   0.002   0.000   0.000   0.000
  0.921   0.000   0.000   0.000   0.000   0.000   0.002   0.000   0.000   0.000   1.150   0.000   0.000   0.000   0.000   0.000
  0.000   0.000   0.900   0.000   0.000   0.000   0.000   0.000   0.002   0.000   0.000   0.000   1.159   0.000   0.000   0.000
  0.000   0.000   0.000   0.000   0.897   0.000   0.000   0.000   0.000   0.000   0.000   0.000   0.000   0.000   1.161   0.000
  0.002   0.000   0.000   0.000   0.000   0.000   0.900   0.000   0.000   0.000  -0.001   0.000   0.000   0.000   0.000   0.000
  0.000   0.000   0.002   0.000   0.000   0.000   0.000   0.000   0.921   0.000   0.000   0.000  -0.001   0.000   0.000   0.000
  0.000   0.000   0.000   0.000  -0.007   0.000   0.000   0.000   0.000   0.000   0.000   0.000   0.000   0.000   0.003   0.000
  0.000   0.000   0.000   0.000   0.000   0.000   0.000   0.000   0.000   0.000   0.000   0.000   0.000   0.000   0.000   0.000
  0.000   0.000  -0.010   0.000   0.000   0.000   0.000   0.000   0.000   0.000   0.000   0.000   0.006   0.000   0.000   0.000
  0.000   0.000   0.000   0.000  -0.010   0.000   0.000   0.000   0.000   0.000   0.000   0.000   0.000   0.000   0.006   0.000
  0.000   0.000   0.000   0.000   0.000   0.000  -0.010   0.000   0.000   0.000   0.000   0.000   0.000   0.000   0.000   0.000
  0.000   0.000   0.005   0.000   0.000   0.000   0.000   0.000   0.000   0.000   0.000   0.000  -0.002   0.000   0.000   0.000
  0.000   0.000   0.000   0.000   0.005   0.000   0.000   0.000   0.000   0.000   0.000   0.000   0.000   0.000  -0.003   0.000
  0.000   0.000   0.000   0.000   0.000   0.000   0.005   0.000   0.000   0.000   0.000   0.000   0.000   0.000   0.000   0.000
 total augmentation occupancy for first ion, spin component:           1
  1.905   0.000   0.000  -0.003   0.000  -0.021   0.000   0.000   0.010   0.000   0.000   0.000   0.000   0.000   0.007   0.000
  0.000   1.915   0.000   0.000  -0.003   0.000  -0.057   0.000   0.000   0.010   0.000   0.000  -0.002   0.000   0.000  -0.004
  0.000   0.000   1.920   0.000   0.000   0.000   0.000  -0.047   0.000   0.000   0.012   0.038   0.000   0.035   0.000   0.000
 -0.003   0.000   0.000   1.915   0.000   0.010   0.000   0.000  -0.057   0.000   0.000   0.000   0.000   0.000  -0.002   0.000
  0.000  -0.003   0.000   0.000   1.905   0.000   0.010   0.000   0.000  -0.021   0.000   0.000   0.007   0.000   0.000  -0.001
 -0.021   0.000   0.000   0.010   0.000   0.064   0.000   0.000   0.001   0.000   0.000   0.000   0.000   0.000   0.005   0.000
  0.000  -0.057   0.000   0.000   0.010   0.000   0.044   0.000   0.000   0.001   0.000   0.000   0.031   0.000   0.000  -0.003
  0.000   0.000  -0.047   0.000   0.000   0.000   0.000   0.061   0.000   0.000  -0.081   0.014   0.000   0.044   0.000   0.000
  0.010   0.000   0.000  -0.057   0.000   0.001   0.000   0.000   0.044   0.000   0.000   0.000   0.000   0.000   0.031   0.000
  0.000   0.010   0.000   0.000  -0.021   0.000   0.001   0.000   0.000   0.064   0.000   0.000   0.005   0.000   0.000   0.000
  0.000   0.000   0.012   0.000   0.000   0.000   0.000  -0.081   0.000   0.000   1.236  -0.287   0.000   0.067   0.000   0.000
  0.000   0.000   0.038   0.000   0.000   0.000   0.000   0.014   0.000   0.000  -0.287   0.112   0.000  -0.046   0.000   0.000
  0.000  -0.002   0.000   0.000   0.007   0.000   0.031   0.000   0.000   0.005   0.000   0.000   0.170   0.000   0.000  -0.011
  0.000   0.000   0.035   0.000   0.000   0.000   0.000   0.044   0.000   0.000   0.067  -0.046   0.000   0.097   0.000   0.000
  0.007   0.000   0.000  -0.002   0.000   0.005   0.000   0.000   0.031   0.000   0.000   0.000   0.000   0.000   0.170   0.000
  0.000  -0.004   0.000   0.000  -0.001   0.000  -0.003   0.000   0.000   0.000   0.000   0.000  -0.011   0.000   0.000   0.001
  0.000   0.000  -0.008   0.000   0.000   0.000   0.000  -0.002   0.000   0.000  -0.013   0.006   0.000  -0.007   0.000   0.000
 -0.001   0.000   0.000  -0.004   0.000   0.000   0.000   0.000  -0.003   0.000   0.000   0.000   0.000   0.000  -0.011   0.000


------------------------ aborting loop because EDIFF is reached ----------------------------------------


    CHARGE:  cpu time    0.11: real time    0.11
    FORLOC:  cpu time    0.01: real time    0.01
    FORNL :  cpu time    0.40: real time    0.41
    STRESS:  cpu time    1.12: real time    1.11
    FORCOR:  cpu time    0.13: real time    0.13
    FORHAR:  cpu time    0.04: real time    0.04
    MIXING:  cpu time    0.01: real time    0.01

  FORCE on cell =-STRESS in cart. coord.  units (eV):
  Direction    XX          YY          ZZ          XY          YZ          ZX
  --------------------------------------------------------------------------------------
  Alpha Z   357.41537   357.41537   357.41537
  Ewald   24199.40037 24199.40037-28583.79815     0.00000     0.00000     0.00000
  Hartree 26500.20552 26500.20551-25262.09700     0.00000     0.00000     0.00000
  E(xc)    -375.35272  -375.35256  -375.89708    -0.00014     0.00000     0.00000
  Local  -51269.22303-51269.22500 53274.53666     0.00170     0.00000     0.00000
  n-local  -226.05786  -216.50963  -222.42290     4.23510    -0.40107     0.13600
  augment   337.90888   337.91049   339.10295    -0.00139     0.00001     0.00001
  Kinetic   486.00896   453.84233   472.55526   -12.58376    -0.86014     0.56866
  Fock        0.00000     0.00000     0.00000     0.00000     0.00000     0.00000
  -------------------------------------------------------------------------------------
  Total      -1.00382    -1.00382    -0.60490     0.00000     0.00000     0.00000
  in kB     -12.49775   -12.49775    -7.53120     0.00000     0.00000     0.00000
  external pressure =      -10.84 kB  Pullay stress =        0.00 kB


 VOLUME and BASIS-vectors are now :
 -----------------------------------------------------------------------------
  energy-cutoff  :      415.00
  volume of cell :      128.69
      direct lattice vectors                 reciprocal lattice vectors
     2.565866355  0.000000000  0.000000000     0.389731912 -0.225011824  0.000000000
     1.282933180  2.222105448  0.000000000     0.000000000  0.450023648  0.000000000
     0.000000000  0.000000000 22.570126644     0.000000000  0.000000000  0.044306353

  length of vectors
     2.565866355  2.565866358 22.570126644     0.450023648  0.450023648  0.044306353


 FORCES acting on ions
    electron-ion (+dipol)            ewald-force                    non-local-force                 convergence-correction
 -----------------------------------------------------------------------------------------------
   -.202E-06 -.710E-07 0.424E+04   0.371E-07 -.350E-07 -.424E+04   0.000E+00 -.173E-17 -.111E+01   -.403E-09 -.233E-09 -.770E-03
   -.204E-06 -.118E-06 -.851E+03   -.435E-10 0.410E-10 0.851E+03   0.217E-18 0.542E-19 0.241E+00   -.103E-10 -.610E-11 -.590E-03
   -.365E-05 -.211E-05 0.255E+04   0.521E-09 0.730E-09 -.255E+04   -.217E-18 0.000E+00 -.627E+00   0.212E-09 0.122E-09 0.136E-02
   -.249E-05 -.144E-05 -.255E+04   0.109E-08 0.200E-09 0.255E+04   0.108E-18 0.542E-19 0.627E+00   -.227E-09 -.131E-09 -.136E-02
   0.502E-05 0.290E-05 0.851E+03   -.762E-09 -.506E-09 -.851E+03   -.163E-18 -.542E-19 -.241E+00   0.805E-11 0.493E-11 0.590E-03
   0.235E-05 0.131E-05 -.424E+04   -.379E-07 0.345E-07 0.424E+04   0.173E-17 0.173E-17 0.111E+01   0.407E-09 0.235E-09 0.767E-03
 -----------------------------------------------------------------------------------------------
   0.821E-06 0.474E-06 0.829E-03   0.331E-13 -.695E-13 0.909E-12   0.168E-17 0.542E-19 0.000E+00   -.131E-10 -.720E-11 -.589E-05
 
 
 POSITION                                       TOTAL-FORCE (eV/Angst)
 -----------------------------------------------------------------------------------
      0.00000      0.00000      0.00035         0.000000      0.000000      0.069749
      0.00000      0.00000      6.28502         0.000000      0.000000     -0.007650
      1.28293      0.74070      2.09467         0.000000      0.000000     -0.068467
      1.28293      0.74070      8.38043         0.000000      0.000000      0.068467
      2.56587      1.48140      4.19009         0.000000      0.000000      0.007650
      2.56587      1.48140     10.47476         0.000000      0.000000     -0.069749
 -----------------------------------------------------------------------------------
    total drift:                                0.000001      0.000000      0.000824


--------------------------------------------------------------------------------------------------------



  FREE ENERGIE OF THE ION-ELECTRON SYSTEM (eV)
  ---------------------------------------------------
  free  energy   TOTEN  =       -21.40715684 eV

  energy  without entropy=      -21.40715684  energy(sigma->0) =      -21.40715684
 
 d Force = 0.9912283E-04[ 0.969E-04, 0.101E-03]  d Energy = 0.5882008E-04 0.403E-04
 d Force =-0.1244399E+01[-0.124E+01,-0.124E+01]  d Ewald  =-0.1244399E+01 0.546E-08


--------------------------------------------------------------------------------------------------------


    POTLOK:  cpu time    0.12: real time    0.12


--------------------------------------------------------------------------------------------------------


 Steepest descent step on ions:
 trial-energy change:   -0.000059  1 .order   -0.000099   -0.000101   -0.000097
  (g-gl).g = 0.101E-03      g.g   = 0.101E-03  gl.gl    = 0.000E+00
 g(Force)  = 0.101E-03   g(Stress)= 0.000E+00 ortho     = 0.000E+00
 gamma     =   0.00000
 trial     =   1.00000
 opt step  =   4.00000  (harmonic =  23.00181) maximal distance =0.00139445
 next E    =   -21.408263   (d E  =  -0.00117)


--------------------------------------------------------------------------------------------------------


    WAVPRE:  cpu time    0.03: real time    0.03
 FEWALD executed in parallel
    FEWALD:  cpu time    0.00: real time    0.00
    ORTHCH:  cpu time    0.14: real time    0.14
     LOOP+:  cpu time   12.49: real time   12.87


----------------------------------------- Iteration    3(   1)  ---------------------------------------


    POTLOK:  cpu time    0.11: real time    0.11
    SETDIJ:  cpu time    0.02: real time    0.01
     EDDAV:  cpu time    1.56: real time    1.56
 BZINTS: Fermi energy:  0.091671; 66.000000 electrons
         Band energy:-189.636625;  BLOECHL correction: -0.578702
       DOS:  cpu time    0.00: real time    0.00
    CHARGE:  cpu time    0.10: real time    0.10
    MIXING:  cpu time    0.00: real time    0.00
    --------------------------------------------
      LOOP:  cpu time    1.80: real time    1.81

 eigenvalue-minimisations  :   640
 total energy-change (2. order) :-0.1208795E-03  (-0.2333773E-02)
 number of electron      65.9999984 magnetization 
 augmentation part       43.1966779 magnetization 

 Broyden mixing:
  rms(total) = 0.10840E-02    rms(broyden)= 0.10827E-02
  rms(prec ) = 0.11371E-02
  weight for this iteration     100.00

 Free energy of the ion-electron system (eV)
  ---------------------------------------------------
  alpha Z        PSCENC =       357.41536616
  Ewald energy   TEWEN  =     19818.74175762
  -1/2 Hartree   DENC   =    -27742.02852412
  -exchange  EXHF       =         0.00000000
  -V(xc)+E(xc)   XCENC  =       256.12230179
  PAW double counting   =      6562.08273873    -7429.93279614
  entropy T*S    EENTRO =         0.00000000
  eigenvalues    EBANDS =      -189.63662540
  atomic energy  EATOM  =      8345.82850422
  ---------------------------------------------------
  free energy    TOTEN  =       -21.40727713 eV

  energy without entropy =      -21.40727713  energy(sigma->0) =      -21.40727713


--------------------------------------------------------------------------------------------------------




----------------------------------------- Iteration    3(   2)  ---------------------------------------


    POTLOK:  cpu time    0.12: real time    0.12
    SETDIJ:  cpu time    0.01: real time    0.01
     EDDAV:  cpu time    1.68: real time    1.68
 BZINTS: Fermi energy:  0.091885; 66.000000 electrons
         Band energy:-189.621823;  BLOECHL correction: -0.578778
       DOS:  cpu time    0.00: real time    0.00
    CHARGE:  cpu time    0.11: real time    0.11
    MIXING:  cpu time    0.01: real time    0.01
    --------------------------------------------
      LOOP:  cpu time    1.93: real time    1.96

 eigenvalue-minimisations  :   696
 total energy-change (2. order) :-0.4067432E-04  (-0.8967162E-05)
 number of electron      65.9999984 magnetization 
 augmentation part       43.1969381 magnetization 

 Broyden mixing:
  rms(total) = 0.85216E-03    rms(broyden)= 0.85205E-03
  rms(prec ) = 0.91963E-03
  weight for this iteration     100.00

 eigenvalues of (default mixing * dielectric matrix)
  average eigenvalue GAMMA=   0.8386
  0.8386

 Free energy of the ion-electron system (eV)
  ---------------------------------------------------
  alpha Z        PSCENC =       357.41536616
  Ewald energy   TEWEN  =     19818.74175762
  -1/2 Hartree   DENC   =    -27742.04443460
  -exchange  EXHF       =         0.00000000
  -V(xc)+E(xc)   XCENC  =       256.12166792
  PAW double counting   =      6562.12954613    -7429.97790227
  entropy T*S    EENTRO =         0.00000000
  eigenvalues    EBANDS =      -189.62182298
  atomic energy  EATOM  =      8345.82850422
  ---------------------------------------------------
  free energy    TOTEN  =       -21.40731780 eV

  energy without entropy =      -21.40731780  energy(sigma->0) =      -21.40731780


--------------------------------------------------------------------------------------------------------




----------------------------------------- Iteration    3(   3)  ---------------------------------------


    POTLOK:  cpu time    0.10: real time    0.11
    SETDIJ:  cpu time    0.01: real time    0.01
     EDDAV:  cpu time    1.68: real time    1.68
 BZINTS: Fermi energy:  0.091613; 66.000000 electrons
         Band energy:-189.644285;  BLOECHL correction: -0.578690
       DOS:  cpu time    0.00: real time    0.00
    CHARGE:  cpu time    0.09: real time    0.09
    MIXING:  cpu time    0.00: real time    0.01
    --------------------------------------------
      LOOP:  cpu time    1.90: real time    1.97

 eigenvalue-minimisations  :   680
 total energy-change (2. order) : 0.4100534E-04  (-0.1873127E-05)
 number of electron      65.9999984 magnetization 
 augmentation part       43.1969542 magnetization 

 Broyden mixing:
  rms(total) = 0.77777E-03    rms(broyden)= 0.77774E-03
  rms(prec ) = 0.89495E-03
  weight for this iteration     100.00

 eigenvalues of (default mixing * dielectric matrix)
  average eigenvalue GAMMA=   1.3851
  2.4305  0.3396

 Free energy of the ion-electron system (eV)
  ---------------------------------------------------
  alpha Z        PSCENC =       357.41536616
  Ewald energy   TEWEN  =     19818.74175762
  -1/2 Hartree   DENC   =    -27742.01952364
  -exchange  EXHF       =         0.00000000
  -V(xc)+E(xc)   XCENC  =       256.12175026
  PAW double counting   =      6562.16013883    -7430.01098572
  entropy T*S    EENTRO =         0.00000000
  eigenvalues    EBANDS =      -189.64428453
  atomic energy  EATOM  =      8345.82850422
  ---------------------------------------------------
  free energy    TOTEN  =       -21.40727680 eV

  energy without entropy =      -21.40727680  energy(sigma->0) =      -21.40727680


--------------------------------------------------------------------------------------------------------




----------------------------------------- Iteration    3(   4)  ---------------------------------------


    POTLOK:  cpu time    0.12: real time    0.12
    SETDIJ:  cpu time    0.01: real time    0.01
     EDDAV:  cpu time    1.38: real time    1.38
 BZINTS: Fermi energy:  0.092116; 66.000000 electrons
         Band energy:-189.603680;  BLOECHL correction: -0.578746
       DOS:  cpu time    0.00: real time    0.00
    CHARGE:  cpu time    0.10: real time    0.10
    MIXING:  cpu time    0.01: real time    0.01
    --------------------------------------------
      LOOP:  cpu time    1.63: real time    1.66

 eigenvalue-minimisations  :   528
 total energy-change (2. order) :-0.3394844E-04  (-0.5523230E-06)
 number of electron      65.9999984 magnetization 
 augmentation part       43.1966967 magnetization 

 Broyden mixing:
  rms(total) = 0.36922E-03    rms(broyden)= 0.36920E-03
  rms(prec ) = 0.44347E-03
  weight for this iteration     100.00

 eigenvalues of (default mixing * dielectric matrix)
  average eigenvalue GAMMA=   1.1213
  2.5746  0.4258  0.3634

 Free energy of the ion-electron system (eV)
  ---------------------------------------------------
  alpha Z        PSCENC =       357.41536616
  Ewald energy   TEWEN  =     19818.74175762
  -1/2 Hartree   DENC   =    -27742.05412849
  -exchange  EXHF       =         0.00000000
  -V(xc)+E(xc)   XCENC  =       256.12187210
  PAW double counting   =      6562.23152363    -7430.08852630
  entropy T*S    EENTRO =         0.00000000
  eigenvalues    EBANDS =      -189.60367968
  atomic energy  EATOM  =      8345.82850422
  ---------------------------------------------------
  free energy    TOTEN  =       -21.40731075 eV

  energy without entropy =      -21.40731075  energy(sigma->0) =      -21.40731075


--------------------------------------------------------------------------------------------------------




----------------------------------------- Iteration    3(   5)  ---------------------------------------


    POTLOK:  cpu time    0.12: real time    0.12
    SETDIJ:  cpu time    0.01: real time    0.01
     EDDAV:  cpu time    1.19: real time    1.19
 BZINTS: Fermi energy:  0.091911; 66.000000 electrons
         Band energy:-189.620282;  BLOECHL correction: -0.578730
       DOS:  cpu time    0.00: real time    0.00
    CHARGE:  cpu time    0.10: real time    0.10
    MIXING:  cpu time    0.00: real time    0.01
    --------------------------------------------
      LOOP:  cpu time    1.43: real time    1.46

 eigenvalue-minimisations  :   416
 total energy-change (2. order) : 0.1191130E-04  (-0.1565674E-06)
 number of electron      65.9999984 magnetization 
 augmentation part       43.1967887 magnetization 

 Broyden mixing:
  rms(total) = 0.11235E-03    rms(broyden)= 0.11233E-03
  rms(prec ) = 0.14258E-03
  weight for this iteration     100.00

 eigenvalues of (default mixing * dielectric matrix)
  average eigenvalue GAMMA=   1.0395
  2.6165  0.7460  0.3077  0.4879

 Free energy of the ion-electron system (eV)
  ---------------------------------------------------
  alpha Z        PSCENC =       357.41536616
  Ewald energy   TEWEN  =     19818.74175762
  -1/2 Hartree   DENC   =    -27742.03866876
  -exchange  EXHF       =         0.00000000
  -V(xc)+E(xc)   XCENC  =       256.12169796
  PAW double counting   =      6562.23143208    -7430.08710606
  entropy T*S    EENTRO =         0.00000000
  eigenvalues    EBANDS =      -189.62028206
  atomic energy  EATOM  =      8345.82850422
  ---------------------------------------------------
  free energy    TOTEN  =       -21.40729884 eV

  energy without entropy =      -21.40729884  energy(sigma->0) =      -21.40729884


--------------------------------------------------------------------------------------------------------




----------------------------------------- Iteration    3(   6)  ---------------------------------------


    POTLOK:  cpu time    0.12: real time    0.12
    SETDIJ:  cpu time    0.02: real time    0.01
     EDDAV:  cpu time    1.02: real time    1.03
 BZINTS: Fermi energy:  0.091927; 66.000000 electrons
         Band energy:-189.620391;  BLOECHL correction: -0.578744
       DOS:  cpu time    0.00: real time    0.00
    CHARGE:  cpu time    0.11: real time    0.11
    MIXING:  cpu time    0.00: real time    0.01
    --------------------------------------------
      LOOP:  cpu time    1.28: real time    1.29

 eigenvalue-minimisations  :   352
 total energy-change (2. order) :-0.4408917E-05  (-0.5423021E-07)
 number of electron      65.9999984 magnetization 
 augmentation part       43.1969052 magnetization 

 Broyden mixing:
  rms(total) = 0.76441E-04    rms(broyden)= 0.76436E-04
  rms(prec ) = 0.80802E-04
  weight for this iteration     100.00

 eigenvalues of (default mixing * dielectric matrix)
  average eigenvalue GAMMA=   0.9467
  2.5627  0.7511  0.7511  0.3746  0.2941

 Free energy of the ion-electron system (eV)
  ---------------------------------------------------
  alpha Z        PSCENC =       357.41536616
  Ewald energy   TEWEN  =     19818.74175762
  -1/2 Hartree   DENC   =    -27742.04016022
  -exchange  EXHF       =         0.00000000
  -V(xc)+E(xc)   XCENC  =       256.12153827
  PAW double counting   =      6562.22745369    -7430.08137171
  entropy T*S    EENTRO =         0.00000000
  eigenvalues    EBANDS =      -189.62039127
  atomic energy  EATOM  =      8345.82850422
  ---------------------------------------------------
  free energy    TOTEN  =       -21.40730324 eV

  energy without entropy =      -21.40730324  energy(sigma->0) =      -21.40730324


--------------------------------------------------------------------------------------------------------




----------------------------------------- Iteration    3(   7)  ---------------------------------------


    POTLOK:  cpu time    0.12: real time    0.12
    SETDIJ:  cpu time    0.01: real time    0.01
     EDDAV:  cpu time    1.06: real time    1.06
 BZINTS: Fermi energy:  0.091957; 66.000000 electrons
         Band energy:-189.617681;  BLOECHL correction: -0.578744
       DOS:  cpu time    0.00: real time    0.00
    CHARGE:  cpu time    0.11: real time    0.11
    MIXING:  cpu time    0.01: real time    0.01
    --------------------------------------------
      LOOP:  cpu time    1.31: real time    1.33

 eigenvalue-minimisations  :   344
 total energy-change (2. order) :-0.1420169E-05  (-0.2763199E-07)
 number of electron      65.9999984 magnetization 
 augmentation part       43.1968745 magnetization 

 Broyden mixing:
  rms(total) = 0.34006E-04    rms(broyden)= 0.34000E-04
  rms(prec ) = 0.36992E-04
  weight for this iteration     100.00

 eigenvalues of (default mixing * dielectric matrix)
  average eigenvalue GAMMA=   0.8610
  2.5266  0.7745  0.7745  0.3026  0.3938  0.3938

 Free energy of the ion-electron system (eV)
  ---------------------------------------------------
  alpha Z        PSCENC =       357.41536616
  Ewald energy   TEWEN  =     19818.74175762
  -1/2 Hartree   DENC   =    -27742.04252426
  -exchange  EXHF       =         0.00000000
  -V(xc)+E(xc)   XCENC  =       256.12157805
  PAW double counting   =      6562.22772256    -7430.08202805
  entropy T*S    EENTRO =         0.00000000
  eigenvalues    EBANDS =      -189.61768096
  atomic energy  EATOM  =      8345.82850422
  ---------------------------------------------------
  free energy    TOTEN  =       -21.40730466 eV

  energy without entropy =      -21.40730466  energy(sigma->0) =      -21.40730466


--------------------------------------------------------------------------------------------------------




----------------------------------------- Iteration    3(   8)  ---------------------------------------


    POTLOK:  cpu time    0.12: real time    0.12
    SETDIJ:  cpu time    0.01: real time    0.01
     EDDAV:  cpu time    1.07: real time    1.07
 BZINTS: Fermi energy:  0.091956; 66.000000 electrons
         Band energy:-189.617691;  BLOECHL correction: -0.578744
       DOS:  cpu time    0.00: real time    0.00
    --------------------------------------------
      LOOP:  cpu time    1.21: real time    1.26

 eigenvalue-minimisations  :   352
 total energy-change (2. order) : 0.1684712E-06  (-0.5089775E-08)
 number of electron      65.9999984 magnetization 
 augmentation part       43.1968745 magnetization 

 Free energy of the ion-electron system (eV)
  ---------------------------------------------------
  alpha Z        PSCENC =       357.41536616
  Ewald energy   TEWEN  =     19818.74175762
  -1/2 Hartree   DENC   =    -27742.04249110
  -exchange  EXHF       =         0.00000000
  -V(xc)+E(xc)   XCENC  =       256.12158306
  PAW double counting   =      6562.22709899    -7430.08143255
  entropy T*S    EENTRO =         0.00000000
  eigenvalues    EBANDS =      -189.61769090
  atomic energy  EATOM  =      8345.82850422
  ---------------------------------------------------
  free energy    TOTEN  =       -21.40730450 eV

  energy without entropy =      -21.40730450  energy(sigma->0) =      -21.40730450


--------------------------------------------------------------------------------------------------------




 average (electrostatic) potential at core
  the test charge radii are     1.0053
  (the norm of the test charge is              1.0000)
       1 -43.4134       2 -43.6678       3 -43.6666       4 -43.6666       5 -43.6676
       6 -43.4133
 
 
 
 E-fermi :   0.0920     XC(G=0):  -7.8821     alpha+bet : -5.3032


 k-point   1 :       0.0000    0.0000    0.0000
  band No.  band energies     occupation 
      1      -9.0192      2.00000
      2      -8.3849      2.00000
      3      -7.3925      2.00000
      4      -6.2322      2.00000
      5      -5.3239      2.00000
      6      -5.0234      2.00000
      7      -3.1346      2.00000
      8      -3.1122      2.00000
      9      -2.9807      2.00000
     10      -2.9807      2.00000
     11      -2.9668      2.00000
     12      -2.9413      2.00000
     13      -2.9413      2.00000
     14      -2.8946      2.00000
     15      -2.8946      2.00000
     16      -2.8567      2.00000
     17      -2.8567      2.00000
     18      -2.8452      2.00000
     19      -2.6501      2.00000
     20      -2.6501      2.00000
     21      -2.6347      2.00000
     22      -2.6347      2.00000
     23      -2.3092      2.00000
     24      -2.1779      2.00000
     25      -2.1779      2.00000
     26      -2.1409      2.00000
     27      -2.1409      2.00000
     28      -2.0242      2.00000
     29      -2.0242      2.00000
     30      -1.8319      2.00000
     31      -1.8319      2.00000
     32      -1.6452      2.00000
     33      -1.6452      2.00000
     34      -1.5944      2.00000
     35      -1.5944      2.00000
     36      -0.8209      2.74808
     37      -0.3111      0.76194
     38       4.2318      0.00000
     39       4.2489      0.00000
     40       5.7394      0.00000

 k-point   2 :       0.1429    0.0000    0.0000
  band No.  band energies     occupation 
      1      -8.3767      2.00000
      2      -7.7587      2.00000
      3      -6.7963      2.00000
      4      -5.6850      2.00000
      5      -4.8493      2.00000
      6      -4.6264      2.00000
      7      -3.4027      2.00000
      8      -3.2975      2.00000
      9      -3.2191      2.00000
     10      -3.1522      2.00000
     11      -3.0866      2.00000
     12      -2.9985      2.00000
     13      -2.8761      2.00000
     14      -2.8398      2.00000
     15      -2.8159      2.00000
     16      -2.7928      2.00000
     17      -2.7670      2.00000
     18      -2.7153      2.00000
     19      -2.6847      2.00000
     20      -2.6731      2.00000
     21      -2.6566      2.00000
     22      -2.5018      2.00000
     23      -2.4463      2.00000
     24      -2.3393      2.00000
     25      -2.2703      2.00000
     26      -2.2265      2.00000
     27      -2.1355      2.00000
     28      -2.1243      2.00000
     29      -2.0079      2.00000
     30      -2.0016      2.00000
     31      -1.8312      2.00000
     32      -1.6739      2.00000
     33      -1.6448      2.00000
     34      -1.5855      2.00000
     35      -1.0186      2.12482
     36       0.2141      0.31994
     37       1.0362     -0.03751
     38       4.6779      0.00000
     39       4.8411      0.00000
     40       6.2956      0.00000

 k-point   3 :       0.2857    0.0000    0.0000
  band No.  band energies     occupation 
      1      -6.6348      2.00000
      2      -6.1253      2.00000
      3      -5.3945      2.00000
      4      -4.6765      2.00000
      5      -4.1824      2.00000
      6      -4.0106      2.00000
      7      -3.9073      2.00000
      8      -3.6856      2.00000
      9      -3.4681      2.00000
     10      -3.3608      2.00000
     11      -3.2484      2.00000
     12      -3.1685      2.00000
     13      -2.9521      2.00000
     14      -2.8462      2.00000
     15      -2.7880      2.00000
     16      -2.7424      2.00000
     17      -2.6052      2.00000
     18      -2.5948      2.00000
     19      -2.5471      2.00000
     20      -2.5160      2.00000
     21      -2.3735      2.00000
     22      -2.2416      2.00000
     23      -2.1553      2.00000
     24      -2.1458      2.00000
     25      -2.0714      2.00000
     26      -2.0638      2.00000
     27      -1.9554      2.00000
     28      -1.8708      2.00000
     29      -1.8309      2.00000
     30      -1.8025      2.00000
     31      -1.7689      2.00000
     32      -1.6431      2.00000
     33      -1.5650      2.00000
     34      -1.0034      2.15361
     35       0.2705      0.49991
     36       1.9999      0.00000
     37       3.5166      0.00000
     38       6.0224      0.00000
     39       6.6548      0.00000
     40       7.9653      0.00000

 k-point   4 :       0.4286    0.0000    0.0000
  band No.  band energies     occupation 
      1      -5.0258      2.00000
      2      -4.7863      2.00000
      3      -4.7336      2.00000
      4      -4.5200      2.00000
      5      -4.2569      2.00000
      6      -4.1953      2.00000
      7      -4.1170      2.00000
      8      -3.9792      2.00000
      9      -3.7212      2.00000
     10      -3.3586      2.00000
     11      -3.0840      2.00000
     12      -3.0086      2.00000
     13      -2.9124      2.00000
     14      -2.8688      2.00000
     15      -2.6827      2.00000
     16      -2.6792      2.00000
     17      -2.4295      2.00000
     18      -2.3582      2.00000
     19      -2.0809      2.00000
     20      -2.0142      2.00000
     21      -1.8280      2.00000
     22      -1.7575      2.00000
     23      -1.6788      2.00000
     24      -1.6639      2.00000
     25      -1.6378      2.00000
     26      -1.6288      2.00000
     27      -1.6046      2.00000
     28      -1.5431      2.00000
     29      -1.4054      2.00000
     30      -1.4018      2.00000
     31      -1.2031      2.07766
     32      -0.6904      1.94295
     33      -0.3007      1.62462
     34       0.6490      0.08238
     35       1.9581      0.00000
     36       2.9507      0.00000
     37       4.3656      0.00000
     38       5.0174      0.00000
     39       5.6402      0.00000
     40       6.3756      0.00000

 k-point   5 :       0.2857    0.1429    0.0000
  band No.  band energies     occupation 
      1      -7.1679      2.00000
      2      -6.6041      2.00000
      3      -5.7525      2.00000
      4      -4.8297      2.00000
      5      -4.1792      2.00000
      6      -4.0378      2.00000
      7      -3.6390      2.00000
      8      -3.6043      2.00000
      9      -3.4713      2.00000
     10      -3.3741      2.00000
     11      -3.3472      2.00000
     12      -3.2507      2.00000
     13      -3.0458      2.00000
     14      -2.9897      2.00000
     15      -2.9532      2.00000
     16      -2.8571      2.00000
     17      -2.8002      2.00000
     18      -2.6552      2.00000
     19      -2.5580      2.00000
     20      -2.4712      2.00000
     21      -2.4142      2.00000
     22      -2.3611      2.00000
     23      -2.3309      2.00000
     24      -2.2216      2.00000
     25      -2.1960      2.00000
     26      -2.0301      2.00000
     27      -1.9941      2.00000
     28      -1.9724      2.00000
     29      -1.8398      2.00000
     30      -1.8340      2.00000
     31      -1.7595      2.00000
     32      -1.6930      2.00000
     33      -1.6617      2.00000
     34      -1.1433      2.14441
     35      -0.0968      1.18079
     36       1.4922      0.00000
     37       2.7979      0.00000
     38       5.5915      0.00000
     39       6.0612      0.00000
     40       7.4629      0.00000

 k-point   6 :       0.4286    0.1429    0.0000
  band No.  band energies     occupation 
      1      -5.2823      2.00000
      2      -4.9790      2.00000
      3      -4.6339      2.00000
      4      -4.3339      2.00000
      5      -4.0682      2.00000
      6      -3.9887      2.00000
      7      -3.8417      2.00000
      8      -3.6881      2.00000
      9      -3.5616      2.00000
     10      -3.4294      2.00000
     11      -3.3052      2.00000
     12      -3.2162      2.00000
     13      -3.0575      2.00000
     14      -3.0432      2.00000
     15      -2.8563      2.00000
     16      -2.7600      2.00000
     17      -2.6835      2.00000
     18      -2.6039      2.00000
     19      -2.5600      2.00000
     20      -2.4483      2.00000
     21      -2.2767      2.00000
     22      -2.1406      2.00000
     23      -2.1314      2.00000
     24      -1.9953      2.00000
     25      -1.8826      2.00000
     26      -1.8618      2.00000
     27      -1.6592      2.00000
     28      -1.6288      2.00000
     29      -1.5812      2.00000
     30      -1.5368      2.00000
     31      -1.1037      2.01218
     32      -0.9645      1.89826
     33      -0.6075      1.66467
     34       0.3132      0.52878
     35       1.7647     -0.07952
     36       3.5707      0.00000
     37       5.4177      0.00000
     38       6.4082      0.00000
     39       6.9750      0.00000
     40       7.7038      0.00000

 k-point   7 :      -0.4286    0.1429    0.0000
  band No.  band energies     occupation 
      1      -4.6113      2.00000
      2      -4.5089      2.00000
      3      -4.3328      2.00000
      4      -4.3052      2.00000
      5      -4.1520      2.00000
      6      -3.9979      2.00000
      7      -3.9658      2.00000
      8      -3.8689      2.00000
      9      -3.6501      2.00000
     10      -3.4313      2.00000
     11      -3.2696      2.00000
     12      -3.0915      2.00000
     13      -3.0334      2.00000
     14      -2.8901      2.00000
     15      -2.7991      2.00000
     16      -2.7024      2.00000
     17      -2.6439      2.00000
     18      -2.4294      2.00000
     19      -2.3012      2.00000
     20      -2.1265      2.00000
     21      -2.0615      2.00000
     22      -2.0133      2.00000
     23      -1.8445      2.00000
     24      -1.7865      2.00000
     25      -1.7167      2.00000
     26      -1.6621      2.00000
     27      -1.6569      2.00000
     28      -1.6171      2.00000
     29      -1.5482      2.00000
     30      -1.5152      2.00000
     31       0.7181      0.64032
     32       1.1264      0.15984
     33       1.5069     -0.21546
     34       1.8861      0.00000
     35       2.2733      0.00000
     36       2.5534      0.00000
     37       4.1848      0.00000
     38       4.9406      0.00000
     39       5.7316      0.00000
     40       6.4399      0.00000

 k-point   8 :      -0.4286    0.2857    0.0000
  band No.  band energies     occupation 
      1      -4.1465      2.00000
      2      -4.1401      2.00000
      3      -4.0601      2.00000
      4      -3.9797      2.00000
      5      -3.9583      2.00000
      6      -3.8235      2.00000
      7      -3.7713      2.00000
      8      -3.6370      2.00000
      9      -3.6150      2.00000
     10      -3.5217      2.00000
     11      -3.4699      2.00000
     12      -3.2737      2.00000
     13      -3.2235      2.00000
     14      -3.0523      2.00000
     15      -3.0466      2.00000
     16      -2.6957      2.00000
     17      -2.6797      2.00000
     18      -2.6525      2.00000
     19      -2.6499      2.00000
     20      -2.3847      2.00000
     21      -2.3275      2.00000
     22      -2.2185      2.00000
     23      -2.0993      2.00000
     24      -2.0741      2.00000
     25      -1.9084      2.00000
     26      -1.7634      2.00000
     27      -1.6494      2.00000
     28      -1.6328      2.00000
     29      -1.6070      2.00000
     30      -1.5411      2.00000
     31       1.0541      0.12259
     32       1.4524      0.00471
     33       2.1726     -0.12595
     34       3.2151      0.00000
     35       4.4414      0.00000
     36       5.0974      0.00000
     37       5.1796      0.00000
     38       5.5047      0.00000
     39       5.6304      0.00000
     40       6.2993      0.00000


--------------------------------------------------------------------------------------------------------


 soft charge-density along one line, spin component           1
         0         1         2         3         4         5         6         7         8         9
 total charge-density along one line
 
 pseudopotential strength for first ion, spin component:           1
 -9.040   0.000   0.000   0.000   0.000   0.000  -0.005   0.000   0.000   0.000   0.921   0.000   0.000   0.000   0.000   0.000
  0.000   0.000  -8.996   0.000   0.000   0.000   0.000   0.000  -0.005   0.000   0.000   0.000   0.901   0.000   0.000   0.000
  0.000   0.000   0.000   0.000  -8.989   0.000   0.000   0.000   0.000   0.000   0.000   0.000   0.000   0.000   0.897   0.000
 -0.005   0.000   0.000   0.000   0.000   0.000  -8.996   0.000   0.000   0.000   0.002   0.000   0.000   0.000   0.000   0.000
  0.000   0.000  -0.005   0.000   0.000   0.000   0.000   0.000  -9.040   0.000   0.000   0.000   0.002   0.000   0.000   0.000
  0.921   0.000   0.000   0.000   0.000   0.000   0.002   0.000   0.000   0.000   1.149   0.000   0.000   0.000   0.000   0.000
  0.000   0.000   0.901   0.000   0.000   0.000   0.000   0.000   0.002   0.000   0.000   0.000   1.159   0.000   0.000   0.000
  0.000   0.000   0.000   0.000   0.897   0.000   0.000   0.000   0.000   0.000   0.000   0.000   0.000   0.000   1.161   0.000
  0.002   0.000   0.000   0.000   0.000   0.000   0.901   0.000   0.000   0.000  -0.001   0.000   0.000   0.000   0.000   0.000
  0.000   0.000   0.002   0.000   0.000   0.000   0.000   0.000   0.921   0.000   0.000   0.000  -0.001   0.000   0.000   0.000
  0.000   0.000   0.000   0.000  -0.007   0.000   0.000   0.000   0.000   0.000   0.000   0.000   0.000   0.000   0.003   0.000
  0.000   0.000   0.000   0.000   0.000   0.000   0.000   0.000   0.000   0.000   0.000   0.000   0.000   0.000   0.000   0.000
  0.000   0.000  -0.010   0.000   0.000   0.000   0.000   0.000   0.000   0.000   0.000   0.000   0.006   0.000   0.000   0.000
  0.000   0.000   0.000   0.000  -0.010   0.000   0.000   0.000   0.000   0.000   0.000   0.000   0.000   0.000   0.006   0.000
  0.000   0.000   0.000   0.000   0.000   0.000  -0.010   0.000   0.000   0.000   0.000   0.000   0.000   0.000   0.000   0.000
  0.000   0.000   0.005   0.000   0.000   0.000   0.000   0.000   0.000   0.000   0.000   0.000  -0.002   0.000   0.000   0.000
  0.000   0.000   0.000   0.000   0.005   0.000   0.000   0.000   0.000   0.000   0.000   0.000   0.000   0.000  -0.003   0.000
  0.000   0.000   0.000   0.000   0.000   0.000   0.005   0.000   0.000   0.000   0.000   0.000   0.000   0.000   0.000   0.000
 total augmentation occupancy for first ion, spin component:           1
  1.905   0.000   0.000  -0.003   0.000  -0.021   0.000   0.000   0.010   0.000   0.000   0.000   0.000   0.000   0.007   0.000
  0.000   1.915   0.000   0.000  -0.003   0.000  -0.057   0.000   0.000   0.010   0.000   0.000  -0.002   0.000   0.000  -0.004
  0.000   0.000   1.920   0.000   0.000   0.000   0.000  -0.047   0.000   0.000   0.012   0.038   0.000   0.035   0.000   0.000
 -0.003   0.000   0.000   1.915   0.000   0.010   0.000   0.000  -0.057   0.000   0.000   0.000   0.000   0.000  -0.002   0.000
  0.000  -0.003   0.000   0.000   1.905   0.000   0.010   0.000   0.000  -0.021   0.000   0.000   0.007   0.000   0.000  -0.001
 -0.021   0.000   0.000   0.010   0.000   0.064   0.000   0.000   0.001   0.000   0.000   0.000   0.000   0.000   0.005   0.000
  0.000  -0.057   0.000   0.000   0.010   0.000   0.044   0.000   0.000   0.001   0.000   0.000   0.031   0.000   0.000  -0.003
  0.000   0.000  -0.047   0.000   0.000   0.000   0.000   0.061   0.000   0.000  -0.081   0.014   0.000   0.044   0.000   0.000
  0.010   0.000   0.000  -0.057   0.000   0.001   0.000   0.000   0.044   0.000   0.000   0.000   0.000   0.000   0.031   0.000
  0.000   0.010   0.000   0.000  -0.021   0.000   0.001   0.000   0.000   0.064   0.000   0.000   0.005   0.000   0.000   0.000
  0.000   0.000   0.012   0.000   0.000   0.000   0.000  -0.081   0.000   0.000   1.237  -0.288   0.000   0.067   0.000   0.000
  0.000   0.000   0.038   0.000   0.000   0.000   0.000   0.014   0.000   0.000  -0.288   0.112   0.000  -0.046   0.000   0.000
  0.000  -0.002   0.000   0.000   0.007   0.000   0.031   0.000   0.000   0.005   0.000   0.000   0.170   0.000   0.000  -0.011
  0.000   0.000   0.035   0.000   0.000   0.000   0.000   0.044   0.000   0.000   0.067  -0.046   0.000   0.097   0.000   0.000
  0.007   0.000   0.000  -0.002   0.000   0.005   0.000   0.000   0.031   0.000   0.000   0.000   0.000   0.000   0.170   0.000
  0.000  -0.004   0.000   0.000  -0.001   0.000  -0.003   0.000   0.000   0.000   0.000   0.000  -0.011   0.000   0.000   0.001
  0.000   0.000  -0.008   0.000   0.000   0.000   0.000  -0.002   0.000   0.000  -0.013   0.006   0.000  -0.007   0.000   0.000
 -0.001   0.000   0.000  -0.004   0.000   0.000   0.000   0.000  -0.003   0.000   0.000   0.000   0.000   0.000  -0.011   0.000


------------------------ aborting loop because EDIFF is reached ----------------------------------------


    CHARGE:  cpu time    0.10: real time    0.10
    FORLOC:  cpu time    0.01: real time    0.01
    FORNL :  cpu time    0.40: real time    0.40
    STRESS:  cpu time    1.15: real time    1.15
    FORCOR:  cpu time    0.13: real time    0.13
    FORHAR:  cpu time    0.04: real time    0.04
    MIXING:  cpu time    0.01: real time    0.01

  FORCE on cell =-STRESS in cart. coord.  units (eV):
  Direction    XX          YY          ZZ          XY          YZ          ZX
  --------------------------------------------------------------------------------------
  Alpha Z   357.41537   357.41537   357.41537
  Ewald   24203.22861 24203.22861-28587.71876     0.00000     0.00000     0.00000
  Hartree 26504.00078 26504.00078-25265.94849     0.00000     0.00000     0.00000
  E(xc)    -375.35486  -375.35470  -375.89881    -0.00014     0.00000     0.00000
  Local  -51276.85861-51276.86057 53282.31965     0.00170     0.00000     0.00000
  n-local  -226.04414  -216.50355  -222.41202     4.23299    -0.40181     0.13603
  augment   337.91297   337.91458   339.09816    -0.00139     0.00001     0.00001
  Kinetic   486.01942   453.85146   472.55632   -12.58522    -0.86065     0.56864
  Fock        0.00000     0.00000     0.00000     0.00000     0.00000     0.00000
  -------------------------------------------------------------------------------------
  Total      -0.99425    -0.99425    -0.58860     0.00000     0.00000     0.00000
  in kB     -12.37861   -12.37861    -7.32817     0.00000     0.00000     0.00000
  external pressure =      -10.70 kB  Pullay stress =        0.00 kB


 VOLUME and BASIS-vectors are now :
 -----------------------------------------------------------------------------
  energy-cutoff  :      415.00
  volume of cell :      128.69
      direct lattice vectors                 reciprocal lattice vectors
     2.565866355  0.000000000  0.000000000     0.389731912 -0.225011824  0.000000000
     1.282933180  2.222105448  0.000000000     0.000000000  0.450023648  0.000000000
     0.000000000  0.000000000 22.570126644     0.000000000  0.000000000  0.044306353

  length of vectors
     2.565866355  2.565866358 22.570126644     0.450023648  0.450023648  0.044306353


 FORCES acting on ions
    electron-ion (+dipol)            ewald-force                    non-local-force                 convergence-correction
 -----------------------------------------------------------------------------------------------
   -.195E-06 -.669E-07 0.424E+04   0.372E-07 -.351E-07 -.424E+04   0.260E-17 0.173E-17 -.111E+01   -.888E-09 -.512E-09 -.305E-02
   -.202E-06 -.117E-06 -.851E+03   -.174E-09 0.164E-09 0.851E+03   -.542E-19 0.108E-18 0.242E+00   -.158E-09 -.921E-10 -.133E-02
   -.377E-05 -.218E-05 0.255E+04   0.226E-09 0.100E-08 -.255E+04   -.163E-18 0.542E-19 -.627E+00   -.340E-10 -.202E-10 0.140E-02
   -.256E-05 -.148E-05 -.255E+04   0.139E-08 -.731E-10 0.255E+04   0.244E-18 0.000E+00 0.627E+00   0.394E-10 0.232E-10 -.141E-02
   0.502E-05 0.290E-05 0.851E+03   -.629E-09 -.628E-09 -.851E+03   -.108E-18 -.108E-18 -.242E+00   0.160E-09 0.931E-10 0.133E-02
   0.236E-05 0.132E-05 -.424E+04   -.381E-07 0.347E-07 0.424E+04   -.347E-17 -.173E-17 0.111E+01   0.889E-09 0.513E-09 0.304E-02
 -----------------------------------------------------------------------------------------------
   0.663E-06 0.383E-06 0.892E-03   0.331E-13 -.695E-13 0.182E-11   -.949E-18 0.542E-19 -.222E-15   0.823E-11 0.462E-11 -.153E-04
 
 
 POSITION                                       TOTAL-FORCE (eV/Angst)
 -----------------------------------------------------------------------------------
      0.00000      0.00000      0.00139         0.000000      0.000000      0.062791
      0.00000      0.00000      6.28488         0.000000      0.000000     -0.002867
      1.28293      0.74070      2.09363         0.000000      0.000000     -0.057280
      1.28293      0.74070      8.38148         0.000000      0.000000      0.057280
      2.56587      1.48140      4.19022         0.000000      0.000000      0.002867
      2.56587      1.48140     10.47371         0.000000      0.000000     -0.062791
 -----------------------------------------------------------------------------------
    total drift:                                0.000001      0.000000      0.000876


--------------------------------------------------------------------------------------------------------



  FREE ENERGIE OF THE ION-ELECTRON SYSTEM (eV)
  ---------------------------------------------------
  free  energy   TOTEN  =       -21.40730450 eV

  energy  without entropy=      -21.40730450  energy(sigma->0) =      -21.40730450
 
 d Force = 0.2711587E-03[ 0.252E-03, 0.291E-03]  d Energy = 0.1476582E-03 0.124E-03
 d Force =-0.3735868E+01[-0.374E+01,-0.373E+01]  d Ewald  =-0.3735868E+01 0.144E-06


--------------------------------------------------------------------------------------------------------


    POTLOK:  cpu time    0.15: real time    0.15


--------------------------------------------------------------------------------------------------------




--------------------------------------------------------------------------------------------------------


    WAVPRE:  cpu time    0.03: real time    0.03
 FEWALD executed in parallel
    FEWALD:  cpu time    0.00: real time    0.00
    ORTHCH:  cpu time    0.08: real time    0.08
     LOOP+:  cpu time   14.61: real time   15.01


----------------------------------------- Iteration    4(   1)  ---------------------------------------


    POTLOK:  cpu time    0.09: real time    0.09
    SETDIJ:  cpu time    0.01: real time    0.01
     EDDAV:  cpu time    1.48: real time    1.48
 BZINTS: Fermi energy:  0.092434; 66.000000 electrons
         Band energy:-189.666523;  BLOECHL correction: -0.578488
       DOS:  cpu time    0.00: real time    0.00
    CHARGE:  cpu time    0.13: real time    0.13
    MIXING:  cpu time    0.01: real time    0.01
    --------------------------------------------
      LOOP:  cpu time    1.73: real time    1.74

 eigenvalue-minimisations  :   640
 total energy-change (2. order) :-0.1111281E-03  (-0.9334622E-02)
 number of electron      65.9999989 magnetization 
 augmentation part       43.1960783 magnetization 

 Broyden mixing:
  rms(total) = 0.21850E-02    rms(broyden)= 0.21825E-02
  rms(prec ) = 0.22909E-02
  weight for this iteration     100.00

 Free energy of the ion-electron system (eV)
  ---------------------------------------------------
  alpha Z        PSCENC =       357.41536616
  Ewald energy   TEWEN  =     19826.22550295
  -1/2 Hartree   DENC   =    -27749.48306862
  -exchange  EXHF       =         0.00000000
  -V(xc)+E(xc)   XCENC  =       256.12748633
  PAW double counting   =      6562.22568061    -7430.08036438
  entropy T*S    EENTRO =         0.00000000
  eigenvalues    EBANDS =      -189.66652306
  atomic energy  EATOM  =      8345.82850422
  ---------------------------------------------------
  free energy    TOTEN  =       -21.40741579 eV

  energy without entropy =      -21.40741579  energy(sigma->0) =      -21.40741579


--------------------------------------------------------------------------------------------------------




----------------------------------------- Iteration    4(   2)  ---------------------------------------


    POTLOK:  cpu time    0.11: real time    0.11
    SETDIJ:  cpu time    0.02: real time    0.01
     EDDAV:  cpu time    1.68: real time    1.68
 BZINTS: Fermi energy:  0.092842; 66.000000 electrons
         Band energy:-189.639036;  BLOECHL correction: -0.578641
       DOS:  cpu time    0.00: real time    0.00
    CHARGE:  cpu time    0.12: real time    0.12
    MIXING:  cpu time    0.01: real time    0.01
    --------------------------------------------
      LOOP:  cpu time    1.94: real time    1.96

 eigenvalue-minimisations  :   696
 total energy-change (2. order) :-0.9324060E-04  (-0.3595388E-04)
 number of electron      65.9999989 magnetization 
 augmentation part       43.1966255 magnetization 

 Broyden mixing:
  rms(total) = 0.17062E-02    rms(broyden)= 0.17060E-02
  rms(prec ) = 0.18404E-02
  weight for this iteration     100.00

 eigenvalues of (default mixing * dielectric matrix)
  average eigenvalue GAMMA=   0.8553
  0.8553

 Free energy of the ion-electron system (eV)
  ---------------------------------------------------
  alpha Z        PSCENC =       357.41536616
  Ewald energy   TEWEN  =     19826.22550295
  -1/2 Hartree   DENC   =    -27749.51291572
  -exchange  EXHF       =         0.00000000
  -V(xc)+E(xc)   XCENC  =       256.12616848
  PAW double counting   =      6562.32010752    -7430.17120636
  entropy T*S    EENTRO =         0.00000000
  eigenvalues    EBANDS =      -189.63903628
  atomic energy  EATOM  =      8345.82850422
  ---------------------------------------------------
  free energy    TOTEN  =       -21.40750903 eV

  energy without entropy =      -21.40750903  energy(sigma->0) =      -21.40750903


--------------------------------------------------------------------------------------------------------




----------------------------------------- Iteration    4(   3)  ---------------------------------------


    POTLOK:  cpu time    0.12: real time    0.12
    SETDIJ:  cpu time    0.01: real time    0.01
     EDDAV:  cpu time    1.62: real time    1.62
 BZINTS: Fermi energy:  0.092295; 66.000000 electrons
         Band energy:-189.683986;  BLOECHL correction: -0.578462
       DOS:  cpu time    0.00: real time    0.00
    CHARGE:  cpu time    0.11: real time    0.11
    MIXING:  cpu time    0.01: real time    0.01
    --------------------------------------------
      LOOP:  cpu time    1.87: real time    1.89

 eigenvalue-minimisations  :   680
 total energy-change (2. order) : 0.8171889E-04  (-0.7514748E-05)
 number of electron      65.9999989 magnetization 
 augmentation part       43.1966459 magnetization 

 Broyden mixing:
  rms(total) = 0.15758E-02    rms(broyden)= 0.15757E-02
  rms(prec ) = 0.18193E-02
  weight for this iteration     100.00

 eigenvalues of (default mixing * dielectric matrix)
  average eigenvalue GAMMA=   1.3859
  2.4321  0.3398

 Free energy of the ion-electron system (eV)
  ---------------------------------------------------
  alpha Z        PSCENC =       357.41536616
  Ewald energy   TEWEN  =     19826.22550295
  -1/2 Hartree   DENC   =    -27749.46283471
  -exchange  EXHF       =         0.00000000
  -V(xc)+E(xc)   XCENC  =       256.12635099
  PAW double counting   =      6562.38508222    -7430.24141301
  entropy T*S    EENTRO =         0.00000000
  eigenvalues    EBANDS =      -189.68398612
  atomic energy  EATOM  =      8345.82850422
  ---------------------------------------------------
  free energy    TOTEN  =       -21.40742731 eV

  energy without entropy =      -21.40742731  energy(sigma->0) =      -21.40742731


--------------------------------------------------------------------------------------------------------




----------------------------------------- Iteration    4(   4)  ---------------------------------------


    POTLOK:  cpu time    0.12: real time    0.12
    SETDIJ:  cpu time    0.01: real time    0.01
     EDDAV:  cpu time    1.65: real time    1.64
 BZINTS: Fermi energy:  0.093320; 66.000000 electrons
         Band energy:-189.601160;  BLOECHL correction: -0.578576
       DOS:  cpu time    0.00: real time    0.00
    CHARGE:  cpu time    0.10: real time    0.09
    MIXING:  cpu time    0.01: real time    0.01
    --------------------------------------------
      LOOP:  cpu time    1.88: real time    1.95

 eigenvalue-minimisations  :   680
 total energy-change (2. order) :-0.6702603E-04  (-0.2288568E-05)
 number of electron      65.9999989 magnetization 
 augmentation part       43.1961098 magnetization 

 Broyden mixing:
  rms(total) = 0.73782E-03    rms(broyden)= 0.73778E-03
  rms(prec ) = 0.88512E-03
  weight for this iteration     100.00

 eigenvalues of (default mixing * dielectric matrix)
  average eigenvalue GAMMA=   1.1214
  2.5727  0.4292  0.3621

 Free energy of the ion-electron system (eV)
  ---------------------------------------------------
  alpha Z        PSCENC =       357.41536616
  Ewald energy   TEWEN  =     19826.22550295
  -1/2 Hartree   DENC   =    -27749.53364057
  -exchange  EXHF       =         0.00000000
  -V(xc)+E(xc)   XCENC  =       256.12660548
  PAW double counting   =      6562.53199041    -7430.40066295
  entropy T*S    EENTRO =         0.00000000
  eigenvalues    EBANDS =      -189.60116003
  atomic energy  EATOM  =      8345.82850422
  ---------------------------------------------------
  free energy    TOTEN  =       -21.40749434 eV

  energy without entropy =      -21.40749434  energy(sigma->0) =      -21.40749434


--------------------------------------------------------------------------------------------------------




----------------------------------------- Iteration    4(   5)  ---------------------------------------


    POTLOK:  cpu time    0.12: real time    0.12
    SETDIJ:  cpu time    0.01: real time    0.01
     EDDAV:  cpu time    1.48: real time    1.47
 BZINTS: Fermi energy:  0.092902; 66.000000 electrons
         Band energy:-189.635172;  BLOECHL correction: -0.578545
       DOS:  cpu time    0.00: real time    0.00
    CHARGE:  cpu time    0.10: real time    0.10
    MIXING:  cpu time    0.00: real time    0.01
    --------------------------------------------
      LOOP:  cpu time    1.72: real time    1.79

 eigenvalue-minimisations  :   584
 total energy-change (2. order) : 0.2411592E-04  (-0.6553315E-06)
 number of electron      65.9999989 magnetization 
 augmentation part       43.1963400 magnetization 

 Broyden mixing:
  rms(total) = 0.21406E-03    rms(broyden)= 0.21402E-03
  rms(prec ) = 0.27538E-03
  weight for this iteration     100.00

 eigenvalues of (default mixing * dielectric matrix)
  average eigenvalue GAMMA=   1.0397
  2.5934  0.7614  0.3099  0.4942

 Free energy of the ion-electron system (eV)
  ---------------------------------------------------
  alpha Z        PSCENC =       357.41536616
  Ewald energy   TEWEN  =     19826.22550295
  -1/2 Hartree   DENC   =    -27749.50216143
  -exchange  EXHF       =         0.00000000
  -V(xc)+E(xc)   XCENC  =       256.12623174
  PAW double counting   =      6562.53097218    -7430.39671424
  entropy T*S    EENTRO =         0.00000000
  eigenvalues    EBANDS =      -189.63517181
  atomic energy  EATOM  =      8345.82850422
  ---------------------------------------------------
  free energy    TOTEN  =       -21.40747022 eV

  energy without entropy =      -21.40747022  energy(sigma->0) =      -21.40747022


--------------------------------------------------------------------------------------------------------




----------------------------------------- Iteration    4(   6)  ---------------------------------------


    POTLOK:  cpu time    0.12: real time    0.12
    SETDIJ:  cpu time    0.01: real time    0.01
     EDDAV:  cpu time    1.12: real time    1.12
 BZINTS: Fermi energy:  0.092949; 66.000000 electrons
         Band energy:-189.633859;  BLOECHL correction: -0.578573
       DOS:  cpu time    0.00: real time    0.00
    CHARGE:  cpu time    0.11: real time    0.11
    MIXING:  cpu time    0.01: real time    0.01
    --------------------------------------------
      LOOP:  cpu time    1.37: real time    1.40

 eigenvalue-minimisations  :   384
 total energy-change (2. order) :-0.9331470E-05  (-0.1780828E-06)
 number of electron      65.9999989 magnetization 
 augmentation part       43.1965286 magnetization 

 Broyden mixing:
  rms(total) = 0.14584E-03    rms(broyden)= 0.14583E-03
  rms(prec ) = 0.15415E-03
  weight for this iteration     100.00

 eigenvalues of (default mixing * dielectric matrix)
  average eigenvalue GAMMA=   0.9498
  2.5398  0.7661  0.7661  0.3793  0.2976

 Free energy of the ion-electron system (eV)
  ---------------------------------------------------
  alpha Z        PSCENC =       357.41536616
  Ewald energy   TEWEN  =     19826.22550295
  -1/2 Hartree   DENC   =    -27749.50639871
  -exchange  EXHF       =         0.00000000
  -V(xc)+E(xc)   XCENC  =       256.12594620
  PAW double counting   =      6562.52340520    -7430.38594611
  entropy T*S    EENTRO =         0.00000000
  eigenvalues    EBANDS =      -189.63385947
  atomic energy  EATOM  =      8345.82850422
  ---------------------------------------------------
  free energy    TOTEN  =       -21.40747956 eV

  energy without entropy =      -21.40747956  energy(sigma->0) =      -21.40747956


--------------------------------------------------------------------------------------------------------




----------------------------------------- Iteration    4(   7)  ---------------------------------------


    POTLOK:  cpu time    0.12: real time    0.12
    SETDIJ:  cpu time    0.01: real time    0.01
     EDDAV:  cpu time    1.07: real time    1.07
 BZINTS: Fermi energy:  0.093002; 66.000000 electrons
         Band energy:-189.629078;  BLOECHL correction: -0.578574
       DOS:  cpu time    0.00: real time    0.00
    CHARGE:  cpu time    0.10: real time    0.11
    MIXING:  cpu time    0.01: real time    0.01
    --------------------------------------------
      LOOP:  cpu time    1.31: real time    1.39

 eigenvalue-minimisations  :   344
 total energy-change (2. order) :-0.2615096E-05  (-0.9226812E-07)
 number of electron      65.9999989 magnetization 
 augmentation part       43.1964872 magnetization 

 Broyden mixing:
  rms(total) = 0.64698E-04    rms(broyden)= 0.64689E-04
  rms(prec ) = 0.70046E-04
  weight for this iteration     100.00

 eigenvalues of (default mixing * dielectric matrix)
  average eigenvalue GAMMA=   0.9400
  2.4734  0.9387  0.9387  0.5924  0.3964  0.3006

 Free energy of the ion-electron system (eV)
  ---------------------------------------------------
  alpha Z        PSCENC =       357.41536616
  Ewald energy   TEWEN  =     19826.22550295
  -1/2 Hartree   DENC   =    -27749.51062494
  -exchange  EXHF       =         0.00000000
  -V(xc)+E(xc)   XCENC  =       256.12601431
  PAW double counting   =      6562.52371244    -7430.38687955
  entropy T*S    EENTRO =         0.00000000
  eigenvalues    EBANDS =      -189.62907776
  atomic energy  EATOM  =      8345.82850422
  ---------------------------------------------------
  free energy    TOTEN  =       -21.40748217 eV

  energy without entropy =      -21.40748217  energy(sigma->0) =      -21.40748217


--------------------------------------------------------------------------------------------------------




----------------------------------------- Iteration    4(   8)  ---------------------------------------


    POTLOK:  cpu time    0.12: real time    0.12
    SETDIJ:  cpu time    0.01: real time    0.01
     EDDAV:  cpu time    1.06: real time    1.06
 BZINTS: Fermi energy:  0.092997; 66.000000 electrons
         Band energy:-189.629465;  BLOECHL correction: -0.578572
       DOS:  cpu time    0.00: real time    0.00
    --------------------------------------------
      LOOP:  cpu time    1.20: real time    1.22

 eigenvalue-minimisations  :   352
 total energy-change (2. order) : 0.6528844E-06  (-0.1771596E-07)
 number of electron      65.9999989 magnetization 
 augmentation part       43.1964872 magnetization 

 Free energy of the ion-electron system (eV)
  ---------------------------------------------------
  alpha Z        PSCENC =       357.41536616
  Ewald energy   TEWEN  =     19826.22550295
  -1/2 Hartree   DENC   =    -27749.51015276
  -exchange  EXHF       =         0.00000000
  -V(xc)+E(xc)   XCENC  =       256.12602097
  PAW double counting   =      6562.52252916    -7430.38578700
  entropy T*S    EENTRO =         0.00000000
  eigenvalues    EBANDS =      -189.62946522
  atomic energy  EATOM  =      8345.82850422
  ---------------------------------------------------
  free energy    TOTEN  =       -21.40748152 eV

  energy without entropy =      -21.40748152  energy(sigma->0) =      -21.40748152


--------------------------------------------------------------------------------------------------------




 average (electrostatic) potential at core
  the test charge radii are     1.0053
  (the norm of the test charge is              1.0000)
       1 -43.4151       2 -43.6659       3 -43.6667       4 -43.6667       5 -43.6658
       6 -43.4149
 
 
 
 E-fermi :   0.0930     XC(G=0):  -7.8809     alpha+bet : -5.3032


 k-point   1 :       0.0000    0.0000    0.0000
  band No.  band energies     occupation 
      1      -9.0177      2.00000
      2      -8.3876      2.00000
      3      -7.3973      2.00000
      4      -6.2310      2.00000
      5      -5.3235      2.00000
      6      -5.0227      2.00000
      7      -3.1362      2.00000
      8      -3.1099      2.00000
      9      -2.9792      2.00000
     10      -2.9792      2.00000
     11      -2.9655      2.00000
     12      -2.9401      2.00000
     13      -2.9401      2.00000
     14      -2.8939      2.00000
     15      -2.8939      2.00000
     16      -2.8566      2.00000
     17      -2.8566      2.00000
     18      -2.8436      2.00000
     19      -2.6528      2.00000
     20      -2.6528      2.00000
     21      -2.6371      2.00000
     22      -2.6371      2.00000
     23      -2.3101      2.00000
     24      -2.1763      2.00000
     25      -2.1763      2.00000
     26      -2.1399      2.00000
     27      -2.1399      2.00000
     28      -2.0258      2.00000
     29      -2.0258      2.00000
     30      -1.8324      2.00000
     31      -1.8324      2.00000
     32      -1.6450      2.00000
     33      -1.6450      2.00000
     34      -1.5939      2.00000
     35      -1.5939      2.00000
     36      -0.8187      2.74564
     37      -0.3087      0.75860
     38       4.2322      0.00000
     39       4.2506      0.00000
     40       5.7381      0.00000

 k-point   2 :       0.1429    0.0000    0.0000
  band No.  band energies     occupation 
      1      -8.3752      2.00000
      2      -7.7612      2.00000
      3      -6.8012      2.00000
      4      -5.6840      2.00000
      5      -4.8493      2.00000
      6      -4.6258      2.00000
      7      -3.4027      2.00000
      8      -3.2963      2.00000
      9      -3.2187      2.00000
     10      -3.1513      2.00000
     11      -3.0880      2.00000
     12      -2.9984      2.00000
     13      -2.8765      2.00000
     14      -2.8398      2.00000
     15      -2.8142      2.00000
     16      -2.7915      2.00000
     17      -2.7655      2.00000
     18      -2.7163      2.00000
     19      -2.6852      2.00000
     20      -2.6724      2.00000
     21      -2.6569      2.00000
     22      -2.5045      2.00000
     23      -2.4488      2.00000
     24      -2.3388      2.00000
     25      -2.2697      2.00000
     26      -2.2277      2.00000
     27      -2.1355      2.00000
     28      -2.1239      2.00000
     29      -2.0090      2.00000
     30      -1.9999      2.00000
     31      -1.8313      2.00000
     32      -1.6741      2.00000
     33      -1.6442      2.00000
     34      -1.5847      2.00000
     35      -1.0177      2.12579
     36       0.2164      0.31811
     37       1.0384     -0.03752
     38       4.6798      0.00000
     39       4.8417      0.00000
     40       6.2946      0.00000

 k-point   3 :       0.2857    0.0000    0.0000
  band No.  band energies     occupation 
      1      -6.6332      2.00000
      2      -6.1275      2.00000
      3      -5.3990      2.00000
      4      -4.6768      2.00000
      5      -4.1826      2.00000
      6      -4.0099      2.00000
      7      -3.9067      2.00000
      8      -3.6871      2.00000
      9      -3.4697      2.00000
     10      -3.3614      2.00000
     11      -3.2480      2.00000
     12      -3.1688      2.00000
     13      -2.9517      2.00000
     14      -2.8460      2.00000
     15      -2.7863      2.00000
     16      -2.7426      2.00000
     17      -2.6061      2.00000
     18      -2.5956      2.00000
     19      -2.5485      2.00000
     20      -2.5164      2.00000
     21      -2.3755      2.00000
     22      -2.2424      2.00000
     23      -2.1546      2.00000
     24      -2.1459      2.00000
     25      -2.0702      2.00000
     26      -2.0635      2.00000
     27      -1.9555      2.00000
     28      -1.8713      2.00000
     29      -1.8316      2.00000
     30      -1.8022      2.00000
     31      -1.7674      2.00000
     32      -1.6420      2.00000
     33      -1.5640      2.00000
     34      -1.0014      2.15292
     35       0.2733      0.49662
     36       2.0021      0.00000
     37       3.5189      0.00000
     38       6.0246      0.00000
     39       6.6556      0.00000
     40       7.9652      0.00000

 k-point   4 :       0.4286    0.0000    0.0000
  band No.  band energies     occupation 
      1      -5.0241      2.00000
      2      -4.7852      2.00000
      3      -4.7346      2.00000
      4      -4.5222      2.00000
      5      -4.2566      2.00000
      6      -4.1975      2.00000
      7      -4.1184      2.00000
      8      -3.9813      2.00000
      9      -3.7246      2.00000
     10      -3.3595      2.00000
     11      -3.0833      2.00000
     12      -3.0077      2.00000
     13      -2.9108      2.00000
     14      -2.8685      2.00000
     15      -2.6839      2.00000
     16      -2.6779      2.00000
     17      -2.4301      2.00000
     18      -2.3619      2.00000
     19      -2.0810      2.00000
     20      -2.0142      2.00000
     21      -1.8290      2.00000
     22      -1.7569      2.00000
     23      -1.6773      2.00000
     24      -1.6637      2.00000
     25      -1.6364      2.00000
     26      -1.6280      2.00000
     27      -1.6040      2.00000
     28      -1.5424      2.00000
     29      -1.4065      2.00000
     30      -1.4029      2.00000
     31      -1.2026      2.07769
     32      -0.6906      1.94362
     33      -0.3019      1.62714
     34       0.6511      0.08186
     35       1.9604      0.00000
     36       2.9517      0.00000
     37       4.3660      0.00000
     38       5.0184      0.00000
     39       5.6409      0.00000
     40       6.3754      0.00000

 k-point   5 :       0.2857    0.1429    0.0000
  band No.  band energies     occupation 
      1      -7.1663      2.00000
      2      -6.6065      2.00000
      3      -5.7574      2.00000
      4      -4.8294      2.00000
      5      -4.1791      2.00000
      6      -4.0371      2.00000
      7      -3.6374      2.00000
      8      -3.6059      2.00000
      9      -3.4727      2.00000
     10      -3.3736      2.00000
     11      -3.3469      2.00000
     12      -3.2510      2.00000
     13      -3.0477      2.00000
     14      -2.9911      2.00000
     15      -2.9537      2.00000
     16      -2.8574      2.00000
     17      -2.7991      2.00000
     18      -2.6545      2.00000
     19      -2.5577      2.00000
     20      -2.4719      2.00000
     21      -2.4150      2.00000
     22      -2.3592      2.00000
     23      -2.3322      2.00000
     24      -2.2212      2.00000
     25      -2.1954      2.00000
     26      -2.0299      2.00000
     27      -1.9952      2.00000
     28      -1.9723      2.00000
     29      -1.8399      2.00000
     30      -1.8342      2.00000
     31      -1.7594      2.00000
     32      -1.6917      2.00000
     33      -1.6609      2.00000
     34      -1.1418      2.14424
     35      -0.0944      1.17779
     36       1.4944      0.00000
     37       2.8002      0.00000
     38       5.5937      0.00000
     39       6.0619      0.00000
     40       7.4625      0.00000

 k-point   6 :       0.4286    0.1429    0.0000
  band No.  band energies     occupation 
      1      -5.2805      2.00000
      2      -4.9801      2.00000
      3      -4.6369      2.00000
      4      -4.3355      2.00000
      5      -4.0687      2.00000
      6      -3.9874      2.00000
      7      -3.8422      2.00000
      8      -3.6893      2.00000
      9      -3.5638      2.00000
     10      -3.4321      2.00000
     11      -3.3058      2.00000
     12      -3.2152      2.00000
     13      -3.0562      2.00000
     14      -3.0436      2.00000
     15      -2.8566      2.00000
     16      -2.7598      2.00000
     17      -2.6843      2.00000
     18      -2.6058      2.00000
     19      -2.5612      2.00000
     20      -2.4488      2.00000
     21      -2.2780      2.00000
     22      -2.1401      2.00000
     23      -2.1302      2.00000
     24      -1.9949      2.00000
     25      -1.8813      2.00000
     26      -1.8613      2.00000
     27      -1.6581      2.00000
     28      -1.6282      2.00000
     29      -1.5812      2.00000
     30      -1.5362      2.00000
     31      -1.1027      2.01216
     32      -0.9647      1.89889
     33      -0.6085      1.66601
     34       0.3156      0.52726
     35       1.7679     -0.07891
     36       3.5725      0.00000
     37       5.4198      0.00000
     38       6.4098      0.00000
     39       6.9746      0.00000
     40       7.7032      0.00000

 k-point   7 :      -0.4286    0.1429    0.0000
  band No.  band energies     occupation 
      1      -4.6097      2.00000
      2      -4.5072      2.00000
      3      -4.3338      2.00000
      4      -4.3060      2.00000
      5      -4.1503      2.00000
      6      -3.9995      2.00000
      7      -3.9704      2.00000
      8      -3.8723      2.00000
      9      -3.6535      2.00000
     10      -3.4320      2.00000
     11      -3.2678      2.00000
     12      -3.0910      2.00000
     13      -3.0343      2.00000
     14      -2.8897      2.00000
     15      -2.7983      2.00000
     16      -2.7021      2.00000
     17      -2.6461      2.00000
     18      -2.4291      2.00000
     19      -2.3032      2.00000
     20      -2.1280      2.00000
     21      -2.0626      2.00000
     22      -2.0121      2.00000
     23      -1.8441      2.00000
     24      -1.7859      2.00000
     25      -1.7156      2.00000
     26      -1.6614      2.00000
     27      -1.6562      2.00000
     28      -1.6164      2.00000
     29      -1.5478      2.00000
     30      -1.5144      2.00000
     31       0.7192      0.64040
     32       1.1262      0.16128
     33       1.5060     -0.21369
     34       1.8858      0.00000
     35       2.2729      0.00000
     36       2.5535      0.00000
     37       4.1858      0.00000
     38       4.9433      0.00000
     39       5.7343      0.00000
     40       6.4401      0.00000

 k-point   8 :      -0.4286    0.2857    0.0000
  band No.  band energies     occupation 
      1      -4.1443      2.00000
      2      -4.1377      2.00000
      3      -4.0589      2.00000
      4      -3.9811      2.00000
      5      -3.9621      2.00000
      6      -3.8224      2.00000
      7      -3.7727      2.00000
      8      -3.6401      2.00000
      9      -3.6169      2.00000
     10      -3.5218      2.00000
     11      -3.4741      2.00000
     12      -3.2733      2.00000
     13      -3.2257      2.00000
     14      -3.0519      2.00000
     15      -3.0466      2.00000
     16      -2.6973      2.00000
     17      -2.6809      2.00000
     18      -2.6542      2.00000
     19      -2.6516      2.00000
     20      -2.3844      2.00000
     21      -2.3278      2.00000
     22      -2.2174      2.00000
     23      -2.0975      2.00000
     24      -2.0728      2.00000
     25      -1.9070      2.00000
     26      -1.7628      2.00000
     27      -1.6489      2.00000
     28      -1.6316      2.00000
     29      -1.6063      2.00000
     30      -1.5405      2.00000
     31       1.0553      0.12256
     32       1.4517      0.00525
     33       2.1709     -0.12560
     34       3.2167      0.00000
     35       4.4432      0.00000
     36       5.0988      0.00000
     37       5.1814      0.00000
     38       5.5039      0.00000
     39       5.6290      0.00000
     40       6.2986      0.00000


--------------------------------------------------------------------------------------------------------


 soft charge-density along one line, spin component           1
         0         1         2         3         4         5         6         7         8         9
 total charge-density along one line
 
 pseudopotential strength for first ion, spin component:           1
 -9.041   0.000   0.000   0.000   0.000   0.000  -0.005   0.000   0.000   0.000   0.922   0.000   0.000   0.000   0.000   0.000
  0.000   0.000  -8.998   0.000   0.000   0.000   0.000   0.000  -0.005   0.000   0.000   0.000   0.901   0.000   0.000   0.000
  0.000   0.000   0.000   0.000  -8.991   0.000   0.000   0.000   0.000   0.000   0.000   0.000   0.000   0.000   0.898   0.000
 -0.005   0.000   0.000   0.000   0.000   0.000  -8.998   0.000   0.000   0.000   0.002   0.000   0.000   0.000   0.000   0.000
  0.000   0.000  -0.005   0.000   0.000   0.000   0.000   0.000  -9.041   0.000   0.000   0.000   0.002   0.000   0.000   0.000
  0.922   0.000   0.000   0.000   0.000   0.000   0.002   0.000   0.000   0.000   1.149   0.000   0.000   0.000   0.000   0.000
  0.000   0.000   0.901   0.000   0.000   0.000   0.000   0.000   0.002   0.000   0.000   0.000   1.159   0.000   0.000   0.000
  0.000   0.000   0.000   0.000   0.898   0.000   0.000   0.000   0.000   0.000   0.000   0.000   0.000   0.000   1.161   0.000
  0.002   0.000   0.000   0.000   0.000   0.000   0.901   0.000   0.000   0.000  -0.001   0.000   0.000   0.000   0.000   0.000
  0.000   0.000   0.002   0.000   0.000   0.000   0.000   0.000   0.922   0.000   0.000   0.000  -0.001   0.000   0.000   0.000
  0.000   0.000   0.000   0.000  -0.007   0.000   0.000   0.000   0.000   0.000   0.000   0.000   0.000   0.000   0.003   0.000
  0.000   0.000   0.000   0.000   0.000   0.000   0.000   0.000   0.000   0.000   0.000   0.000   0.000   0.000   0.000   0.000
  0.000   0.000  -0.010   0.000   0.000   0.000   0.000   0.000   0.000   0.000   0.000   0.000   0.006   0.000   0.000   0.000
  0.000   0.000   0.000   0.000  -0.010   0.000   0.000   0.000   0.000   0.000   0.000   0.000   0.000   0.000   0.006   0.000
  0.000   0.000   0.000   0.000   0.000   0.000  -0.010   0.000   0.000   0.000   0.000   0.000   0.000   0.000   0.000   0.000
  0.000   0.000   0.005   0.000   0.000   0.000   0.000   0.000   0.000   0.000   0.000   0.000  -0.002   0.000   0.000   0.000
  0.000   0.000   0.000   0.000   0.005   0.000   0.000   0.000   0.000   0.000   0.000   0.000   0.000   0.000  -0.003   0.000
  0.000   0.000   0.000   0.000   0.000   0.000   0.005   0.000   0.000   0.000   0.000   0.000   0.000   0.000   0.000   0.000
 total augmentation occupancy for first ion, spin component:           1
  1.906   0.000   0.000  -0.003   0.000  -0.021   0.000   0.000   0.010   0.000   0.000   0.000   0.000   0.000   0.007   0.000
  0.000   1.915   0.000   0.000  -0.003   0.000  -0.057   0.000   0.000   0.010   0.000   0.000  -0.002   0.000   0.000  -0.004
  0.000   0.000   1.920   0.000   0.000   0.000   0.000  -0.046   0.000   0.000   0.012   0.038   0.000   0.035   0.000   0.000
 -0.003   0.000   0.000   1.915   0.000   0.010   0.000   0.000  -0.057   0.000   0.000   0.000   0.000   0.000  -0.002   0.000
  0.000  -0.003   0.000   0.000   1.906   0.000   0.010   0.000   0.000  -0.021   0.000   0.000   0.007   0.000   0.000  -0.001
 -0.021   0.000   0.000   0.010   0.000   0.064   0.000   0.000   0.001   0.000   0.000   0.000   0.000   0.000   0.005   0.000
  0.000  -0.057   0.000   0.000   0.010   0.000   0.044   0.000   0.000   0.001   0.000   0.000   0.032   0.000   0.000  -0.003
  0.000   0.000  -0.046   0.000   0.000   0.000   0.000   0.061   0.000   0.000  -0.080   0.014   0.000   0.045   0.000   0.000
  0.010   0.000   0.000  -0.057   0.000   0.001   0.000   0.000   0.044   0.000   0.000   0.000   0.000   0.000   0.032   0.000
  0.000   0.010   0.000   0.000  -0.021   0.000   0.001   0.000   0.000   0.064   0.000   0.000   0.005   0.000   0.000   0.000
  0.000   0.000   0.012   0.000   0.000   0.000   0.000  -0.080   0.000   0.000   1.237  -0.288   0.000   0.068   0.000   0.000
  0.000   0.000   0.038   0.000   0.000   0.000   0.000   0.014   0.000   0.000  -0.288   0.112   0.000  -0.047   0.000   0.000
  0.000  -0.002   0.000   0.000   0.007   0.000   0.032   0.000   0.000   0.005   0.000   0.000   0.171   0.000   0.000  -0.011
  0.000   0.000   0.035   0.000   0.000   0.000   0.000   0.045   0.000   0.000   0.068  -0.047   0.000   0.098   0.000   0.000
  0.007   0.000   0.000  -0.002   0.000   0.005   0.000   0.000   0.032   0.000   0.000   0.000   0.000   0.000   0.171   0.000
  0.000  -0.004   0.000   0.000  -0.001   0.000  -0.003   0.000   0.000   0.000   0.000   0.000  -0.011   0.000   0.000   0.001
  0.000   0.000  -0.008   0.000   0.000   0.000   0.000  -0.002   0.000   0.000  -0.013   0.006   0.000  -0.007   0.000   0.000
 -0.001   0.000   0.000  -0.004   0.000   0.000   0.000   0.000  -0.003   0.000   0.000   0.000   0.000   0.000  -0.011   0.000


------------------------ aborting loop because EDIFF is reached ----------------------------------------


    CHARGE:  cpu time    0.10: real time    0.10
    FORLOC:  cpu time    0.01: real time    0.01
    FORNL :  cpu time    0.44: real time    0.44
    STRESS:  cpu time    1.12: real time    1.12
    FORCOR:  cpu time    0.13: real time    0.13
    FORHAR:  cpu time    0.04: real time    0.04
    MIXING:  cpu time    0.01: real time    0.01

  FORCE on cell =-STRESS in cart. coord.  units (eV):
  Direction    XX          YY          ZZ          XY          YZ          ZX
  --------------------------------------------------------------------------------------
  Alpha Z   357.41537   357.41537   357.41537
  Ewald   24210.90059 24210.90058-28595.57897     0.00000     0.00000     0.00000
  Hartree 26511.59540 26511.59539-25273.65845     0.00000     0.00000     0.00000
  E(xc)    -375.35925  -375.35908  -375.90239    -0.00014     0.00000     0.00000
  Local  -51292.15041-51292.15237 53297.91072     0.00170     0.00000     0.00000
  n-local  -226.01944  -216.49426  -222.39309     4.22873    -0.40333     0.13608
  augment   337.92083   337.92245   339.08833    -0.00139     0.00001     0.00001
  Kinetic   486.04081   453.87023   472.55914   -12.58812    -0.86165     0.56855
  Fock        0.00000     0.00000     0.00000     0.00000     0.00000     0.00000
  -------------------------------------------------------------------------------------
  Total      -0.97891    -0.97891    -0.55934     0.00000     0.00000     0.00000
  in kB     -12.18761   -12.18761    -6.96390     0.00000     0.00000     0.00000
  external pressure =      -10.45 kB  Pullay stress =        0.00 kB


 VOLUME and BASIS-vectors are now :
 -----------------------------------------------------------------------------
  energy-cutoff  :      415.00
  volume of cell :      128.69
      direct lattice vectors                 reciprocal lattice vectors
     2.565866355  0.000000000  0.000000000     0.389731912 -0.225011824  0.000000000
     1.282933180  2.222105448  0.000000000     0.000000000  0.450023648  0.000000000
     0.000000000  0.000000000 22.570126644     0.000000000  0.000000000  0.044306353

  length of vectors
     2.565866355  2.565866358 22.570126644     0.450023648  0.450023648  0.044306353


 FORCES acting on ions
    electron-ion (+dipol)            ewald-force                    non-local-force                 convergence-correction
 -----------------------------------------------------------------------------------------------
   -.179E-06 -.571E-07 0.424E+04   0.376E-07 -.355E-07 -.424E+04   0.867E-18 -.173E-17 -.111E+01   -.145E-08 -.836E-09 -.554E-02
   -.200E-06 -.116E-06 -.851E+03   -.434E-09 0.410E-09 0.851E+03   0.271E-18 0.108E-18 0.244E+00   -.307E-09 -.178E-09 -.228E-02
   -.401E-05 -.232E-05 0.255E+04   -.366E-09 0.156E-08 -.255E+04   -.291E-18 -.108E-18 -.626E+00   -.392E-09 -.228E-09 0.157E-02
   -.271E-05 -.156E-05 -.255E+04   0.198E-08 -.622E-09 0.255E+04   0.237E-18 0.149E-18 0.626E+00   0.423E-09 0.245E-09 -.158E-02
   0.503E-05 0.290E-05 0.851E+03   -.364E-09 -.871E-09 -.851E+03   -.379E-18 -.108E-18 -.244E+00   0.313E-09 0.182E-09 0.227E-02
   0.242E-05 0.135E-05 -.424E+04   -.384E-07 0.350E-07 0.424E+04   0.260E-17 0.173E-17 0.111E+01   0.145E-08 0.836E-09 0.553E-02
 -----------------------------------------------------------------------------------------------
   0.341E-06 0.197E-06 0.103E-02   0.331E-13 -.695E-13 0.000E+00   0.331E-17 0.407E-19 0.000E+00   0.350E-10 0.202E-10 -.365E-04
 
 
 POSITION                                       TOTAL-FORCE (eV/Angst)
 -----------------------------------------------------------------------------------
      0.00000      0.00000      0.00348         0.000000      0.000000      0.048712
      0.00000      0.00000      6.28461         0.000000      0.000000      0.006601
      1.28293      0.74070      2.09153         0.000000      0.000000     -0.034749
      1.28293      0.74070      8.38357         0.000000      0.000000      0.034749
      2.56587      1.48140      4.19049         0.000000      0.000000     -0.006601
      2.56587      1.48140     10.47163         0.000000      0.000000     -0.048712
 -----------------------------------------------------------------------------------
    total drift:                                0.000000      0.000000      0.000994


--------------------------------------------------------------------------------------------------------



  FREE ENERGIE OF THE ION-ELECTRON SYSTEM (eV)
  ---------------------------------------------------
  free  energy   TOTEN  =       -21.40748152 eV

  energy  without entropy=      -21.40748152  energy(sigma->0) =      -21.40748152
 
 d Force = 0.4240613E-03[ 0.345E-03, 0.503E-03]  d Energy = 0.1770220E-03 0.247E-03
 d Force =-0.7483744E+01[-0.749E+01,-0.748E+01]  d Ewald  =-0.7483745E+01 0.117E-05


--------------------------------------------------------------------------------------------------------


    POTLOK:  cpu time    0.14: real time    0.13


--------------------------------------------------------------------------------------------------------




--------------------------------------------------------------------------------------------------------


    WAVPRE:  cpu time    0.03: real time    0.03
 FEWALD executed in parallel
    FEWALD:  cpu time    0.00: real time    0.00
    ORTHCH:  cpu time    0.10: real time    0.10
     LOOP+:  cpu time   15.15: real time   15.56


----------------------------------------- Iteration    5(   1)  ---------------------------------------


    POTLOK:  cpu time    0.12: real time    0.12
    SETDIJ:  cpu time    0.01: real time    0.01
     EDDAV:  cpu time    1.57: real time    1.56
 BZINTS: Fermi energy:  0.093953; 66.000000 electrons
         Band energy:-189.730302;  BLOECHL correction: -0.578056
       DOS:  cpu time    0.00: real time    0.00
    CHARGE:  cpu time    0.10: real time    0.10
    MIXING:  cpu time    0.00: real time    0.01
    --------------------------------------------
      LOOP:  cpu time    1.81: real time    1.82

 eigenvalue-minimisations  :   640
 total energy-change (2. order) : 0.3107847E-03  (-0.3734073E-01)
 number of electron      66.0000002 magnetization 
 augmentation part       43.1948934 magnetization 

 Broyden mixing:
  rms(total) = 0.43644E-02    rms(broyden)= 0.43596E-02
  rms(prec ) = 0.45755E-02
  weight for this iteration     100.00

 Free energy of the ion-electron system (eV)
  ---------------------------------------------------
  alpha Z        PSCENC =       357.41536616
  Ewald energy   TEWEN  =     19841.24098161
  -1/2 Hartree   DENC   =    -27764.43605738
  -exchange  EXHF       =         0.00000000
  -V(xc)+E(xc)   XCENC  =       256.13812596
  PAW double counting   =      6562.51961799    -7430.38340792
  entropy T*S    EENTRO =         0.00000000
  eigenvalues    EBANDS =      -189.73030202
  atomic energy  EATOM  =      8345.82850422
  ---------------------------------------------------
  free energy    TOTEN  =       -21.40717139 eV

  energy without entropy =      -21.40717139  energy(sigma->0) =      -21.40717139


--------------------------------------------------------------------------------------------------------




----------------------------------------- Iteration    5(   2)  ---------------------------------------


    POTLOK:  cpu time    0.12: real time    0.12
    SETDIJ:  cpu time    0.01: real time    0.01
     EDDAV:  cpu time    1.66: real time    1.65
 BZINTS: Fermi energy:  0.094783; 66.000000 electrons
         Band energy:-189.674367;  BLOECHL correction: -0.578357
       DOS:  cpu time    0.00: real time    0.00
    CHARGE:  cpu time    0.11: real time    0.11
    MIXING:  cpu time    0.01: real time    0.01
    --------------------------------------------
      LOOP:  cpu time    1.90: real time    1.91

 eigenvalue-minimisations  :   696
 total energy-change (2. order) :-0.2403474E-03  (-0.1442168E-03)
 number of electron      66.0000001 magnetization 
 augmentation part       43.1959504 magnetization 

 Broyden mixing:
  rms(total) = 0.33863E-02    rms(broyden)= 0.33859E-02
  rms(prec ) = 0.36524E-02
  weight for this iteration     100.00

 eigenvalues of (default mixing * dielectric matrix)
  average eigenvalue GAMMA=   0.8736
  0.8736

 Free energy of the ion-electron system (eV)
  ---------------------------------------------------
  alpha Z        PSCENC =       357.41536616
  Ewald energy   TEWEN  =     19841.24098161
  -1/2 Hartree   DENC   =    -27764.49539845
  -exchange  EXHF       =         0.00000000
  -V(xc)+E(xc)   XCENC  =       256.13546980
  PAW double counting   =      6562.71572909    -7430.57369696
  entropy T*S    EENTRO =         0.00000000
  eigenvalues    EBANDS =      -189.67436720
  atomic energy  EATOM  =      8345.82850422
  ---------------------------------------------------
  free energy    TOTEN  =       -21.40741173 eV

  energy without entropy =      -21.40741173  energy(sigma->0) =      -21.40741173


--------------------------------------------------------------------------------------------------------




----------------------------------------- Iteration    5(   3)  ---------------------------------------


    POTLOK:  cpu time    0.11: real time    0.11
    SETDIJ:  cpu time    0.01: real time    0.01
     EDDAV:  cpu time    1.66: real time    1.66
 BZINTS: Fermi energy:  0.093666; 66.000000 electrons
         Band energy:-189.765858;  BLOECHL correction: -0.578001
       DOS:  cpu time    0.00: real time    0.00
    CHARGE:  cpu time    0.10: real time    0.10
    MIXING:  cpu time    0.01: real time    0.01
    --------------------------------------------
      LOOP:  cpu time    1.90: real time    1.97

 eigenvalue-minimisations  :   680
 total energy-change (2. order) : 0.1593597E-03  (-0.2985514E-04)
 number of electron      66.0000002 magnetization 
 augmentation part       43.1960084 magnetization 

 Broyden mixing:
  rms(total) = 0.31713E-02    rms(broyden)= 0.31712E-02
  rms(prec ) = 0.36719E-02
  weight for this iteration     100.00

 eigenvalues of (default mixing * dielectric matrix)
  average eigenvalue GAMMA=   1.3896
  2.4403  0.3390

 Free energy of the ion-electron system (eV)
  ---------------------------------------------------
  alpha Z        PSCENC =       357.41536616
  Ewald energy   TEWEN  =     19841.24098161
  -1/2 Hartree   DENC   =    -27764.39379963
  -exchange  EXHF       =         0.00000000
  -V(xc)+E(xc)   XCENC  =       256.13579542
  PAW double counting   =      6562.85310514    -7430.72134724
  entropy T*S    EENTRO =         0.00000000
  eigenvalues    EBANDS =      -189.76585804
  atomic energy  EATOM  =      8345.82850422
  ---------------------------------------------------
  free energy    TOTEN  =       -21.40725237 eV

  energy without entropy =      -21.40725237  energy(sigma->0) =      -21.40725237


--------------------------------------------------------------------------------------------------------




----------------------------------------- Iteration    5(   4)  ---------------------------------------


    POTLOK:  cpu time    0.12: real time    0.12
    SETDIJ:  cpu time    0.01: real time    0.01
     EDDAV:  cpu time    1.63: real time    1.63
 BZINTS: Fermi energy:  0.095716; 66.000000 electrons
         Band energy:-189.600851;  BLOECHL correction: -0.578231
       DOS:  cpu time    0.00: real time    0.00
    CHARGE:  cpu time    0.11: real time    0.11
    MIXING:  cpu time    0.01: real time    0.01
    --------------------------------------------
      LOOP:  cpu time    1.88: real time    1.90

 eigenvalue-minimisations  :   680
 total energy-change (2. order) :-0.1251481E-03  (-0.9167572E-05)
 number of electron      66.0000002 magnetization 
 augmentation part       43.1949708 magnetization 

 Broyden mixing:
  rms(total) = 0.14497E-02    rms(broyden)= 0.14497E-02
  rms(prec ) = 0.17329E-02
  weight for this iteration     100.00

 eigenvalues of (default mixing * dielectric matrix)
  average eigenvalue GAMMA=   1.1225
  2.5733  0.4334  0.3609

 Free energy of the ion-electron system (eV)
  ---------------------------------------------------
  alpha Z        PSCENC =       357.41536616
  Ewald energy   TEWEN  =     19841.24098161
  -1/2 Hartree   DENC   =    -27764.53534456
  -exchange  EXHF       =         0.00000000
  -V(xc)+E(xc)   XCENC  =       256.13624436
  PAW double counting   =      6563.15747375    -7431.04975189
  entropy T*S    EENTRO =         0.00000000
  eigenvalues    EBANDS =      -189.60085118
  atomic energy  EATOM  =      8345.82850422
  ---------------------------------------------------
  free energy    TOTEN  =       -21.40737752 eV

  energy without entropy =      -21.40737752  energy(sigma->0) =      -21.40737752


--------------------------------------------------------------------------------------------------------




----------------------------------------- Iteration    5(   5)  ---------------------------------------


    POTLOK:  cpu time    0.12: real time    0.12
    SETDIJ:  cpu time    0.01: real time    0.01
     EDDAV:  cpu time    1.97: real time    1.97
 BZINTS: Fermi energy:  0.094901; 66.000000 electrons
         Band energy:-189.666952;  BLOECHL correction: -0.578172
       DOS:  cpu time    0.00: real time    0.00
    CHARGE:  cpu time    0.10: real time    0.10
    MIXING:  cpu time    0.00: real time    0.01
    --------------------------------------------
      LOOP:  cpu time    2.22: real time    2.30

 eigenvalue-minimisations  :   864
 total energy-change (2. order) : 0.4783783E-04  (-0.2820298E-05)
 number of electron      66.0000002 magnetization 
 augmentation part       43.1954420 magnetization 

 Broyden mixing:
  rms(total) = 0.41264E-03    rms(broyden)= 0.41256E-03
  rms(prec ) = 0.53792E-03
  weight for this iteration     100.00

 eigenvalues of (default mixing * dielectric matrix)
  average eigenvalue GAMMA=   1.0363
  2.5614  0.7710  0.3115  0.5013

 Free energy of the ion-electron system (eV)
  ---------------------------------------------------
  alpha Z        PSCENC =       357.41536616
  Ewald energy   TEWEN  =     19841.24098161
  -1/2 Hartree   DENC   =    -27764.47418590
  -exchange  EXHF       =         0.00000000
  -V(xc)+E(xc)   XCENC  =       256.13551587
  PAW double counting   =      6563.15643613    -7431.04299622
  entropy T*S    EENTRO =         0.00000000
  eigenvalues    EBANDS =      -189.66695154
  atomic energy  EATOM  =      8345.82850422
  ---------------------------------------------------
  free energy    TOTEN  =       -21.40732968 eV

  energy without entropy =      -21.40732968  energy(sigma->0) =      -21.40732968


--------------------------------------------------------------------------------------------------------




----------------------------------------- Iteration    5(   6)  ---------------------------------------


    POTLOK:  cpu time    0.12: real time    0.12
    SETDIJ:  cpu time    0.01: real time    0.01
     EDDAV:  cpu time    1.59: real time    1.59
 BZINTS: Fermi energy:  0.095029; 66.000000 electrons
         Band energy:-189.660945;  BLOECHL correction: -0.578227
       DOS:  cpu time    0.00: real time    0.00
    CHARGE:  cpu time    0.10: real time    0.10
    MIXING:  cpu time    0.01: real time    0.01
    --------------------------------------------
      LOOP:  cpu time    1.84: real time    1.85

 eigenvalue-minimisations  :   648
 total energy-change (2. order) :-0.1990523E-04  (-0.6045445E-06)
 number of electron      66.0000002 magnetization 
 augmentation part       43.1957418 magnetization 

 Broyden mixing:
  rms(total) = 0.23227E-03    rms(broyden)= 0.23225E-03
  rms(prec ) = 0.24605E-03
  weight for this iteration     100.00

 eigenvalues of (default mixing * dielectric matrix)
  average eigenvalue GAMMA=   0.9584
  2.5027  0.7902  0.7902  0.4023  0.3064

 Free energy of the ion-electron system (eV)
  ---------------------------------------------------
  alpha Z        PSCENC =       357.41536616
  Ewald energy   TEWEN  =     19841.24098161
  -1/2 Hartree   DENC   =    -27764.48542665
  -exchange  EXHF       =         0.00000000
  -V(xc)+E(xc)   XCENC  =       256.13501900
  PAW double counting   =      6563.14155085    -7431.02239970
  entropy T*S    EENTRO =         0.00000000
  eigenvalues    EBANDS =      -189.66094508
  atomic energy  EATOM  =      8345.82850422
  ---------------------------------------------------
  free energy    TOTEN  =       -21.40734959 eV

  energy without entropy =      -21.40734959  energy(sigma->0) =      -21.40734959


--------------------------------------------------------------------------------------------------------




----------------------------------------- Iteration    5(   7)  ---------------------------------------


    POTLOK:  cpu time    0.12: real time    0.13
    SETDIJ:  cpu time    0.01: real time    0.01
     EDDAV:  cpu time    1.15: real time    1.15
 BZINTS: Fermi energy:  0.095109; 66.000000 electrons
         Band energy:-189.653587;  BLOECHL correction: -0.578226
       DOS:  cpu time    0.00: real time    0.00
    CHARGE:  cpu time    0.10: real time    0.10
    MIXING:  cpu time    0.01: real time    0.01
    --------------------------------------------
      LOOP:  cpu time    1.39: real time    1.46

 eigenvalue-minimisations  :   384
 total energy-change (2. order) :-0.3671636E-05  (-0.1626637E-06)
 number of electron      66.0000002 magnetization 
 augmentation part       43.1956925 magnetization 

 Broyden mixing:
  rms(total) = 0.11467E-03    rms(broyden)= 0.11466E-03
  rms(prec ) = 0.12203E-03
  weight for this iteration     100.00

 eigenvalues of (default mixing * dielectric matrix)
  average eigenvalue GAMMA=   1.1189
  2.3015  2.0166  0.9400  0.7264  0.4220  0.3067

 Free energy of the ion-electron system (eV)
  ---------------------------------------------------
  alpha Z        PSCENC =       357.41536616
  Ewald energy   TEWEN  =     19841.24098161
  -1/2 Hartree   DENC   =    -27764.49177915
  -exchange  EXHF       =         0.00000000
  -V(xc)+E(xc)   XCENC  =       256.13514405
  PAW double counting   =      6563.14094110    -7431.02292431
  entropy T*S    EENTRO =         0.00000000
  eigenvalues    EBANDS =      -189.65358693
  atomic energy  EATOM  =      8345.82850422
  ---------------------------------------------------
  free energy    TOTEN  =       -21.40735326 eV

  energy without entropy =      -21.40735326  energy(sigma->0) =      -21.40735326


--------------------------------------------------------------------------------------------------------




----------------------------------------- Iteration    5(   8)  ---------------------------------------


    POTLOK:  cpu time    0.12: real time    0.12
    SETDIJ:  cpu time    0.01: real time    0.01
     EDDAV:  cpu time    1.09: real time    1.09
 BZINTS: Fermi energy:  0.095100; 66.000000 electrons
         Band energy:-189.654509;  BLOECHL correction: -0.578223
       DOS:  cpu time    0.00: real time    0.00
    CHARGE:  cpu time    0.10: real time    0.10
    MIXING:  cpu time    0.01: real time    0.01
    --------------------------------------------
      LOOP:  cpu time    1.34: real time    1.36

 eigenvalue-minimisations  :   360
 total energy-change (2. order) : 0.1184782E-05  (-0.2706438E-07)
 number of electron      66.0000002 magnetization 
 augmentation part       43.1957121 magnetization 

 Broyden mixing:
  rms(total) = 0.96140E-04    rms(broyden)= 0.96139E-04
  rms(prec ) = 0.10275E-03
  weight for this iteration     100.00

 eigenvalues of (default mixing * dielectric matrix)
  average eigenvalue GAMMA=   1.1845
  2.6177  2.6177  0.8769  0.7803  0.6731  0.3077  0.4181

 Free energy of the ion-electron system (eV)
  ---------------------------------------------------
  alpha Z        PSCENC =       357.41536616
  Ewald energy   TEWEN  =     19841.24098161
  -1/2 Hartree   DENC   =    -27764.49066931
  -exchange  EXHF       =         0.00000000
  -V(xc)+E(xc)   XCENC  =       256.13513061
  PAW double counting   =      6563.13889892    -7431.02105529
  entropy T*S    EENTRO =         0.00000000
  eigenvalues    EBANDS =      -189.65450899
  atomic energy  EATOM  =      8345.82850422
  ---------------------------------------------------
  free energy    TOTEN  =       -21.40735208 eV

  energy without entropy =      -21.40735208  energy(sigma->0) =      -21.40735208


--------------------------------------------------------------------------------------------------------




----------------------------------------- Iteration    5(   9)  ---------------------------------------


    POTLOK:  cpu time    0.12: real time    0.12
    SETDIJ:  cpu time    0.01: real time    0.01
     EDDAV:  cpu time    1.09: real time    1.09
 BZINTS: Fermi energy:  0.095201; 66.000000 electrons
         Band energy:-189.646467;  BLOECHL correction: -0.578228
       DOS:  cpu time    0.00: real time    0.00
    CHARGE:  cpu time    0.10: real time    0.10
    MIXING:  cpu time    0.01: real time    0.01
    --------------------------------------------
      LOOP:  cpu time    1.33: real time    1.40

 eigenvalue-minimisations  :   368
 total energy-change (2. order) :-0.5355876E-05  (-0.1915331E-07)
 number of electron      66.0000002 magnetization 
 augmentation part       43.1956702 magnetization 

 Broyden mixing:
  rms(total) = 0.42162E-04    rms(broyden)= 0.42157E-04
  rms(prec ) = 0.45551E-04
  weight for this iteration     100.00

 eigenvalues of (default mixing * dielectric matrix)
  average eigenvalue GAMMA=   1.1243
  2.5291  1.6792  1.6792  0.9059  0.9059  0.3079  0.5725  0.4149

 Free energy of the ion-electron system (eV)
  ---------------------------------------------------
  alpha Z        PSCENC =       357.41536616
  Ewald energy   TEWEN  =     19841.24098161
  -1/2 Hartree   DENC   =    -27764.49790970
  -exchange  EXHF       =         0.00000000
  -V(xc)+E(xc)   XCENC  =       256.13515521
  PAW double counting   =      6563.13637222    -7431.01935985
  entropy T*S    EENTRO =         0.00000000
  eigenvalues    EBANDS =      -189.64646730
  atomic energy  EATOM  =      8345.82850422
  ---------------------------------------------------
  free energy    TOTEN  =       -21.40735743 eV

  energy without entropy =      -21.40735743  energy(sigma->0) =      -21.40735743


--------------------------------------------------------------------------------------------------------




----------------------------------------- Iteration    5(  10)  ---------------------------------------


    POTLOK:  cpu time    0.14: real time    0.13
    SETDIJ:  cpu time    0.02: real time    0.02
     EDDAV:  cpu time    1.08: real time    1.08
 BZINTS: Fermi energy:  0.095182; 66.000000 electrons
         Band energy:-189.648667;  BLOECHL correction: -0.578230
       DOS:  cpu time    0.00: real time    0.00
    --------------------------------------------
      LOOP:  cpu time    1.24: real time    1.26

 eigenvalue-minimisations  :   368
 total energy-change (2. order) : 0.9522701E-06  (-0.4681434E-08)
 number of electron      66.0000002 magnetization 
 augmentation part       43.1956702 magnetization 

 Free energy of the ion-electron system (eV)
  ---------------------------------------------------
  alpha Z        PSCENC =       357.41536616
  Ewald energy   TEWEN  =     19841.24098161
  -1/2 Hartree   DENC   =    -27764.49649509
  -exchange  EXHF       =         0.00000000
  -V(xc)+E(xc)   XCENC  =       256.13507753
  PAW double counting   =      6563.13522503    -7431.01734940
  entropy T*S    EENTRO =         0.00000000
  eigenvalues    EBANDS =      -189.64866654
  atomic energy  EATOM  =      8345.82850422
  ---------------------------------------------------
  free energy    TOTEN  =       -21.40735648 eV

  energy without entropy =      -21.40735648  energy(sigma->0) =      -21.40735648


--------------------------------------------------------------------------------------------------------




 average (electrostatic) potential at core
  the test charge radii are     1.0053
  (the norm of the test charge is              1.0000)
       1 -43.4183       2 -43.6620       3 -43.6668       4 -43.6668       5 -43.6619
       6 -43.4182
 
 
 
 E-fermi :   0.0952     XC(G=0):  -7.8788     alpha+bet : -5.3032


 k-point   1 :       0.0000    0.0000    0.0000
  band No.  band energies     occupation 
      1      -9.0147      2.00000
      2      -8.3928      2.00000
      3      -7.4068      2.00000
      4      -6.2283      2.00000
      5      -5.3228      2.00000
      6      -5.0214      2.00000
      7      -3.1393      2.00000
      8      -3.1054      2.00000
      9      -2.9764      2.00000
     10      -2.9764      2.00000
     11      -2.9627      2.00000
     12      -2.9380      2.00000
     13      -2.9380      2.00000
     14      -2.8923      2.00000
     15      -2.8923      2.00000
     16      -2.8563      2.00000
     17      -2.8563      2.00000
     18      -2.8401      2.00000
     19      -2.6583      2.00000
     20      -2.6583      2.00000
     21      -2.6419      2.00000
     22      -2.6419      2.00000
     23      -2.3118      2.00000
     24      -2.1732      2.00000
     25      -2.1732      2.00000
     26      -2.1378      2.00000
     27      -2.1378      2.00000
     28      -2.0290      2.00000
     29      -2.0290      2.00000
     30      -1.8332      2.00000
     31      -1.8332      2.00000
     32      -1.6445      2.00000
     33      -1.6445      2.00000
     34      -1.5927      2.00000
     35      -1.5927      2.00000
     36      -0.8141      2.74068
     37      -0.3038      0.75175
     38       4.2320      0.00000
     39       4.2541      0.00000
     40       5.7359      0.00000

 k-point   2 :       0.1429    0.0000    0.0000
  band No.  band energies     occupation 
      1      -8.3721      2.00000
      2      -7.7664      2.00000
      3      -6.8107      2.00000
      4      -5.6818      2.00000
      5      -4.8492      2.00000
      6      -4.6247      2.00000
      7      -3.4029      2.00000
      8      -3.2938      2.00000
      9      -3.2181      2.00000
     10      -3.1495      2.00000
     11      -3.0906      2.00000
     12      -2.9981      2.00000
     13      -2.8773      2.00000
     14      -2.8397      2.00000
     15      -2.8111      2.00000
     16      -2.7889      2.00000
     17      -2.7625      2.00000
     18      -2.7180      2.00000
     19      -2.6864      2.00000
     20      -2.6708      2.00000
     21      -2.6572      2.00000
     22      -2.5099      2.00000
     23      -2.4538      2.00000
     24      -2.3377      2.00000
     25      -2.2683      2.00000
     26      -2.2300      2.00000
     27      -2.1353      2.00000
     28      -2.1230      2.00000
     29      -2.0109      2.00000
     30      -1.9966      2.00000
     31      -1.8312      2.00000
     32      -1.6742      2.00000
     33      -1.6429      2.00000
     34      -1.5832      2.00000
     35      -1.0157      2.12768
     36       0.2213      0.31445
     37       1.0430     -0.03753
     38       4.6837      0.00000
     39       4.8418      0.00000
     40       6.2929      0.00000

 k-point   3 :       0.2857    0.0000    0.0000
  band No.  band energies     occupation 
      1      -6.6300      2.00000
      2      -6.1321      2.00000
      3      -5.4078      2.00000
      4      -4.6771      2.00000
      5      -4.1828      2.00000
      6      -4.0087      2.00000
      7      -3.9053      2.00000
      8      -3.6903      2.00000
      9      -3.4731      2.00000
     10      -3.3626      2.00000
     11      -3.2469      2.00000
     12      -3.1694      2.00000
     13      -2.9507      2.00000
     14      -2.8454      2.00000
     15      -2.7829      2.00000
     16      -2.7429      2.00000
     17      -2.6077      2.00000
     18      -2.5974      2.00000
     19      -2.5511      2.00000
     20      -2.5169      2.00000
     21      -2.3795      2.00000
     22      -2.2439      2.00000
     23      -2.1532      2.00000
     24      -2.1460      2.00000
     25      -2.0678      2.00000
     26      -2.0626      2.00000
     27      -1.9558      2.00000
     28      -1.8723      2.00000
     29      -1.8328      2.00000
     30      -1.8015      2.00000
     31      -1.7643      2.00000
     32      -1.6395      2.00000
     33      -1.5620      2.00000
     34      -0.9974      2.15153
     35       0.2790      0.49017
     36       2.0065      0.00000
     37       3.5236      0.00000
     38       6.0292      0.00000
     39       6.6564      0.00000
     40       7.9653      0.00000

 k-point   4 :       0.4286    0.0000    0.0000
  band No.  band energies     occupation 
      1      -5.0208      2.00000
      2      -4.7834      2.00000
      3      -4.7364      2.00000
      4      -4.5266      2.00000
      5      -4.2566      2.00000
      6      -4.2014      2.00000
      7      -4.1212      2.00000
      8      -3.9856      2.00000
      9      -3.7313      2.00000
     10      -3.3608      2.00000
     11      -3.0819      2.00000
     12      -3.0058      2.00000
     13      -2.9075      2.00000
     14      -2.8678      2.00000
     15      -2.6867      2.00000
     16      -2.6753      2.00000
     17      -2.4312      2.00000
     18      -2.3694      2.00000
     19      -2.0811      2.00000
     20      -2.0140      2.00000
     21      -1.8309      2.00000
     22      -1.7558      2.00000
     23      -1.6743      2.00000
     24      -1.6632      2.00000
     25      -1.6336      2.00000
     26      -1.6264      2.00000
     27      -1.6025      2.00000
     28      -1.5409      2.00000
     29      -1.4087      2.00000
     30      -1.4048      2.00000
     31      -1.2014      2.07773
     32      -0.6910      1.94497
     33      -0.3042      1.63211
     34       0.6553      0.08079
     35       1.9651      0.00000
     36       2.9539      0.00000
     37       4.3668      0.00000
     38       5.0204      0.00000
     39       5.6423      0.00000
     40       6.3751      0.00000

 k-point   5 :       0.2857    0.1429    0.0000
  band No.  band energies     occupation 
      1      -7.1632      2.00000
      2      -6.6115      2.00000
      3      -5.7670      2.00000
      4      -4.8285      2.00000
      5      -4.1787      2.00000
      6      -4.0356      2.00000
      7      -3.6344      2.00000
      8      -3.6090      2.00000
      9      -3.4754      2.00000
     10      -3.3727      2.00000
     11      -3.3461      2.00000
     12      -3.2516      2.00000
     13      -3.0515      2.00000
     14      -2.9939      2.00000
     15      -2.9546      2.00000
     16      -2.8579      2.00000
     17      -2.7967      2.00000
     18      -2.6530      2.00000
     19      -2.5573      2.00000
     20      -2.4733      2.00000
     21      -2.4165      2.00000
     22      -2.3555      2.00000
     23      -2.3348      2.00000
     24      -2.2202      2.00000
     25      -2.1942      2.00000
     26      -2.0296      2.00000
     27      -1.9972      2.00000
     28      -1.9721      2.00000
     29      -1.8400      2.00000
     30      -1.8343      2.00000
     31      -1.7589      2.00000
     32      -1.6888      2.00000
     33      -1.6591      2.00000
     34      -1.1387      2.14390
     35      -0.0897      1.17188
     36       1.4991      0.00000
     37       2.8049      0.00000
     38       5.5981      0.00000
     39       6.0625      0.00000
     40       7.4619      0.00000

 k-point   6 :       0.4286    0.1429    0.0000
  band No.  band energies     occupation 
      1      -5.2770      2.00000
      2      -4.9826      2.00000
      3      -4.6429      2.00000
      4      -4.3384      2.00000
      5      -4.0697      2.00000
      6      -3.9848      2.00000
      7      -3.8434      2.00000
      8      -3.6917      2.00000
      9      -3.5683      2.00000
     10      -3.4376      2.00000
     11      -3.3069      2.00000
     12      -3.2130      2.00000
     13      -3.0536      2.00000
     14      -3.0441      2.00000
     15      -2.8574      2.00000
     16      -2.7593      2.00000
     17      -2.6860      2.00000
     18      -2.6095      2.00000
     19      -2.5637      2.00000
     20      -2.4499      2.00000
     21      -2.2805      2.00000
     22      -2.1390      2.00000
     23      -2.1276      2.00000
     24      -1.9942      2.00000
     25      -1.8786      2.00000
     26      -1.8601      2.00000
     27      -1.6556      2.00000
     28      -1.6268      2.00000
     29      -1.5812      2.00000
     30      -1.5350      2.00000
     31      -1.1007      2.01213
     32      -0.9650      1.90018
     33      -0.6106      1.66869
     34       0.3207      0.52421
     35       1.7744     -0.07770
     36       3.5762      0.00000
     37       5.4241      0.00000
     38       6.4130      0.00000
     39       6.9740      0.00000
     40       7.7022      0.00000

 k-point   7 :      -0.4286    0.1429    0.0000
  band No.  band energies     occupation 
      1      -4.6066      2.00000
      2      -4.5041      2.00000
      3      -4.3358      2.00000
      4      -4.3078      2.00000
      5      -4.1469      2.00000
      6      -4.0027      2.00000
      7      -3.9795      2.00000
      8      -3.8791      2.00000
      9      -3.6603      2.00000
     10      -3.4333      2.00000
     11      -3.2642      2.00000
     12      -3.0897      2.00000
     13      -3.0363      2.00000
     14      -2.8889      2.00000
     15      -2.7967      2.00000
     16      -2.7014      2.00000
     17      -2.6506      2.00000
     18      -2.4285      2.00000
     19      -2.3070      2.00000
     20      -2.1310      2.00000
     21      -2.0646      2.00000
     22      -2.0096      2.00000
     23      -1.8431      2.00000
     24      -1.7847      2.00000
     25      -1.7133      2.00000
     26      -1.6601      2.00000
     27      -1.6544      2.00000
     28      -1.6148      2.00000
     29      -1.5467      2.00000
     30      -1.5126      2.00000
     31       0.7214      0.64059
     32       1.1259      0.16420
     33       1.5043     -0.21018
     34       1.8853      0.00000
     35       2.2722      0.00000
     36       2.5537      0.00000
     37       4.1878      0.00000
     38       4.9489      0.00000
     39       5.7398      0.00000
     40       6.4403      0.00000

 k-point   8 :      -0.4286    0.2857    0.0000
  band No.  band energies     occupation 
      1      -4.1397      2.00000
      2      -4.1330      2.00000
      3      -4.0570      2.00000
      4      -3.9837      2.00000
      5      -3.9700      2.00000
      6      -3.8202      2.00000
      7      -3.7756      2.00000
      8      -3.6463      2.00000
      9      -3.6205      2.00000
     10      -3.5217      2.00000
     11      -3.4822      2.00000
     12      -3.2724      2.00000
     13      -3.2298      2.00000
     14      -3.0510      2.00000
     15      -3.0464      2.00000
     16      -2.7002      2.00000
     17      -2.6831      2.00000
     18      -2.6574      2.00000
     19      -2.6547      2.00000
     20      -2.3838      2.00000
     21      -2.3284      2.00000
     22      -2.2152      2.00000
     23      -2.0939      2.00000
     24      -2.0703      2.00000
     25      -1.9041      2.00000
     26      -1.7615      2.00000
     27      -1.6478      2.00000
     28      -1.6291      2.00000
     29      -1.6048      2.00000
     30      -1.5390      2.00000
     31       1.0577      0.12252
     32       1.4503      0.00635
     33       2.1678     -0.12490
     34       3.2201      0.00000
     35       4.4468      0.00000
     36       5.1017      0.00000
     37       5.1852      0.00000
     38       5.5024      0.00000
     39       5.6265      0.00000
     40       6.2973      0.00000


--------------------------------------------------------------------------------------------------------


 soft charge-density along one line, spin component           1
         0         1         2         3         4         5         6         7         8         9
 total charge-density along one line
 
 pseudopotential strength for first ion, spin component:           1
 -9.043   0.000   0.000   0.000   0.000   0.000  -0.005   0.000   0.000   0.000   0.923   0.000   0.000   0.000   0.000   0.000
  0.000   0.000  -9.000   0.000   0.000   0.000   0.000   0.000  -0.005   0.000   0.000   0.000   0.903   0.000   0.000   0.000
  0.000   0.000   0.000   0.000  -8.994   0.000   0.000   0.000   0.000   0.000   0.000   0.000   0.000   0.000   0.899   0.000
 -0.005   0.000   0.000   0.000   0.000   0.000  -9.000   0.000   0.000   0.000   0.002   0.000   0.000   0.000   0.000   0.000
  0.000   0.000  -0.005   0.000   0.000   0.000   0.000   0.000  -9.043   0.000   0.000   0.000   0.002   0.000   0.000   0.000
  0.923   0.000   0.000   0.000   0.000   0.000   0.002   0.000   0.000   0.000   1.149   0.000   0.000   0.000   0.000   0.000
  0.000   0.000   0.903   0.000   0.000   0.000   0.000   0.000   0.002   0.000   0.000   0.000   1.158   0.000   0.000   0.000
  0.000   0.000   0.000   0.000   0.899   0.000   0.000   0.000   0.000   0.000   0.000   0.000   0.000   0.000   1.160   0.000
  0.002   0.000   0.000   0.000   0.000   0.000   0.903   0.000   0.000   0.000  -0.001   0.000   0.000   0.000   0.000   0.000
  0.000   0.000   0.002   0.000   0.000   0.000   0.000   0.000   0.923   0.000   0.000   0.000  -0.001   0.000   0.000   0.000
  0.000   0.000   0.000   0.000  -0.007   0.000   0.000   0.000   0.000   0.000   0.000   0.000   0.000   0.000   0.003   0.000
  0.000   0.000   0.000   0.000   0.000   0.000   0.000   0.000   0.000   0.000   0.000   0.000   0.000   0.000   0.000   0.000
  0.000   0.000  -0.010   0.000   0.000   0.000   0.000   0.000   0.000   0.000   0.000   0.000   0.006   0.000   0.000   0.000
  0.000   0.000   0.000   0.000  -0.010   0.000   0.000   0.000   0.000   0.000   0.000   0.000   0.000   0.000   0.006   0.000
  0.000   0.000   0.000   0.000   0.000   0.000  -0.010   0.000   0.000   0.000   0.000   0.000   0.000   0.000   0.000   0.000
  0.000   0.000   0.005   0.000   0.000   0.000   0.000   0.000   0.000   0.000   0.000   0.000  -0.002   0.000   0.000   0.000
  0.000   0.000   0.000   0.000   0.005   0.000   0.000   0.000   0.000   0.000   0.000   0.000   0.000   0.000  -0.003   0.000
  0.000   0.000   0.000   0.000   0.000   0.000   0.005   0.000   0.000   0.000   0.000   0.000   0.000   0.000   0.000   0.000
 total augmentation occupancy for first ion, spin component:           1
  1.906   0.000   0.000  -0.003   0.000  -0.021   0.000   0.000   0.011   0.000   0.000   0.000   0.000   0.000   0.007   0.000
  0.000   1.915   0.000   0.000  -0.003   0.000  -0.056   0.000   0.000   0.011   0.000   0.000  -0.001   0.000   0.000  -0.004
  0.000   0.000   1.921   0.000   0.000   0.000   0.000  -0.046   0.000   0.000   0.012   0.038   0.000   0.036   0.000   0.000
 -0.003   0.000   0.000   1.915   0.000   0.011   0.000   0.000  -0.056   0.000   0.000   0.000   0.000   0.000  -0.001   0.000
  0.000  -0.003   0.000   0.000   1.906   0.000   0.011   0.000   0.000  -0.021   0.000   0.000   0.007   0.000   0.000  -0.001
 -0.021   0.000   0.000   0.011   0.000   0.064   0.000   0.000   0.001   0.000   0.000   0.000   0.000   0.000   0.005   0.000
  0.000  -0.056   0.000   0.000   0.011   0.000   0.044   0.000   0.000   0.001   0.000   0.000   0.032   0.000   0.000  -0.003
  0.000   0.000  -0.046   0.000   0.000   0.000   0.000   0.061   0.000   0.000  -0.079   0.014   0.000   0.045   0.000   0.000
  0.011   0.000   0.000  -0.056   0.000   0.001   0.000   0.000   0.044   0.000   0.000   0.000   0.000   0.000   0.032   0.000
  0.000   0.011   0.000   0.000  -0.021   0.000   0.001   0.000   0.000   0.064   0.000   0.000   0.005   0.000   0.000   0.000
  0.000   0.000   0.012   0.000   0.000   0.000   0.000  -0.079   0.000   0.000   1.238  -0.290   0.000   0.069   0.000   0.000
  0.000   0.000   0.038   0.000   0.000   0.000   0.000   0.014   0.000   0.000  -0.290   0.113   0.000  -0.047   0.000   0.000
  0.000  -0.001   0.000   0.000   0.007   0.000   0.032   0.000   0.000   0.005   0.000   0.000   0.171   0.000   0.000  -0.011
  0.000   0.000   0.036   0.000   0.000   0.000   0.000   0.045   0.000   0.000   0.069  -0.047   0.000   0.098   0.000   0.000
  0.007   0.000   0.000  -0.001   0.000   0.005   0.000   0.000   0.032   0.000   0.000   0.000   0.000   0.000   0.171   0.000
  0.000  -0.004   0.000   0.000  -0.001   0.000  -0.003   0.000   0.000   0.000   0.000   0.000  -0.011   0.000   0.000   0.001
  0.000   0.000  -0.008   0.000   0.000   0.000   0.000  -0.002   0.000   0.000  -0.013   0.006   0.000  -0.007   0.000   0.000
 -0.001   0.000   0.000  -0.004   0.000   0.000   0.000   0.000  -0.003   0.000   0.000   0.000   0.000   0.000  -0.011   0.000


------------------------ aborting loop because EDIFF is reached ----------------------------------------


    CHARGE:  cpu time    0.10: real time    0.10
    FORLOC:  cpu time    0.01: real time    0.01
    FORNL :  cpu time    0.40: real time    0.40
    STRESS:  cpu time    1.10: real time    1.10
    FORCOR:  cpu time    0.13: real time    0.13
    FORHAR:  cpu time    0.04: real time    0.04
    MIXING:  cpu time    0.01: real time    0.01

  FORCE on cell =-STRESS in cart. coord.  units (eV):
  Direction    XX          YY          ZZ          XY          YZ          ZX
  --------------------------------------------------------------------------------------
  Alpha Z   357.41537   357.41537   357.41537
  Ewald   24226.30653 24226.30653-28611.37538     0.00000     0.00000     0.00000
  Hartree 26526.80184 26526.80184-25289.10109     0.00000     0.00000     0.00000
  E(xc)    -375.36821  -375.36804  -375.90976    -0.00014     0.00000     0.00000
  Local  -51322.81249-51322.81446 53329.19321     0.00170     0.00000     0.00000
  n-local  -225.96727  -216.47320  -222.35214     4.22011    -0.40647     0.13617
  augment   337.93682   337.93843   339.06925    -0.00139     0.00001     0.00002
  Kinetic   486.08407   453.90847   472.56576   -12.59382    -0.86363     0.56828
  Fock        0.00000     0.00000     0.00000     0.00000     0.00000     0.00000
  -------------------------------------------------------------------------------------
  Total      -0.94421    -0.94421    -0.49478     0.00000     0.00000     0.00000
  in kB     -11.75563   -11.75563    -6.16014     0.00000     0.00000     0.00000
  external pressure =       -9.89 kB  Pullay stress =        0.00 kB


 VOLUME and BASIS-vectors are now :
 -----------------------------------------------------------------------------
  energy-cutoff  :      415.00
  volume of cell :      128.69
      direct lattice vectors                 reciprocal lattice vectors
     2.565866355  0.000000000  0.000000000     0.389731912 -0.225011824  0.000000000
     1.282933180  2.222105448  0.000000000     0.000000000  0.450023648  0.000000000
     0.000000000  0.000000000 22.570126644     0.000000000  0.000000000  0.044306353

  length of vectors
     2.565866355  2.565866358 22.570126644     0.450023648  0.450023648  0.044306353


 FORCES acting on ions
    electron-ion (+dipol)            ewald-force                    non-local-force                 convergence-correction
 -----------------------------------------------------------------------------------------------
   -.153E-06 -.412E-07 0.425E+04   0.384E-07 -.362E-07 -.425E+04   -.260E-17 0.000E+00 -.111E+01   -.287E-09 -.166E-09 0.319E-03
   -.193E-06 -.112E-06 -.852E+03   -.950E-09 0.898E-09 0.851E+03   0.108E-18 0.000E+00 0.245E+00   -.212E-09 -.123E-09 -.570E-03
   -.451E-05 -.261E-05 0.255E+04   -.156E-08 0.267E-08 -.255E+04   0.488E-18 -.325E-18 -.623E+00   0.802E-10 0.458E-10 0.962E-04
   -.304E-05 -.175E-05 -.255E+04   0.318E-08 -.173E-08 0.255E+04   -.651E-18 0.379E-18 0.623E+00   -.826E-10 -.473E-10 -.124E-03
   0.504E-05 0.291E-05 0.852E+03   0.162E-09 -.135E-08 -.851E+03   -.542E-19 0.000E+00 -.245E+00   0.210E-09 0.121E-09 0.548E-03
   0.260E-05 0.145E-05 -.425E+04   -.392E-07 0.357E-07 0.425E+04   0.347E-17 0.000E+00 0.111E+01   0.290E-09 0.167E-09 -.334E-03
 -----------------------------------------------------------------------------------------------
   -.260E-06 -.150E-06 0.137E-02   0.331E-13 -.695E-13 0.909E-12   0.759E-18 0.542E-19 0.000E+00   -.155E-11 -.137E-11 -.651E-04
 
 
 POSITION                                       TOTAL-FORCE (eV/Angst)
 -----------------------------------------------------------------------------------
      0.00000      0.00000      0.00765         0.000000      0.000000      0.019770
      0.00000      0.00000      6.28407         0.000000      0.000000      0.025478
      1.28293      0.74070      2.08735         0.000000      0.000000      0.011037
      1.28293      0.74070      8.38775         0.000000      0.000000     -0.011037
      2.56587      1.48140      4.19103         0.000000      0.000000     -0.025478
      2.56587      1.48140     10.46746         0.000000      0.000000     -0.019770
 -----------------------------------------------------------------------------------
    total drift:                                0.000000      0.000000      0.001301


--------------------------------------------------------------------------------------------------------



  FREE ENERGIE OF THE ION-ELECTRON SYSTEM (eV)
  ---------------------------------------------------
  free  energy   TOTEN  =       -21.40735648 eV

  energy  without entropy=      -21.40735648  energy(sigma->0) =      -21.40735648
 
 d Force = 0.3675391E-03[ 0.451E-04, 0.690E-03]  d Energy =-0.1250382E-03 0.493E-03
 d Force =-0.1501547E+02[-0.150E+02,-0.150E+02]  d Ewald  =-0.1501548E+02 0.954E-05


--------------------------------------------------------------------------------------------------------


    POTLOK:  cpu time    0.13: real time    0.13


--------------------------------------------------------------------------------------------------------




--------------------------------------------------------------------------------------------------------


    WAVPRE:  cpu time    0.03: real time    0.03
 FEWALD executed in parallel
    FEWALD:  cpu time    0.00: real time    0.00
    ORTHCH:  cpu time    0.15: real time    0.15
     LOOP+:  cpu time   18.95: real time   19.46


----------------------------------------- Iteration    6(   1)  ---------------------------------------


    POTLOK:  cpu time    0.12: real time    0.12
    SETDIJ:  cpu time    0.01: real time    0.01
     EDDAV:  cpu time    1.61: real time    1.61
 BZINTS: Fermi energy:  0.095250; 66.000000 electrons
         Band energy:-189.663343;  BLOECHL correction: -0.578092
       DOS:  cpu time    0.00: real time    0.00
    CHARGE:  cpu time    0.10: real time    0.10
    MIXING:  cpu time    0.01: real time    0.01
    --------------------------------------------
      LOOP:  cpu time    1.86: real time    1.87

 eigenvalue-minimisations  :   640
 total energy-change (2. order) : 0.3743762E-04  (-0.8454196E-03)
 number of electron      66.0000001 magnetization 
 augmentation part       43.1954252 magnetization 

 Broyden mixing:
  rms(total) = 0.64337E-03    rms(broyden)= 0.64283E-03
  rms(prec ) = 0.67892E-03
  weight for this iteration     100.00

 Free energy of the ion-electron system (eV)
  ---------------------------------------------------
  alpha Z        PSCENC =       357.41536616
  Ewald energy   TEWEN  =     19846.25412164
  -1/2 Hartree   DENC   =    -27769.49662633
  -exchange  EXHF       =         0.00000000
  -V(xc)+E(xc)   XCENC  =       256.13687814
  PAW double counting   =      6563.13508000    -7431.01730088
  entropy T*S    EENTRO =         0.00000000
  eigenvalues    EBANDS =      -189.66334294
  atomic energy  EATOM  =      8345.82850422
  ---------------------------------------------------
  free energy    TOTEN  =       -21.40731999 eV

  energy without entropy =      -21.40731999  energy(sigma->0) =      -21.40731999


--------------------------------------------------------------------------------------------------------




----------------------------------------- Iteration    6(   2)  ---------------------------------------


    POTLOK:  cpu time    0.12: real time    0.12
    SETDIJ:  cpu time    0.02: real time    0.01
     EDDAV:  cpu time    1.74: real time    1.75
 BZINTS: Fermi energy:  0.095335; 66.000000 electrons
         Band energy:-189.658729;  BLOECHL correction: -0.578148
       DOS:  cpu time    0.00: real time    0.00
    CHARGE:  cpu time    0.10: real time    0.10
    MIXING:  cpu time    0.00: real time    0.01
    --------------------------------------------
      LOOP:  cpu time    1.99: real time    2.00

 eigenvalue-minimisations  :   728
 total energy-change (2. order) :-0.2325624E-04  (-0.3188978E-05)
 number of electron      66.0000001 magnetization 
 augmentation part       43.1956337 magnetization 

 Broyden mixing:
  rms(total) = 0.64920E-03    rms(broyden)= 0.64913E-03
  rms(prec ) = 0.70756E-03
  weight for this iteration     100.00

 eigenvalues of (default mixing * dielectric matrix)
  average eigenvalue GAMMA=   0.4964
  0.4964

 Free energy of the ion-electron system (eV)
  ---------------------------------------------------
  alpha Z        PSCENC =       357.41536616
  Ewald energy   TEWEN  =     19846.25412164
  -1/2 Hartree   DENC   =    -27769.50243793
  -exchange  EXHF       =         0.00000000
  -V(xc)+E(xc)   XCENC  =       256.13642774
  PAW double counting   =      6563.16094186    -7431.04153772
  entropy T*S    EENTRO =         0.00000000
  eigenvalues    EBANDS =      -189.65872922
  atomic energy  EATOM  =      8345.82850422
  ---------------------------------------------------
  free energy    TOTEN  =       -21.40734325 eV

  energy without entropy =      -21.40734325  energy(sigma->0) =      -21.40734325


--------------------------------------------------------------------------------------------------------




----------------------------------------- Iteration    6(   3)  ---------------------------------------


    POTLOK:  cpu time    0.12: real time    0.12
    SETDIJ:  cpu time    0.01: real time    0.01
     EDDAV:  cpu time    1.59: real time    1.58
 BZINTS: Fermi energy:  0.095190; 66.000000 electrons
         Band energy:-189.670672;  BLOECHL correction: -0.578101
       DOS:  cpu time    0.00: real time    0.00
    CHARGE:  cpu time    0.11: real time    0.11
    MIXING:  cpu time    0.01: real time    0.01
    --------------------------------------------
      LOOP:  cpu time    1.83: real time    1.86

 eigenvalue-minimisations  :   648
 total energy-change (2. order) : 0.2276104E-04  (-0.6267026E-06)
 number of electron      66.0000001 magnetization 
 augmentation part       43.1956675 magnetization 

 Broyden mixing:
  rms(total) = 0.36560E-03    rms(broyden)= 0.36557E-03
  rms(prec ) = 0.40004E-03
  weight for this iteration     100.00

 eigenvalues of (default mixing * dielectric matrix)
  average eigenvalue GAMMA=   1.3353
  2.3103  0.3603

 Free energy of the ion-electron system (eV)
  ---------------------------------------------------
  alpha Z        PSCENC =       357.41536616
  Ewald energy   TEWEN  =     19846.25412164
  -1/2 Hartree   DENC   =    -27769.48932293
  -exchange  EXHF       =         0.00000000
  -V(xc)+E(xc)   XCENC  =       256.13648687
  PAW double counting   =      6563.17336974    -7431.05517394
  entropy T*S    EENTRO =         0.00000000
  eigenvalues    EBANDS =      -189.67067225
  atomic energy  EATOM  =      8345.82850422
  ---------------------------------------------------
  free energy    TOTEN  =       -21.40732049 eV

  energy without entropy =      -21.40732049  energy(sigma->0) =      -21.40732049


--------------------------------------------------------------------------------------------------------




----------------------------------------- Iteration    6(   4)  ---------------------------------------


    POTLOK:  cpu time    0.12: real time    0.12
    SETDIJ:  cpu time    0.01: real time    0.01
     EDDAV:  cpu time    1.18: real time    1.18
 BZINTS: Fermi energy:  0.095569; 66.000000 electrons
         Band energy:-189.639705;  BLOECHL correction: -0.578122
       DOS:  cpu time    0.00: real time    0.00
    CHARGE:  cpu time    0.12: real time    0.12
    MIXING:  cpu time    0.00: real time    0.01
    --------------------------------------------
      LOOP:  cpu time    1.44: real time    1.45

 eigenvalue-minimisations  :   416
 total energy-change (2. order) :-0.1790129E-04  (-0.2023804E-06)
 number of electron      66.0000001 magnetization 
 augmentation part       43.1954195 magnetization 

 Broyden mixing:
  rms(total) = 0.29506E-03    rms(broyden)= 0.29505E-03
  rms(prec ) = 0.37474E-03
  weight for this iteration     100.00

 eigenvalues of (default mixing * dielectric matrix)
  average eigenvalue GAMMA=   1.1046
  2.5658  0.4127  0.3352

 Free energy of the ion-electron system (eV)
  ---------------------------------------------------
  alpha Z        PSCENC =       357.41536616
  Ewald energy   TEWEN  =     19846.25412164
  -1/2 Hartree   DENC   =    -27769.51452778
  -exchange  EXHF       =         0.00000000
  -V(xc)+E(xc)   XCENC  =       256.13672622
  PAW double counting   =      6563.22610306    -7431.11392654
  entropy T*S    EENTRO =         0.00000000
  eigenvalues    EBANDS =      -189.63970536
  atomic energy  EATOM  =      8345.82850422
  ---------------------------------------------------
  free energy    TOTEN  =       -21.40733839 eV

  energy without entropy =      -21.40733839  energy(sigma->0) =      -21.40733839


--------------------------------------------------------------------------------------------------------




----------------------------------------- Iteration    6(   5)  ---------------------------------------


    POTLOK:  cpu time    0.12: real time    0.12
    SETDIJ:  cpu time    0.01: real time    0.01
     EDDAV:  cpu time    1.11: real time    1.11
 BZINTS: Fermi energy:  0.095411; 66.000000 electrons
         Band energy:-189.652495;  BLOECHL correction: -0.578106
       DOS:  cpu time    0.00: real time    0.00
    CHARGE:  cpu time    0.10: real time    0.10
    MIXING:  cpu time    0.01: real time    0.01
    --------------------------------------------
      LOOP:  cpu time    1.36: real time    1.42

 eigenvalue-minimisations  :   384
 total energy-change (2. order) : 0.1055930E-04  (-0.1119891E-06)
 number of electron      66.0000001 magnetization 
 augmentation part       43.1954693 magnetization 

 Broyden mixing:
  rms(total) = 0.83719E-04    rms(broyden)= 0.83703E-04
  rms(prec ) = 0.94694E-04
  weight for this iteration     100.00

 eigenvalues of (default mixing * dielectric matrix)
  average eigenvalue GAMMA=   1.0159
  2.6651  0.3100  0.5443  0.5443

 Free energy of the ion-electron system (eV)
  ---------------------------------------------------
  alpha Z        PSCENC =       357.41536616
  Ewald energy   TEWEN  =     19846.25412164
  -1/2 Hartree   DENC   =    -27769.50225753
  -exchange  EXHF       =         0.00000000
  -V(xc)+E(xc)   XCENC  =       256.13659805
  PAW double counting   =      6563.22914391    -7431.11630904
  entropy T*S    EENTRO =         0.00000000
  eigenvalues    EBANDS =      -189.65249524
  atomic energy  EATOM  =      8345.82850422
  ---------------------------------------------------
  free energy    TOTEN  =       -21.40732783 eV

  energy without entropy =      -21.40732783  energy(sigma->0) =      -21.40732783


--------------------------------------------------------------------------------------------------------




----------------------------------------- Iteration    6(   6)  ---------------------------------------


    POTLOK:  cpu time    0.11: real time    0.11
    SETDIJ:  cpu time    0.01: real time    0.01
     EDDAV:  cpu time    1.06: real time    1.06
 BZINTS: Fermi energy:  0.095388; 66.000000 electrons
         Band energy:-189.655650;  BLOECHL correction: -0.578116
       DOS:  cpu time    0.00: real time    0.00
    CHARGE:  cpu time    0.10: real time    0.10
    MIXING:  cpu time    0.00: real time    0.01
    --------------------------------------------
      LOOP:  cpu time    1.29: real time    1.31

 eigenvalue-minimisations  :   352
 total energy-change (2. order) :-0.1538130E-05  (-0.2853156E-07)
 number of electron      66.0000001 magnetization 
 augmentation part       43.1955802 magnetization 

 Broyden mixing:
  rms(total) = 0.69526E-04    rms(broyden)= 0.69524E-04
  rms(prec ) = 0.73627E-04
  weight for this iteration     100.00

 eigenvalues of (default mixing * dielectric matrix)
  average eigenvalue GAMMA=   0.9543
  2.5599  0.7690  0.7690  0.3767  0.2967

 Free energy of the ion-electron system (eV)
  ---------------------------------------------------
  alpha Z        PSCENC =       357.41536616
  Ewald energy   TEWEN  =     19846.25412164
  -1/2 Hartree   DENC   =    -27769.50076901
  -exchange  EXHF       =         0.00000000
  -V(xc)+E(xc)   XCENC  =       256.13642906
  PAW double counting   =      6563.22463653    -7431.10996757
  entropy T*S    EENTRO =         0.00000000
  eigenvalues    EBANDS =      -189.65565038
  atomic energy  EATOM  =      8345.82850422
  ---------------------------------------------------
  free energy    TOTEN  =       -21.40732937 eV

  energy without entropy =      -21.40732937  energy(sigma->0) =      -21.40732937


--------------------------------------------------------------------------------------------------------




----------------------------------------- Iteration    6(   7)  ---------------------------------------


    POTLOK:  cpu time    0.12: real time    0.12
    SETDIJ:  cpu time    0.01: real time    0.01
     EDDAV:  cpu time    0.95: real time    0.95
 BZINTS: Fermi energy:  0.095401; 66.000000 electrons
         Band energy:-189.654537;  BLOECHL correction: -0.578118
       DOS:  cpu time    0.00: real time    0.00
    CHARGE:  cpu time    0.08: real time    0.08
    MIXING:  cpu time    0.00: real time    0.01
    --------------------------------------------
      LOOP:  cpu time    1.18: real time    1.24

 eigenvalue-minimisations  :   344
 total energy-change (2. order) :-0.1288166E-05  (-0.1262560E-07)
 number of electron      66.0000001 magnetization 
 augmentation part       43.1955765 magnetization 

 Broyden mixing:
  rms(total) = 0.25575E-04    rms(broyden)= 0.25571E-04
  rms(prec ) = 0.27395E-04
  weight for this iteration     100.00

 eigenvalues of (default mixing * dielectric matrix)
  average eigenvalue GAMMA=   0.8926
  2.5042  0.8227  0.8227  0.4956  0.3005  0.4101

 Free energy of the ion-electron system (eV)
  ---------------------------------------------------
  alpha Z        PSCENC =       357.41536616
  Ewald energy   TEWEN  =     19846.25412164
  -1/2 Hartree   DENC   =    -27769.50203814
  -exchange  EXHF       =         0.00000000
  -V(xc)+E(xc)   XCENC  =       256.13642869
  PAW double counting   =      6563.22333476    -7431.10851129
  entropy T*S    EENTRO =         0.00000000
  eigenvalues    EBANDS =      -189.65453669
  atomic energy  EATOM  =      8345.82850422
  ---------------------------------------------------
  free energy    TOTEN  =       -21.40733066 eV

  energy without entropy =      -21.40733066  energy(sigma->0) =      -21.40733066


--------------------------------------------------------------------------------------------------------




----------------------------------------- Iteration    6(   8)  ---------------------------------------


    POTLOK:  cpu time    0.09: real time    0.09
    SETDIJ:  cpu time    0.01: real time    0.01
     EDDAV:  cpu time    0.92: real time    0.92
 BZINTS: Fermi energy:  0.095397; 66.000000 electrons
         Band energy:-189.654836;  BLOECHL correction: -0.578117
       DOS:  cpu time    0.00: real time    0.00
    --------------------------------------------
      LOOP:  cpu time    1.03: real time    1.05

 eigenvalue-minimisations  :   320
 total energy-change (2. order) : 0.2509914E-06  (-0.2855022E-08)
 number of electron      66.0000001 magnetization 
 augmentation part       43.1955765 magnetization 

 Free energy of the ion-electron system (eV)
  ---------------------------------------------------
  alpha Z        PSCENC =       357.41536616
  Ewald energy   TEWEN  =     19846.25412164
  -1/2 Hartree   DENC   =    -27769.50178700
  -exchange  EXHF       =         0.00000000
  -V(xc)+E(xc)   XCENC  =       256.13642996
  PAW double counting   =      6563.22299455    -7431.10812358
  entropy T*S    EENTRO =         0.00000000
  eigenvalues    EBANDS =      -189.65483635
  atomic energy  EATOM  =      8345.82850422
  ---------------------------------------------------
  free energy    TOTEN  =       -21.40733041 eV

  energy without entropy =      -21.40733041  energy(sigma->0) =      -21.40733041


--------------------------------------------------------------------------------------------------------




 average (electrostatic) potential at core
  the test charge radii are     1.0053
  (the norm of the test charge is              1.0000)
       1 -43.4185       2 -43.6616       3 -43.6672       4 -43.6672       5 -43.6615
       6 -43.4183
 
 
 
 E-fermi :   0.0954     XC(G=0):  -7.8781     alpha+bet : -5.3032


 k-point   1 :       0.0000    0.0000    0.0000
  band No.  band energies     occupation 
      1      -9.0147      2.00000
      2      -8.3942      2.00000
      3      -7.4063      2.00000
      4      -6.2288      2.00000
      5      -5.3228      2.00000
      6      -5.0214      2.00000
      7      -3.1384      2.00000
      8      -3.1059      2.00000
      9      -2.9763      2.00000
     10      -2.9763      2.00000
     11      -2.9624      2.00000
     12      -2.9380      2.00000
     13      -2.9380      2.00000
     14      -2.8925      2.00000
     15      -2.8925      2.00000
     16      -2.8566      2.00000
     17      -2.8565      2.00000
     18      -2.8399      2.00000
     19      -2.6585      2.00000
     20      -2.6585      2.00000
     21      -2.6421      2.00000
     22      -2.6420      2.00000
     23      -2.3119      2.00000
     24      -2.1728      2.00000
     25      -2.1728      2.00000
     26      -2.1382      2.00000
     27      -2.1382      2.00000
     28      -2.0290      2.00000
     29      -2.0290      2.00000
     30      -1.8334      2.00000
     31      -1.8334      2.00000
     32      -1.6444      2.00000
     33      -1.6444      2.00000
     34      -1.5926      2.00000
     35      -1.5926      2.00000
     36      -0.8136      2.73989
     37      -0.3032      0.75063
     38       4.2331      0.00000
     39       4.2551      0.00000
     40       5.7365      0.00000

 k-point   2 :       0.1429    0.0000    0.0000
  band No.  band energies     occupation 
      1      -8.3722      2.00000
      2      -7.7679      2.00000
      3      -6.8102      2.00000
      4      -5.6823      2.00000
      5      -4.8494      2.00000
      6      -4.6247      2.00000
      7      -3.4025      2.00000
      8      -3.2942      2.00000
      9      -3.2179      2.00000
     10      -3.1497      2.00000
     11      -3.0910      2.00000
     12      -2.9983      2.00000
     13      -2.8773      2.00000
     14      -2.8395      2.00000
     15      -2.8110      2.00000
     16      -2.7887      2.00000
     17      -2.7624      2.00000
     18      -2.7181      2.00000
     19      -2.6869      2.00000
     20      -2.6712      2.00000
     21      -2.6572      2.00000
     22      -2.5100      2.00000
     23      -2.4539      2.00000
     24      -2.3377      2.00000
     25      -2.2681      2.00000
     26      -2.2301      2.00000
     27      -2.1352      2.00000
     28      -2.1232      2.00000
     29      -2.0107      2.00000
     30      -1.9967      2.00000
     31      -1.8314      2.00000
     32      -1.6739      2.00000
     33      -1.6428      2.00000
     34      -1.5830      2.00000
     35      -1.0155      2.12807
     36       0.2219      0.31387
     37       1.0437     -0.03753
     38       4.6847      0.00000
     39       4.8430      0.00000
     40       6.2935      0.00000

 k-point   3 :       0.2857    0.0000    0.0000
  band No.  band energies     occupation 
      1      -6.6301      2.00000
      2      -6.1336      2.00000
      3      -5.4076      2.00000
      4      -4.6776      2.00000
      5      -4.1831      2.00000
      6      -4.0088      2.00000
      7      -3.9054      2.00000
      8      -3.6905      2.00000
      9      -3.4733      2.00000
     10      -3.3632      2.00000
     11      -3.2469      2.00000
     12      -3.1696      2.00000
     13      -2.9506      2.00000
     14      -2.8452      2.00000
     15      -2.7828      2.00000
     16      -2.7429      2.00000
     17      -2.6077      2.00000
     18      -2.5985      2.00000
     19      -2.5512      2.00000
     20      -2.5169      2.00000
     21      -2.3794      2.00000
     22      -2.2442      2.00000
     23      -2.1530      2.00000
     24      -2.1461      2.00000
     25      -2.0675      2.00000
     26      -2.0624      2.00000
     27      -1.9557      2.00000
     28      -1.8725      2.00000
     29      -1.8328      2.00000
     30      -1.8016      2.00000
     31      -1.7643      2.00000
     32      -1.6392      2.00000
     33      -1.5617      2.00000
     34      -0.9972      2.15169
     35       0.2800      0.48885
     36       2.0073      0.00000
     37       3.5243      0.00000
     38       6.0302      0.00000
     39       6.6575      0.00000
     40       7.9659      0.00000

 k-point   4 :       0.4286    0.0000    0.0000
  band No.  band energies     occupation 
      1      -5.0208      2.00000
      2      -4.7840      2.00000
      3      -4.7368      2.00000
      4      -4.5273      2.00000
      5      -4.2568      2.00000
      6      -4.2014      2.00000
      7      -4.1217      2.00000
      8      -3.9861      2.00000
      9      -3.7313      2.00000
     10      -3.3613      2.00000
     11      -3.0818      2.00000
     12      -3.0057      2.00000
     13      -2.9074      2.00000
     14      -2.8680      2.00000
     15      -2.6878      2.00000
     16      -2.6751      2.00000
     17      -2.4317      2.00000
     18      -2.3691      2.00000
     19      -2.0813      2.00000
     20      -2.0144      2.00000
     21      -1.8306      2.00000
     22      -1.7557      2.00000
     23      -1.6742      2.00000
     24      -1.6631      2.00000
     25      -1.6335      2.00000
     26      -1.6262      2.00000
     27      -1.6025      2.00000
     28      -1.5408      2.00000
     29      -1.4088      2.00000
     30      -1.4048      2.00000
     31      -1.2014      2.07775
     32      -0.6912      1.94522
     33      -0.3039      1.63201
     34       0.6551      0.08094
     35       1.9658      0.00000
     36       2.9542      0.00000
     37       4.3669      0.00000
     38       5.0209      0.00000
     39       5.6423      0.00000
     40       6.3759      0.00000

 k-point   5 :       0.2857    0.1429    0.0000
  band No.  band energies     occupation 
      1      -7.1633      2.00000
      2      -6.6130      2.00000
      3      -5.7666      2.00000
      4      -4.8291      2.00000
      5      -4.1789      2.00000
      6      -4.0357      2.00000
      7      -3.6350      2.00000
      8      -3.6085      2.00000
      9      -3.4756      2.00000
     10      -3.3729      2.00000
     11      -3.3462      2.00000
     12      -3.2520      2.00000
     13      -3.0515      2.00000
     14      -2.9939      2.00000
     15      -2.9545      2.00000
     16      -2.8584      2.00000
     17      -2.7966      2.00000
     18      -2.6528      2.00000
     19      -2.5575      2.00000
     20      -2.4732      2.00000
     21      -2.4167      2.00000
     22      -2.3556      2.00000
     23      -2.3349      2.00000
     24      -2.2204      2.00000
     25      -2.1941      2.00000
     26      -2.0297      2.00000
     27      -1.9973      2.00000
     28      -1.9720      2.00000
     29      -1.8400      2.00000
     30      -1.8343      2.00000
     31      -1.7586      2.00000
     32      -1.6888      2.00000
     33      -1.6590      2.00000
     34      -1.1385      2.14393
     35      -0.0889      1.17065
     36       1.4998      0.00000
     37       2.8056      0.00000
     38       5.5992      0.00000
     39       6.0636      0.00000
     40       7.4625      0.00000

 k-point   6 :       0.4286    0.1429    0.0000
  band No.  band energies     occupation 
      1      -5.2770      2.00000
      2      -4.9839      2.00000
      3      -4.6429      2.00000
      4      -4.3390      2.00000
      5      -4.0699      2.00000
      6      -3.9848      2.00000
      7      -3.8442      2.00000
      8      -3.6918      2.00000
      9      -3.5682      2.00000
     10      -3.4381      2.00000
     11      -3.3074      2.00000
     12      -3.2128      2.00000
     13      -3.0536      2.00000
     14      -3.0446      2.00000
     15      -2.8577      2.00000
     16      -2.7592      2.00000
     17      -2.6859      2.00000
     18      -2.6095      2.00000
     19      -2.5637      2.00000
     20      -2.4502      2.00000
     21      -2.2803      2.00000
     22      -2.1390      2.00000
     23      -2.1276      2.00000
     24      -1.9942      2.00000
     25      -1.8785      2.00000
     26      -1.8600      2.00000
     27      -1.6554      2.00000
     28      -1.6266      2.00000
     29      -1.5811      2.00000
     30      -1.5349      2.00000
     31      -1.1005      2.01217
     32      -0.9651      1.90042
     33      -0.6104      1.66868
     34       0.3206      0.52447
     35       1.7755     -0.07745
     36       3.5769      0.00000
     37       5.4247      0.00000
     38       6.4132      0.00000
     39       6.9736      0.00000
     40       7.7030      0.00000

 k-point   7 :      -0.4286    0.1429    0.0000
  band No.  band energies     occupation 
      1      -4.6065      2.00000
      2      -4.5041      2.00000
      3      -4.3368      2.00000
      4      -4.3088      2.00000
      5      -4.1468      2.00000
      6      -4.0032      2.00000
      7      -3.9795      2.00000
      8      -3.8796      2.00000
      9      -3.6602      2.00000
     10      -3.4339      2.00000
     11      -3.2638      2.00000
     12      -3.0904      2.00000
     13      -3.0368      2.00000
     14      -2.8888      2.00000
     15      -2.7962      2.00000
     16      -2.7017      2.00000
     17      -2.6510      2.00000
     18      -2.4288      2.00000
     19      -2.3067      2.00000
     20      -2.1310      2.00000
     21      -2.0647      2.00000
     22      -2.0097      2.00000
     23      -1.8430      2.00000
     24      -1.7845      2.00000
     25      -1.7134      2.00000
     26      -1.6600      2.00000
     27      -1.6541      2.00000
     28      -1.6147      2.00000
     29      -1.5466      2.00000
     30      -1.5125      2.00000
     31       0.7215      0.64079
     32       1.1255      0.16477
     33       1.5044     -0.21021
     34       1.8850      0.00000
     35       2.2722      0.00000
     36       2.5539      0.00000
     37       4.1880      0.00000
     38       4.9496      0.00000
     39       5.7400      0.00000
     40       6.4415      0.00000

 k-point   8 :      -0.4286    0.2857    0.0000
  band No.  band energies     occupation 
      1      -4.1389      2.00000
      2      -4.1335      2.00000
      3      -4.0577      2.00000
      4      -3.9841      2.00000
      5      -3.9711      2.00000
      6      -3.8207      2.00000
      7      -3.7755      2.00000
      8      -3.6469      2.00000
      9      -3.6214      2.00000
     10      -3.5218      2.00000
     11      -3.4824      2.00000
     12      -3.2729      2.00000
     13      -3.2300      2.00000
     14      -3.0510      2.00000
     15      -3.0462      2.00000
     16      -2.7003      2.00000
     17      -2.6832      2.00000
     18      -2.6575      2.00000
     19      -2.6549      2.00000
     20      -2.3837      2.00000
     21      -2.3280      2.00000
     22      -2.2151      2.00000
     23      -2.0939      2.00000
     24      -2.0701      2.00000
     25      -1.9040      2.00000
     26      -1.7614      2.00000
     27      -1.6475      2.00000
     28      -1.6290      2.00000
     29      -1.6046      2.00000
     30      -1.5389      2.00000
     31       1.0578      0.12257
     32       1.4498      0.00654
     33       2.1681     -0.12491
     34       3.2200      0.00000
     35       4.4472      0.00000
     36       5.1018      0.00000
     37       5.1856      0.00000
     38       5.5018      0.00000
     39       5.6261      0.00000
     40       6.2980      0.00000


--------------------------------------------------------------------------------------------------------


 soft charge-density along one line, spin component           1
         0         1         2         3         4         5         6         7         8         9
 total charge-density along one line
 
 pseudopotential strength for first ion, spin component:           1
 -9.043   0.000   0.000   0.000   0.000   0.000  -0.005   0.000   0.000   0.000   0.923   0.000   0.000   0.000   0.000   0.000
  0.000   0.000  -9.001   0.000   0.000   0.000   0.000   0.000  -0.005   0.000   0.000   0.000   0.903   0.000   0.000   0.000
  0.000   0.000   0.000   0.000  -8.994   0.000   0.000   0.000   0.000   0.000   0.000   0.000   0.000   0.000   0.899   0.000
 -0.005   0.000   0.000   0.000   0.000   0.000  -9.001   0.000   0.000   0.000   0.002   0.000   0.000   0.000   0.000   0.000
  0.000   0.000  -0.005   0.000   0.000   0.000   0.000   0.000  -9.043   0.000   0.000   0.000   0.002   0.000   0.000   0.000
  0.923   0.000   0.000   0.000   0.000   0.000   0.002   0.000   0.000   0.000   1.149   0.000   0.000   0.000   0.000   0.000
  0.000   0.000   0.903   0.000   0.000   0.000   0.000   0.000   0.002   0.000   0.000   0.000   1.158   0.000   0.000   0.000
  0.000   0.000   0.000   0.000   0.899   0.000   0.000   0.000   0.000   0.000   0.000   0.000   0.000   0.000   1.160   0.000
  0.002   0.000   0.000   0.000   0.000   0.000   0.903   0.000   0.000   0.000  -0.001   0.000   0.000   0.000   0.000   0.000
  0.000   0.000   0.002   0.000   0.000   0.000   0.000   0.000   0.923   0.000   0.000   0.000  -0.001   0.000   0.000   0.000
  0.000   0.000   0.000   0.000  -0.007   0.000   0.000   0.000   0.000   0.000   0.000   0.000   0.000   0.000   0.003   0.000
  0.000   0.000   0.000   0.000   0.000   0.000   0.000   0.000   0.000   0.000   0.000   0.000   0.000   0.000   0.000   0.000
  0.000   0.000  -0.010   0.000   0.000   0.000   0.000   0.000   0.000   0.000   0.000   0.000   0.006   0.000   0.000   0.000
  0.000   0.000   0.000   0.000  -0.010   0.000   0.000   0.000   0.000   0.000   0.000   0.000   0.000   0.000   0.006   0.000
  0.000   0.000   0.000   0.000   0.000   0.000  -0.010   0.000   0.000   0.000   0.000   0.000   0.000   0.000   0.000   0.000
  0.000   0.000   0.005   0.000   0.000   0.000   0.000   0.000   0.000   0.000   0.000   0.000  -0.002   0.000   0.000   0.000
  0.000   0.000   0.000   0.000   0.005   0.000   0.000   0.000   0.000   0.000   0.000   0.000   0.000   0.000  -0.003   0.000
  0.000   0.000   0.000   0.000   0.000   0.000   0.005   0.000   0.000   0.000   0.000   0.000   0.000   0.000   0.000   0.000
 total augmentation occupancy for first ion, spin component:           1
  1.906   0.000   0.000  -0.003   0.000  -0.021   0.000   0.000   0.011   0.000   0.000   0.000   0.000   0.000   0.007   0.000
  0.000   1.915   0.000   0.000  -0.003   0.000  -0.056   0.000   0.000   0.011   0.000   0.000  -0.001   0.000   0.000  -0.004
  0.000   0.000   1.921   0.000   0.000   0.000   0.000  -0.046   0.000   0.000   0.012   0.038   0.000   0.036   0.000   0.000
 -0.003   0.000   0.000   1.915   0.000   0.011   0.000   0.000  -0.056   0.000   0.000   0.000   0.000   0.000  -0.001   0.000
  0.000  -0.003   0.000   0.000   1.906   0.000   0.011   0.000   0.000  -0.021   0.000   0.000   0.007   0.000   0.000  -0.001
 -0.021   0.000   0.000   0.011   0.000   0.064   0.000   0.000   0.001   0.000   0.000   0.000   0.000   0.000   0.005   0.000
  0.000  -0.056   0.000   0.000   0.011   0.000   0.044   0.000   0.000   0.001   0.000   0.000   0.032   0.000   0.000  -0.003
  0.000   0.000  -0.046   0.000   0.000   0.000   0.000   0.062   0.000   0.000  -0.079   0.014   0.000   0.045   0.000   0.000
  0.011   0.000   0.000  -0.056   0.000   0.001   0.000   0.000   0.044   0.000   0.000   0.000   0.000   0.000   0.032   0.000
  0.000   0.011   0.000   0.000  -0.021   0.000   0.001   0.000   0.000   0.064   0.000   0.000   0.005   0.000   0.000   0.000
  0.000   0.000   0.012   0.000   0.000   0.000   0.000  -0.079   0.000   0.000   1.239  -0.290   0.000   0.069   0.000   0.000
  0.000   0.000   0.038   0.000   0.000   0.000   0.000   0.014   0.000   0.000  -0.290   0.113   0.000  -0.047   0.000   0.000
  0.000  -0.001   0.000   0.000   0.007   0.000   0.032   0.000   0.000   0.005   0.000   0.000   0.171   0.000   0.000  -0.011
  0.000   0.000   0.036   0.000   0.000   0.000   0.000   0.045   0.000   0.000   0.069  -0.047   0.000   0.098   0.000   0.000
  0.007   0.000   0.000  -0.001   0.000   0.005   0.000   0.000   0.032   0.000   0.000   0.000   0.000   0.000   0.171   0.000
  0.000  -0.004   0.000   0.000  -0.001   0.000  -0.003   0.000   0.000   0.000   0.000   0.000  -0.011   0.000   0.000   0.001
  0.000   0.000  -0.008   0.000   0.000   0.000   0.000  -0.002   0.000   0.000  -0.013   0.006   0.000  -0.007   0.000   0.000
 -0.001   0.000   0.000  -0.004   0.000   0.000   0.000   0.000  -0.003   0.000   0.000   0.000   0.000   0.000  -0.011   0.000


------------------------ aborting loop because EDIFF is reached ----------------------------------------


    CHARGE:  cpu time    0.10: real time    0.10
    FORLOC:  cpu time    0.01: real time    0.01
    FORNL :  cpu time    0.44: real time    0.44
    STRESS:  cpu time    1.11: real time    1.11
    FORCOR:  cpu time    0.11: real time    0.11
    FORHAR:  cpu time    0.04: real time    0.04
    MIXING:  cpu time    0.01: real time    0.01

  FORCE on cell =-STRESS in cart. coord.  units (eV):
  Direction    XX          YY          ZZ          XY          YZ          ZX
  --------------------------------------------------------------------------------------
  Alpha Z   357.41537   357.41537   357.41537
  Ewald   24231.37530 24231.37530-28616.49978     0.00000     0.00000     0.00000
  Hartree 26531.84673 26531.84673-25294.17974     0.00000     0.00000     0.00000
  E(xc)    -375.36955  -375.36939  -375.91090    -0.00014     0.00000     0.00000
  Local  -51332.93335-51332.93532 53339.39966     0.00171     0.00000     0.00000
  n-local  -225.96212  -216.47161  -222.34687     4.21924    -0.40679     0.13621
  augment   337.93852   337.94013   339.06753    -0.00139     0.00001     0.00002
  Kinetic   486.09017   453.91361   472.56818   -12.59445    -0.86393     0.56832
  Fock        0.00000     0.00000     0.00000     0.00000     0.00000     0.00000
  -------------------------------------------------------------------------------------
  Total      -0.94205    -0.94205    -0.48656     0.00000     0.00000     0.00000
  in kB     -11.72880   -11.72880    -6.05782     0.00000     0.00000     0.00000
  external pressure =       -9.84 kB  Pullay stress =        0.00 kB


 VOLUME and BASIS-vectors are now :
 -----------------------------------------------------------------------------
  energy-cutoff  :      415.00
  volume of cell :      128.69
      direct lattice vectors                 reciprocal lattice vectors
     2.565866355  0.000000000  0.000000000     0.389731912 -0.225011824  0.000000000
     1.282933180  2.222105448  0.000000000     0.000000000  0.450023648  0.000000000
     0.000000000  0.000000000 22.570126644     0.000000000  0.000000000  0.044306353

  length of vectors
     2.565866355  2.565866358 22.570126644     0.450023648  0.450023648  0.044306353


 FORCES acting on ions
    electron-ion (+dipol)            ewald-force                    non-local-force                 convergence-correction
 -----------------------------------------------------------------------------------------------
   -.148E-06 -.384E-07 0.425E+04   0.384E-07 -.363E-07 -.425E+04   0.694E-17 0.173E-17 -.111E+01   0.333E-09 0.192E-09 -.246E-02
   -.183E-06 -.107E-06 -.851E+03   -.772E-09 0.730E-09 0.851E+03   -.271E-18 -.217E-18 0.245E+00   0.359E-09 0.207E-09 -.832E-03
   -.450E-05 -.260E-05 0.255E+04   -.153E-08 0.265E-08 -.255E+04   -.217E-18 0.759E-18 -.624E+00   0.300E-09 0.173E-09 -.813E-03
   -.303E-05 -.175E-05 -.255E+04   0.316E-08 -.170E-08 0.255E+04   0.190E-18 -.596E-18 0.624E+00   -.297E-09 -.172E-09 0.795E-03
   0.506E-05 0.292E-05 0.851E+03   -.168E-10 -.119E-08 -.851E+03   0.379E-18 0.217E-18 -.245E+00   -.361E-09 -.209E-09 0.827E-03
   0.264E-05 0.147E-05 -.425E+04   -.393E-07 0.358E-07 0.425E+04   -.694E-17 -.173E-17 0.111E+01   -.333E-09 -.192E-09 0.245E-02
 -----------------------------------------------------------------------------------------------
   -.169E-06 -.973E-07 0.139E-02   0.331E-13 -.695E-13 0.909E-12   0.813E-19 0.163E-18 0.222E-15   -.106E-12 -.224E-12 -.362E-04
 
 
 POSITION                                       TOTAL-FORCE (eV/Angst)
 -----------------------------------------------------------------------------------
      0.00000      0.00000      0.00828         0.000000      0.000000      0.017875
      0.00000      0.00000      6.28469         0.000000      0.000000      0.018234
      1.28293      0.74070      2.08750         0.000000      0.000000      0.010211
      1.28293      0.74070      8.38761         0.000000      0.000000     -0.010211
      2.56587      1.48140      4.19041         0.000000      0.000000     -0.018234
      2.56587      1.48140     10.46683         0.000000      0.000000     -0.017875
 -----------------------------------------------------------------------------------
    total drift:                                0.000000      0.000000      0.001355


--------------------------------------------------------------------------------------------------------



  FREE ENERGIE OF THE ION-ELECTRON SYSTEM (eV)
  ---------------------------------------------------
  free  energy   TOTEN  =       -21.40733041 eV

  energy  without entropy=      -21.40733041  energy(sigma->0) =      -21.40733041
 
 d Force = 0.5391219E-04[ 0.481E-04, 0.597E-04]  d Energy =-0.2607287E-04 0.800E-04
 d Force =-0.5013140E+01[-0.501E+01,-0.501E+01]  d Ewald  =-0.5013140E+01-0.810E-08


--------------------------------------------------------------------------------------------------------


    POTLOK:  cpu time    0.14: real time    0.14


--------------------------------------------------------------------------------------------------------


 Conjugate gradient step on ions:
 trial-energy change:    0.000026  1 .order   -0.000054   -0.000060   -0.000048
  (g-gl).g = 0.745E-05      g.g   = 0.112E-04  gl.gl    = 0.101E-03
 g(Force)  = 0.112E-04   g(Stress)= 0.000E+00 ortho     = 0.375E-05
 gamma     =   0.07357
 trial     =   5.20000
 opt step  =  20.80000  (harmonic =  26.70153) maximal distance =0.00251583
 next E    =   -21.407510   (d E  =  -0.00015)


--------------------------------------------------------------------------------------------------------


    WAVPRE:  cpu time    0.03: real time    0.03
 FEWALD executed in parallel
    FEWALD:  cpu time    0.00: real time    0.00
    ORTHCH:  cpu time    0.14: real time    0.14
     LOOP+:  cpu time   14.12: real time   14.50


----------------------------------------- Iteration    7(   1)  ---------------------------------------


    POTLOK:  cpu time    0.12: real time    0.12
    SETDIJ:  cpu time    0.02: real time    0.02
     EDDAV:  cpu time    1.56: real time    1.57
 BZINTS: Fermi energy:  0.095601; 66.000000 electrons
         Band energy:-189.698962;  BLOECHL correction: -0.577704
       DOS:  cpu time    0.00: real time    0.00
    CHARGE:  cpu time    0.10: real time    0.10
    MIXING:  cpu time    0.00: real time    0.01
    --------------------------------------------
      LOOP:  cpu time    1.81: real time    1.83

 eigenvalue-minimisations  :   640
 total energy-change (2. order) : 0.1900163E-03  (-0.7608704E-02)
 number of electron      65.9999999 magnetization 
 augmentation part       43.1946751 magnetization 

 Broyden mixing:
  rms(total) = 0.19356E-02    rms(broyden)= 0.19340E-02
  rms(prec ) = 0.20427E-02
  weight for this iteration     100.00

 Free energy of the ion-electron system (eV)
  ---------------------------------------------------
  alpha Z        PSCENC =       357.41536616
  Ewald energy   TEWEN  =     19861.30257568
  -1/2 Hartree   DENC   =    -27784.51119179
  -exchange  EXHF       =         0.00000000
  -V(xc)+E(xc)   XCENC  =       256.14188698
  PAW double counting   =      6563.22326224    -7431.10858253
  entropy T*S    EENTRO =         0.00000000
  eigenvalues    EBANDS =      -189.69896160
  atomic energy  EATOM  =      8345.82850422
  ---------------------------------------------------
  free energy    TOTEN  =       -21.40714064 eV

  energy without entropy =      -21.40714064  energy(sigma->0) =      -21.40714064


--------------------------------------------------------------------------------------------------------




----------------------------------------- Iteration    7(   2)  ---------------------------------------


    POTLOK:  cpu time    0.11: real time    0.11
    SETDIJ:  cpu time    0.01: real time    0.01
     EDDAV:  cpu time    1.76: real time    1.75
 BZINTS: Fermi energy:  0.095798; 66.000000 electrons
         Band energy:-189.690396;  BLOECHL correction: -0.577878
       DOS:  cpu time    0.00: real time    0.00
    CHARGE:  cpu time    0.10: real time    0.10
    MIXING:  cpu time    0.00: real time    0.01
    --------------------------------------------
      LOOP:  cpu time    1.99: real time    2.04

 eigenvalue-minimisations  :   728
 total energy-change (2. order) :-0.8438884E-04  (-0.2882793E-04)
 number of electron      65.9999999 magnetization 
 augmentation part       43.1954035 magnetization 

 Broyden mixing:
  rms(total) = 0.19527E-02    rms(broyden)= 0.19526E-02
  rms(prec ) = 0.21221E-02
  weight for this iteration     100.00

 eigenvalues of (default mixing * dielectric matrix)
  average eigenvalue GAMMA=   0.4960
  0.4960

 Free energy of the ion-electron system (eV)
  ---------------------------------------------------
  alpha Z        PSCENC =       357.41536616
  Ewald energy   TEWEN  =     19861.30257568
  -1/2 Hartree   DENC   =    -27784.52458405
  -exchange  EXHF       =         0.00000000
  -V(xc)+E(xc)   XCENC  =       256.14038083
  PAW double counting   =      6563.29755851    -7431.17663039
  entropy T*S    EENTRO =         0.00000000
  eigenvalues    EBANDS =      -189.69039598
  atomic energy  EATOM  =      8345.82850422
  ---------------------------------------------------
  free energy    TOTEN  =       -21.40722503 eV

  energy without entropy =      -21.40722503  energy(sigma->0) =      -21.40722503


--------------------------------------------------------------------------------------------------------




----------------------------------------- Iteration    7(   3)  ---------------------------------------


    POTLOK:  cpu time    0.10: real time    0.10
    SETDIJ:  cpu time    0.01: real time    0.01
     EDDAV:  cpu time    1.66: real time    1.67
 BZINTS: Fermi energy:  0.095384; 66.000000 electrons
         Band energy:-189.724292;  BLOECHL correction: -0.577736
       DOS:  cpu time    0.00: real time    0.00
    CHARGE:  cpu time    0.10: real time    0.10
    MIXING:  cpu time    0.01: real time    0.01
    --------------------------------------------
      LOOP:  cpu time    1.89: real time    1.91

 eigenvalue-minimisations  :   680
 total energy-change (2. order) : 0.6841835E-04  (-0.5620013E-05)
 number of electron      65.9999999 magnetization 
 augmentation part       43.1954792 magnetization 

 Broyden mixing:
  rms(total) = 0.10954E-02    rms(broyden)= 0.10953E-02
  rms(prec ) = 0.11965E-02
  weight for this iteration     100.00

 eigenvalues of (default mixing * dielectric matrix)
  average eigenvalue GAMMA=   1.3117
  2.2599  0.3634

 Free energy of the ion-electron system (eV)
  ---------------------------------------------------
  alpha Z        PSCENC =       357.41536616
  Ewald energy   TEWEN  =     19861.30257568
  -1/2 Hartree   DENC   =    -27784.48675769
  -exchange  EXHF       =         0.00000000
  -V(xc)+E(xc)   XCENC  =       256.14059866
  PAW double counting   =      6563.33746865    -7431.22062013
  entropy T*S    EENTRO =         0.00000000
  eigenvalues    EBANDS =      -189.72429217
  atomic energy  EATOM  =      8345.82850422
  ---------------------------------------------------
  free energy    TOTEN  =       -21.40715661 eV

  energy without entropy =      -21.40715661  energy(sigma->0) =      -21.40715661


--------------------------------------------------------------------------------------------------------




----------------------------------------- Iteration    7(   4)  ---------------------------------------


    POTLOK:  cpu time    0.12: real time    0.12
    SETDIJ:  cpu time    0.01: real time    0.01
     EDDAV:  cpu time    1.64: real time    1.64
 BZINTS: Fermi energy:  0.096493; 66.000000 electrons
         Band energy:-189.632327;  BLOECHL correction: -0.577797
       DOS:  cpu time    0.00: real time    0.00
    CHARGE:  cpu time    0.10: real time    0.10
    MIXING:  cpu time    0.01: real time    0.01
    --------------------------------------------
      LOOP:  cpu time    1.89: real time    1.93

 eigenvalue-minimisations  :   672
 total energy-change (2. order) :-0.5290775E-04  (-0.1871592E-05)
 number of electron      65.9999999 magnetization 
 augmentation part       43.1946409 magnetization 

 Broyden mixing:
  rms(total) = 0.86930E-03    rms(broyden)= 0.86926E-03
  rms(prec ) = 0.11100E-02
  weight for this iteration     100.00

 eigenvalues of (default mixing * dielectric matrix)
  average eigenvalue GAMMA=   1.1055
  2.5535  0.4124  0.3507

 Free energy of the ion-electron system (eV)
  ---------------------------------------------------
  alpha Z        PSCENC =       357.41536616
  Ewald energy   TEWEN  =     19861.30257568
  -1/2 Hartree   DENC   =    -27784.56097812
  -exchange  EXHF       =         0.00000000
  -V(xc)+E(xc)   XCENC  =       256.14138508
  PAW double counting   =      6563.49954592    -7431.40128111
  entropy T*S    EENTRO =         0.00000000
  eigenvalues    EBANDS =      -189.63232735
  atomic energy  EATOM  =      8345.82850422
  ---------------------------------------------------
  free energy    TOTEN  =       -21.40720952 eV

  energy without entropy =      -21.40720952  energy(sigma->0) =      -21.40720952


--------------------------------------------------------------------------------------------------------




----------------------------------------- Iteration    7(   5)  ---------------------------------------


    POTLOK:  cpu time    0.10: real time    0.10
    SETDIJ:  cpu time    0.01: real time    0.01
     EDDAV:  cpu time    1.67: real time    1.67
 BZINTS: Fermi energy:  0.095963; 66.000000 electrons
         Band energy:-189.675547;  BLOECHL correction: -0.577749
       DOS:  cpu time    0.00: real time    0.00
    CHARGE:  cpu time    0.10: real time    0.10
    MIXING:  cpu time    0.00: real time    0.01
    --------------------------------------------
      LOOP:  cpu time    1.90: real time    1.96

 eigenvalue-minimisations  :   680
 total energy-change (2. order) : 0.3486846E-04  (-0.1031887E-05)
 number of electron      65.9999999 magnetization 
 augmentation part       43.1948886 magnetization 

 Broyden mixing:
  rms(total) = 0.25341E-03    rms(broyden)= 0.25336E-03
  rms(prec ) = 0.29747E-03
  weight for this iteration     100.00

 eigenvalues of (default mixing * dielectric matrix)
  average eigenvalue GAMMA=   1.0147
  2.6289  0.3165  0.5568  0.5568

 Free energy of the ion-electron system (eV)
  ---------------------------------------------------
  alpha Z        PSCENC =       357.41536616
  Ewald energy   TEWEN  =     19861.30257568
  -1/2 Hartree   DENC   =    -27784.51993955
  -exchange  EXHF       =         0.00000000
  -V(xc)+E(xc)   XCENC  =       256.14092513
  PAW double counting   =      6563.50803708    -7431.40709626
  entropy T*S    EENTRO =         0.00000000
  eigenvalues    EBANDS =      -189.67554712
  atomic energy  EATOM  =      8345.82850422
  ---------------------------------------------------
  free energy    TOTEN  =       -21.40717465 eV

  energy without entropy =      -21.40717465  energy(sigma->0) =      -21.40717465


--------------------------------------------------------------------------------------------------------




----------------------------------------- Iteration    7(   6)  ---------------------------------------


    POTLOK:  cpu time    0.12: real time    0.12
    SETDIJ:  cpu time    0.01: real time    0.01
     EDDAV:  cpu time    1.12: real time    1.12
 BZINTS: Fermi energy:  0.095923; 66.000000 electrons
         Band energy:-189.682374;  BLOECHL correction: -0.577782
       DOS:  cpu time    0.00: real time    0.00
    CHARGE:  cpu time    0.11: real time    0.11
    MIXING:  cpu time    0.01: real time    0.01
    --------------------------------------------
      LOOP:  cpu time    1.37: real time    1.39

 eigenvalue-minimisations  :   384
 total energy-change (2. order) :-0.7348468E-05  (-0.1640244E-06)
 number of electron      65.9999999 magnetization 
 augmentation part       43.1951695 magnetization 

 Broyden mixing:
  rms(total) = 0.19018E-03    rms(broyden)= 0.19018E-03
  rms(prec ) = 0.20125E-03
  weight for this iteration     100.00

 eigenvalues of (default mixing * dielectric matrix)
  average eigenvalue GAMMA=   0.9641
  2.5219  0.8026  0.8026  0.3895  0.3040

 Free energy of the ion-electron system (eV)
  ---------------------------------------------------
  alpha Z        PSCENC =       357.41536616
  Ewald energy   TEWEN  =     19861.30257568
  -1/2 Hartree   DENC   =    -27784.51794880
  -exchange  EXHF       =         0.00000000
  -V(xc)+E(xc)   XCENC  =       256.14043283
  PAW double counting   =      6563.49425515    -7431.38799317
  entropy T*S    EENTRO =         0.00000000
  eigenvalues    EBANDS =      -189.68237407
  atomic energy  EATOM  =      8345.82850422
  ---------------------------------------------------
  free energy    TOTEN  =       -21.40718200 eV

  energy without entropy =      -21.40718200  energy(sigma->0) =      -21.40718200


--------------------------------------------------------------------------------------------------------




----------------------------------------- Iteration    7(   7)  ---------------------------------------


    POTLOK:  cpu time    0.12: real time    0.12
    SETDIJ:  cpu time    0.01: real time    0.01
     EDDAV:  cpu time    1.02: real time    1.02
 BZINTS: Fermi energy:  0.095946; 66.000000 electrons
         Band energy:-189.680510;  BLOECHL correction: -0.577788
       DOS:  cpu time    0.00: real time    0.00
    CHARGE:  cpu time    0.10: real time    0.10
    MIXING:  cpu time    0.01: real time    0.01
    --------------------------------------------
      LOOP:  cpu time    1.26: real time    1.33

 eigenvalue-minimisations  :   320
 total energy-change (2. order) :-0.3420724E-05  (-0.8684937E-07)
 number of electron      65.9999999 magnetization 
 augmentation part       43.1952134 magnetization 

 Broyden mixing:
  rms(total) = 0.70466E-04    rms(broyden)= 0.70453E-04
  rms(prec ) = 0.74839E-04
  weight for this iteration     100.00

 eigenvalues of (default mixing * dielectric matrix)
  average eigenvalue GAMMA=   0.9534
  2.4755  0.8940  0.8940  0.7462  0.3057  0.4051

 Free energy of the ion-electron system (eV)
  ---------------------------------------------------
  alpha Z        PSCENC =       357.41536616
  Ewald energy   TEWEN  =     19861.30257568
  -1/2 Hartree   DENC   =    -27784.52058333
  -exchange  EXHF       =         0.00000000
  -V(xc)+E(xc)   XCENC  =       256.14041038
  PAW double counting   =      6563.49010605    -7431.38305462
  entropy T*S    EENTRO =         0.00000000
  eigenvalues    EBANDS =      -189.68050995
  atomic energy  EATOM  =      8345.82850422
  ---------------------------------------------------
  free energy    TOTEN  =       -21.40718542 eV

  energy without entropy =      -21.40718542  energy(sigma->0) =      -21.40718542


--------------------------------------------------------------------------------------------------------




----------------------------------------- Iteration    7(   8)  ---------------------------------------


    POTLOK:  cpu time    0.12: real time    0.12
    SETDIJ:  cpu time    0.01: real time    0.01
     EDDAV:  cpu time    1.06: real time    1.05
 BZINTS: Fermi energy:  0.095928; 66.000000 electrons
         Band energy:-189.681865;  BLOECHL correction: -0.577785
       DOS:  cpu time    0.00: real time    0.00
    CHARGE:  cpu time    0.10: real time    0.11
    MIXING:  cpu time    0.01: real time    0.01
    --------------------------------------------
      LOOP:  cpu time    1.30: real time    1.32

 eigenvalue-minimisations  :   352
 total energy-change (2. order) : 0.1515482E-05  (-0.1880623E-07)
 number of electron      65.9999999 magnetization 
 augmentation part       43.1952170 magnetization 

 Broyden mixing:
  rms(total) = 0.64949E-04    rms(broyden)= 0.64948E-04
  rms(prec ) = 0.69516E-04
  weight for this iteration     100.00

 eigenvalues of (default mixing * dielectric matrix)
  average eigenvalue GAMMA=   1.0720
  2.3261  1.6052  1.6052  0.6342  0.6342  0.3086  0.3902

 Free energy of the ion-electron system (eV)
  ---------------------------------------------------
  alpha Z        PSCENC =       357.41536616
  Ewald energy   TEWEN  =     19861.30257568
  -1/2 Hartree   DENC   =    -27784.51906562
  -exchange  EXHF       =         0.00000000
  -V(xc)+E(xc)   XCENC  =       256.14042813
  PAW double counting   =      6563.49053124    -7431.38365826
  entropy T*S    EENTRO =         0.00000000
  eigenvalues    EBANDS =      -189.68186545
  atomic energy  EATOM  =      8345.82850422
  ---------------------------------------------------
  free energy    TOTEN  =       -21.40718391 eV

  energy without entropy =      -21.40718391  energy(sigma->0) =      -21.40718391


--------------------------------------------------------------------------------------------------------




----------------------------------------- Iteration    7(   9)  ---------------------------------------


    POTLOK:  cpu time    0.12: real time    0.12
    SETDIJ:  cpu time    0.01: real time    0.01
     EDDAV:  cpu time    1.09: real time    1.09
 BZINTS: Fermi energy:  0.095959; 66.000000 electrons
         Band energy:-189.678887;  BLOECHL correction: -0.577783
       DOS:  cpu time    0.00: real time    0.00
    CHARGE:  cpu time    0.10: real time    0.10
    MIXING:  cpu time    0.01: real time    0.01
    --------------------------------------------
      LOOP:  cpu time    1.34: real time    1.39

 eigenvalue-minimisations  :   360
 total energy-change (2. order) :-0.1295944E-05  (-0.8321836E-08)
 number of electron      65.9999999 magnetization 
 augmentation part       43.1951627 magnetization 

 Broyden mixing:
  rms(total) = 0.42507E-04    rms(broyden)= 0.42504E-04
  rms(prec ) = 0.44896E-04
  weight for this iteration     100.00

 eigenvalues of (default mixing * dielectric matrix)
  average eigenvalue GAMMA=   1.1045
  2.3522  2.3522  1.0054  1.0054  0.7967  0.6241  0.3087  0.3915

 Free energy of the ion-electron system (eV)
  ---------------------------------------------------
  alpha Z        PSCENC =       357.41536616
  Ewald energy   TEWEN  =     19861.30257568
  -1/2 Hartree   DENC   =    -27784.52128816
  -exchange  EXHF       =         0.00000000
  -V(xc)+E(xc)   XCENC  =       256.14051646
  PAW double counting   =      6563.49423339    -7431.38820606
  entropy T*S    EENTRO =         0.00000000
  eigenvalues    EBANDS =      -189.67888689
  atomic energy  EATOM  =      8345.82850422
  ---------------------------------------------------
  free energy    TOTEN  =       -21.40718520 eV

  energy without entropy =      -21.40718520  energy(sigma->0) =      -21.40718520


--------------------------------------------------------------------------------------------------------




----------------------------------------- Iteration    7(  10)  ---------------------------------------


    POTLOK:  cpu time    0.12: real time    0.12
    SETDIJ:  cpu time    0.01: real time    0.01
     EDDAV:  cpu time    1.04: real time    1.04
 BZINTS: Fermi energy:  0.095959; 66.000000 electrons
         Band energy:-189.679244;  BLOECHL correction: -0.577787
       DOS:  cpu time    0.00: real time    0.00
    CHARGE:  cpu time    0.10: real time    0.10
    MIXING:  cpu time    0.01: real time    0.01
    --------------------------------------------
      LOOP:  cpu time    1.29: real time    1.32

 eigenvalue-minimisations  :   336
 total energy-change (2. order) :-0.1023647E-05  (-0.3093572E-08)
 number of electron      65.9999999 magnetization 
 augmentation part       43.1951993 magnetization 

 Broyden mixing:
  rms(total) = 0.41668E-05    rms(broyden)= 0.41601E-05
  rms(prec ) = 0.47262E-05
  weight for this iteration     100.00

 eigenvalues of (default mixing * dielectric matrix)
  average eigenvalue GAMMA=   1.0656
  2.4477  1.6902  1.3493  1.3493  0.3086  0.3922  0.6980  0.6980  0.6569

 Free energy of the ion-electron system (eV)
  ---------------------------------------------------
  alpha Z        PSCENC =       357.41536616
  Ewald energy   TEWEN  =     19861.30257568
  -1/2 Hartree   DENC   =    -27784.52153974
  -exchange  EXHF       =         0.00000000
  -V(xc)+E(xc)   XCENC  =       256.14044857
  PAW double counting   =      6563.49292716    -7431.38622386
  entropy T*S    EENTRO =         0.00000000
  eigenvalues    EBANDS =      -189.67924442
  atomic energy  EATOM  =      8345.82850422
  ---------------------------------------------------
  free energy    TOTEN  =       -21.40718622 eV

  energy without entropy =      -21.40718622  energy(sigma->0) =      -21.40718622


--------------------------------------------------------------------------------------------------------




----------------------------------------- Iteration    7(  11)  ---------------------------------------


    POTLOK:  cpu time    0.12: real time    0.12
    SETDIJ:  cpu time    0.01: real time    0.01
     EDDAV:  cpu time    1.05: real time    1.05
 BZINTS: Fermi energy:  0.095956; 66.000000 electrons
         Band energy:-189.679602;  BLOECHL correction: -0.577787
       DOS:  cpu time    0.00: real time    0.00
    --------------------------------------------
      LOOP:  cpu time    1.19: real time    1.33

 eigenvalue-minimisations  :   352
 total energy-change (2. order) : 0.1601038E-06  (-0.4124666E-09)
 number of electron      65.9999999 magnetization 
 augmentation part       43.1951993 magnetization 

 Free energy of the ion-electron system (eV)
  ---------------------------------------------------
  alpha Z        PSCENC =       357.41536616
  Ewald energy   TEWEN  =     19861.30257568
  -1/2 Hartree   DENC   =    -27784.52129582
  -exchange  EXHF       =         0.00000000
  -V(xc)+E(xc)   XCENC  =       256.14043742
  PAW double counting   =      6563.49238293    -7431.38555429
  entropy T*S    EENTRO =         0.00000000
  eigenvalues    EBANDS =      -189.67960236
  atomic energy  EATOM  =      8345.82850422
  ---------------------------------------------------
  free energy    TOTEN  =       -21.40718606 eV

  energy without entropy =      -21.40718606  energy(sigma->0) =      -21.40718606


--------------------------------------------------------------------------------------------------------




 average (electrostatic) potential at core
  the test charge radii are     1.0053
  (the norm of the test charge is              1.0000)
       1 -43.4189       2 -43.6604       3 -43.6685       4 -43.6684       5 -43.6603
       6 -43.4187
 
 
 
 E-fermi :   0.0960     XC(G=0):  -7.8761     alpha+bet : -5.3032


 k-point   1 :       0.0000    0.0000    0.0000
  band No.  band energies     occupation 
      1      -9.0150      2.00000
      2      -8.3987      2.00000
      3      -7.4048      2.00000
      4      -6.2303      2.00000
      5      -5.3230      2.00000
      6      -5.0216      2.00000
      7      -3.1355      2.00000
      8      -3.1076      2.00000
      9      -2.9761      2.00000
     10      -2.9761      2.00000
     11      -2.9613      2.00000
     12      -2.9385      2.00000
     13      -2.9385      2.00000
     14      -2.8931      2.00000
     15      -2.8931      2.00000
     16      -2.8574      2.00000
     17      -2.8574      2.00000
     18      -2.8394      2.00000
     19      -2.6594      2.00000
     20      -2.6594      2.00000
     21      -2.6427      2.00000
     22      -2.6427      2.00000
     23      -2.3123      2.00000
     24      -2.1718      2.00000
     25      -2.1718      2.00000
     26      -2.1391      2.00000
     27      -2.1391      2.00000
     28      -2.0290      2.00000
     29      -2.0290      2.00000
     30      -1.8341      2.00000
     31      -1.8341      2.00000
     32      -1.6442      2.00000
     33      -1.6442      2.00000
     34      -1.5922      2.00000
     35      -1.5922      2.00000
     36      -0.8120      2.73755
     37      -0.3014      0.74728
     38       4.2354      0.00000
     39       4.2577      0.00000
     40       5.7377      0.00000

 k-point   2 :       0.1429    0.0000    0.0000
  band No.  band energies     occupation 
      1      -8.3725      2.00000
      2      -7.7724      2.00000
      3      -6.8089      2.00000
      4      -5.6838      2.00000
      5      -4.8499      2.00000
      6      -4.6251      2.00000
      7      -3.4014      2.00000
      8      -3.2953      2.00000
      9      -3.2176      2.00000
     10      -3.1502      2.00000
     11      -3.0924      2.00000
     12      -2.9992      2.00000
     13      -2.8774      2.00000
     14      -2.8389      2.00000
     15      -2.8109      2.00000
     16      -2.7880      2.00000
     17      -2.7623      2.00000
     18      -2.7183      2.00000
     19      -2.6886      2.00000
     20      -2.6726      2.00000
     21      -2.6571      2.00000
     22      -2.5106      2.00000
     23      -2.4544      2.00000
     24      -2.3375      2.00000
     25      -2.2677      2.00000
     26      -2.2305      2.00000
     27      -2.1351      2.00000
     28      -2.1238      2.00000
     29      -2.0100      2.00000
     30      -1.9974      2.00000
     31      -1.8321      2.00000
     32      -1.6729      2.00000
     33      -1.6425      2.00000
     34      -1.5825      2.00000
     35      -1.0149      2.12921
     36       0.2238      0.31217
     37       1.0456     -0.03753
     38       4.6876      0.00000
     39       4.8453      0.00000
     40       6.2947      0.00000

 k-point   3 :       0.2857    0.0000    0.0000
  band No.  band energies     occupation 
      1      -6.6304      2.00000
      2      -6.1380      2.00000
      3      -5.4069      2.00000
      4      -4.6792      2.00000
      5      -4.1839      2.00000
      6      -4.0093      2.00000
      7      -3.9059      2.00000
      8      -3.6911      2.00000
      9      -3.4740      2.00000
     10      -3.3651      2.00000
     11      -3.2467      2.00000
     12      -3.1704      2.00000
     13      -2.9503      2.00000
     14      -2.8447      2.00000
     15      -2.7827      2.00000
     16      -2.7431      2.00000
     17      -2.6078      2.00000
     18      -2.6017      2.00000
     19      -2.5516      2.00000
     20      -2.5173      2.00000
     21      -2.3791      2.00000
     22      -2.2452      2.00000
     23      -2.1526      2.00000
     24      -2.1465      2.00000
     25      -2.0668      2.00000
     26      -2.0617      2.00000
     27      -1.9555      2.00000
     28      -1.8732      2.00000
     29      -1.8329      2.00000
     30      -1.8019      2.00000
     31      -1.7642      2.00000
     32      -1.6386      2.00000
     33      -1.5611      2.00000
     34      -0.9966      2.15215
     35       0.2827      0.48494
     36       2.0094      0.00000
     37       3.5263      0.00000
     38       6.0332      0.00000
     39       6.6600      0.00000
     40       7.9671      0.00000

 k-point   4 :       0.4286    0.0000    0.0000
  band No.  band energies     occupation 
      1      -5.0210      2.00000
      2      -4.7861      2.00000
      3      -4.7381      2.00000
      4      -4.5294      2.00000
      5      -4.2572      2.00000
      6      -4.2016      2.00000
      7      -4.1232      2.00000
      8      -3.9877      2.00000
      9      -3.7311      2.00000
     10      -3.3626      2.00000
     11      -3.0817      2.00000
     12      -3.0053      2.00000
     13      -2.9074      2.00000
     14      -2.8686      2.00000
     15      -2.6913      2.00000
     16      -2.6744      2.00000
     17      -2.4333      2.00000
     18      -2.3682      2.00000
     19      -2.0818      2.00000
     20      -2.0156      2.00000
     21      -1.8297      2.00000
     22      -1.7556      2.00000
     23      -1.6743      2.00000
     24      -1.6630      2.00000
     25      -1.6332      2.00000
     26      -1.6260      2.00000
     27      -1.6023      2.00000
     28      -1.5403      2.00000
     29      -1.4091      2.00000
     30      -1.4050      2.00000
     31      -1.2014      2.07779
     32      -0.6918      1.94598
     33      -0.3028      1.63171
     34       0.6544      0.08139
     35       1.9678      0.00000
     36       2.9548      0.00000
     37       4.3671      0.00000
     38       5.0226      0.00000
     39       5.6424      0.00000
     40       6.3780      0.00000

 k-point   5 :       0.2857    0.1429    0.0000
  band No.  band energies     occupation 
      1      -7.1636      2.00000
      2      -6.6175      2.00000
      3      -5.7656      2.00000
      4      -4.8308      2.00000
      5      -4.1796      2.00000
      6      -4.0362      2.00000
      7      -3.6371      2.00000
      8      -3.6072      2.00000
      9      -3.4763      2.00000
     10      -3.3736      2.00000
     11      -3.3466      2.00000
     12      -3.2535      2.00000
     13      -3.0515      2.00000
     14      -2.9941      2.00000
     15      -2.9543      2.00000
     16      -2.8600      2.00000
     17      -2.7964      2.00000
     18      -2.6524      2.00000
     19      -2.5581      2.00000
     20      -2.4729      2.00000
     21      -2.4173      2.00000
     22      -2.3558      2.00000
     23      -2.3353      2.00000
     24      -2.2211      2.00000
     25      -2.1936      2.00000
     26      -2.0301      2.00000
     27      -1.9975      2.00000
     28      -1.9719      2.00000
     29      -1.8401      2.00000
     30      -1.8343      2.00000
     31      -1.7577      2.00000
     32      -1.6888      2.00000
     33      -1.6585      2.00000
     34      -1.1378      2.14402
     35      -0.0868      1.16700
     36       1.5019      0.00000
     37       2.8076      0.00000
     38       5.6022      0.00000
     39       6.0661      0.00000
     40       7.4637      0.00000

 k-point   6 :       0.4286    0.1429    0.0000
  band No.  band energies     occupation 
      1      -5.2771      2.00000
      2      -4.9877      2.00000
      3      -4.6432      2.00000
      4      -4.3409      2.00000
      5      -4.0705      2.00000
      6      -3.9849      2.00000
      7      -3.8466      2.00000
      8      -3.6921      2.00000
      9      -3.5680      2.00000
     10      -3.4397      2.00000
     11      -3.3091      2.00000
     12      -3.2122      2.00000
     13      -3.0539      2.00000
     14      -3.0458      2.00000
     15      -2.8586      2.00000
     16      -2.7590      2.00000
     17      -2.6859      2.00000
     18      -2.6098      2.00000
     19      -2.5637      2.00000
     20      -2.4513      2.00000
     21      -2.2797      2.00000
     22      -2.1388      2.00000
     23      -2.1278      2.00000
     24      -1.9945      2.00000
     25      -1.8785      2.00000
     26      -1.8600      2.00000
     27      -1.6550      2.00000
     28      -1.6260      2.00000
     29      -1.5810      2.00000
     30      -1.5347      2.00000
     31      -1.1001      2.01229
     32      -0.9657      1.90115
     33      -0.6097      1.66868
     34       0.3204      0.52523
     35       1.7785     -0.07672
     36       3.5790      0.00000
     37       5.4265      0.00000
     38       6.4137      0.00000
     39       6.9724      0.00000
     40       7.7051      0.00000

 k-point   7 :      -0.4286    0.1429    0.0000
  band No.  band energies     occupation 
      1      -4.6066      2.00000
      2      -4.5041      2.00000
      3      -4.3398      2.00000
      4      -4.3120      2.00000
      5      -4.1465      2.00000
      6      -4.0048      2.00000
      7      -3.9797      2.00000
      8      -3.8813      2.00000
      9      -3.6599      2.00000
     10      -3.4360      2.00000
     11      -3.2628      2.00000
     12      -3.0925      2.00000
     13      -3.0383      2.00000
     14      -2.8886      2.00000
     15      -2.7949      2.00000
     16      -2.7025      2.00000
     17      -2.6522      2.00000
     18      -2.4299      2.00000
     19      -2.3062      2.00000
     20      -2.1311      2.00000
     21      -2.0649      2.00000
     22      -2.0101      2.00000
     23      -1.8426      2.00000
     24      -1.7841      2.00000
     25      -1.7138      2.00000
     26      -1.6600      2.00000
     27      -1.6533      2.00000
     28      -1.6143      2.00000
     29      -1.5464      2.00000
     30      -1.5120      2.00000
     31       0.7215      0.64139
     32       1.1243      0.16647
     33       1.5045     -0.21030
     34       1.8843      0.00000
     35       2.2722      0.00000
     36       2.5543      0.00000
     37       4.1884      0.00000
     38       4.9517      0.00000
     39       5.7406      0.00000
     40       6.4447      0.00000

 k-point   8 :      -0.4286    0.2857    0.0000
  band No.  band energies     occupation 
      1      -4.1365      2.00000
      2      -4.1352      2.00000
      3      -4.0599      2.00000
      4      -3.9855      2.00000
      5      -3.9746      2.00000
      6      -3.8223      2.00000
      7      -3.7753      2.00000
      8      -3.6489      2.00000
      9      -3.6243      2.00000
     10      -3.5223      2.00000
     11      -3.4830      2.00000
     12      -3.2743      2.00000
     13      -3.2307      2.00000
     14      -3.0512      2.00000
     15      -3.0457      2.00000
     16      -2.7007      2.00000
     17      -2.6835      2.00000
     18      -2.6580      2.00000
     19      -2.6553      2.00000
     20      -2.3835      2.00000
     21      -2.3267      2.00000
     22      -2.2151      2.00000
     23      -2.0939      2.00000
     24      -2.0698      2.00000
     25      -1.9037      2.00000
     26      -1.7612      2.00000
     27      -1.6469      2.00000
     28      -1.6288      2.00000
     29      -1.6042      2.00000
     30      -1.5386      2.00000
     31       1.0580      0.12271
     32       1.4483      0.00712
     33       2.1690     -0.12496
     34       3.2196      0.00000
     35       4.4484      0.00000
     36       5.1019      0.00000
     37       5.1867      0.00000
     38       5.4998      0.00000
     39       5.6249      0.00000
     40       6.2998      0.00000


--------------------------------------------------------------------------------------------------------


 soft charge-density along one line, spin component           1
         0         1         2         3         4         5         6         7         8         9
 total charge-density along one line
 
 pseudopotential strength for first ion, spin component:           1
 -9.043   0.000   0.000   0.000   0.000   0.000  -0.005   0.000   0.000   0.000   0.923   0.000   0.000   0.000   0.000   0.000
  0.000   0.000  -9.001   0.000   0.000   0.000   0.000   0.000  -0.005   0.000   0.000   0.000   0.903   0.000   0.000   0.000
  0.000   0.000   0.000   0.000  -8.994   0.000   0.000   0.000   0.000   0.000   0.000   0.000   0.000   0.000   0.899   0.000
 -0.005   0.000   0.000   0.000   0.000   0.000  -9.001   0.000   0.000   0.000   0.002   0.000   0.000   0.000   0.000   0.000
  0.000   0.000  -0.005   0.000   0.000   0.000   0.000   0.000  -9.043   0.000   0.000   0.000   0.002   0.000   0.000   0.000
  0.923   0.000   0.000   0.000   0.000   0.000   0.002   0.000   0.000   0.000   1.149   0.000   0.000   0.000   0.000   0.000
  0.000   0.000   0.903   0.000   0.000   0.000   0.000   0.000   0.002   0.000   0.000   0.000   1.158   0.000   0.000   0.000
  0.000   0.000   0.000   0.000   0.899   0.000   0.000   0.000   0.000   0.000   0.000   0.000   0.000   0.000   1.160   0.000
  0.002   0.000   0.000   0.000   0.000   0.000   0.903   0.000   0.000   0.000  -0.001   0.000   0.000   0.000   0.000   0.000
  0.000   0.000   0.002   0.000   0.000   0.000   0.000   0.000   0.923   0.000   0.000   0.000  -0.001   0.000   0.000   0.000
  0.000   0.000   0.000   0.000  -0.007   0.000   0.000   0.000   0.000   0.000   0.000   0.000   0.000   0.000   0.003   0.000
  0.000   0.000   0.000   0.000   0.000   0.000   0.000   0.000   0.000   0.000   0.000   0.000   0.000   0.000   0.000   0.000
  0.000   0.000  -0.010   0.000   0.000   0.000   0.000   0.000   0.000   0.000   0.000   0.000   0.006   0.000   0.000   0.000
  0.000   0.000   0.000   0.000  -0.010   0.000   0.000   0.000   0.000   0.000   0.000   0.000   0.000   0.000   0.006   0.000
  0.000   0.000   0.000   0.000   0.000   0.000  -0.010   0.000   0.000   0.000   0.000   0.000   0.000   0.000   0.000   0.000
  0.000   0.000   0.005   0.000   0.000   0.000   0.000   0.000   0.000   0.000   0.000   0.000  -0.003   0.000   0.000   0.000
  0.000   0.000   0.000   0.000   0.005   0.000   0.000   0.000   0.000   0.000   0.000   0.000   0.000   0.000  -0.003   0.000
  0.000   0.000   0.000   0.000   0.000   0.000   0.005   0.000   0.000   0.000   0.000   0.000   0.000   0.000   0.000   0.000
 total augmentation occupancy for first ion, spin component:           1
  1.906   0.000   0.000  -0.003   0.000  -0.021   0.000   0.000   0.011   0.000   0.000   0.000   0.000   0.000   0.007   0.000
  0.000   1.915   0.000   0.000  -0.003   0.000  -0.056   0.000   0.000   0.011   0.000   0.000  -0.001   0.000   0.000  -0.004
  0.000   0.000   1.921   0.000   0.000   0.000   0.000  -0.046   0.000   0.000   0.013   0.038   0.000   0.036   0.000   0.000
 -0.003   0.000   0.000   1.915   0.000   0.011   0.000   0.000  -0.056   0.000   0.000   0.000   0.000   0.000  -0.001   0.000
  0.000  -0.003   0.000   0.000   1.906   0.000   0.011   0.000   0.000  -0.021   0.000   0.000   0.007   0.000   0.000  -0.001
 -0.021   0.000   0.000   0.011   0.000   0.064   0.000   0.000   0.001   0.000   0.000   0.000   0.000   0.000   0.005   0.000
  0.000  -0.056   0.000   0.000   0.011   0.000   0.044   0.000   0.000   0.001   0.000   0.000   0.032   0.000   0.000  -0.003
  0.000   0.000  -0.046   0.000   0.000   0.000   0.000   0.062   0.000   0.000  -0.079   0.014   0.000   0.045   0.000   0.000
  0.011   0.000   0.000  -0.056   0.000   0.001   0.000   0.000   0.044   0.000   0.000   0.000   0.000   0.000   0.032   0.000
  0.000   0.011   0.000   0.000  -0.021   0.000   0.001   0.000   0.000   0.064   0.000   0.000   0.005   0.000   0.000   0.000
  0.000   0.000   0.013   0.000   0.000   0.000   0.000  -0.079   0.000   0.000   1.239  -0.290   0.000   0.070   0.000   0.000
  0.000   0.000   0.038   0.000   0.000   0.000   0.000   0.014   0.000   0.000  -0.290   0.113   0.000  -0.047   0.000   0.000
  0.000  -0.001   0.000   0.000   0.007   0.000   0.032   0.000   0.000   0.005   0.000   0.000   0.172   0.000   0.000  -0.011
  0.000   0.000   0.036   0.000   0.000   0.000   0.000   0.045   0.000   0.000   0.070  -0.047   0.000   0.099   0.000   0.000
  0.007   0.000   0.000  -0.001   0.000   0.005   0.000   0.000   0.032   0.000   0.000   0.000   0.000   0.000   0.172   0.000
  0.000  -0.004   0.000   0.000  -0.001   0.000  -0.003   0.000   0.000   0.000   0.000   0.000  -0.011   0.000   0.000   0.001
  0.000   0.000  -0.008   0.000   0.000   0.000   0.000  -0.002   0.000   0.000  -0.013   0.006   0.000  -0.007   0.000   0.000
 -0.001   0.000   0.000  -0.004   0.000   0.000   0.000   0.000  -0.003   0.000   0.000   0.000   0.000   0.000  -0.011   0.000


------------------------ aborting loop because EDIFF is reached ----------------------------------------


    CHARGE:  cpu time    0.10: real time    0.10
    FORLOC:  cpu time    0.01: real time    0.01
    FORNL :  cpu time    0.44: real time    0.44
    STRESS:  cpu time    1.12: real time    1.13
    FORCOR:  cpu time    0.13: real time    0.13
    FORHAR:  cpu time    0.04: real time    0.04
    MIXING:  cpu time    0.01: real time    0.01

  FORCE on cell =-STRESS in cart. coord.  units (eV):
  Direction    XX          YY          ZZ          XY          YZ          ZX
  --------------------------------------------------------------------------------------
  Alpha Z   357.41537   357.41537   357.41537
  Ewald   24246.59256 24246.59256-28631.88586     0.00000     0.00000     0.00000
  Hartree 26546.95528 26546.95528-25309.38812     0.00000     0.00000     0.00000
  E(xc)    -375.37350  -375.37334  -375.91425    -0.00014     0.00000     0.00000
  Local  -51363.27879-51363.28076 53370.00597     0.00171     0.00000     0.00000
  n-local  -225.94114  -216.46138  -222.32556     4.21664    -0.40774     0.13633
  augment   337.94422   337.94583   339.06312    -0.00139     0.00001     0.00002
  Kinetic   486.10803   453.92883   472.57528   -12.59622    -0.86480     0.56839
  Fock        0.00000     0.00000     0.00000     0.00000     0.00000     0.00000
  -------------------------------------------------------------------------------------
  Total      -0.92780    -0.92780    -0.45405     0.00000     0.00000     0.00000
  in kB     -11.55129   -11.55129    -5.65304     0.00000     0.00000     0.00000
  external pressure =       -9.59 kB  Pullay stress =        0.00 kB


 VOLUME and BASIS-vectors are now :
 -----------------------------------------------------------------------------
  energy-cutoff  :      415.00
  volume of cell :      128.69
      direct lattice vectors                 reciprocal lattice vectors
     2.565866355  0.000000000  0.000000000     0.389731912 -0.225011824  0.000000000
     1.282933180  2.222105448  0.000000000     0.000000000  0.450023648  0.000000000
     0.000000000  0.000000000 22.570126644     0.000000000  0.000000000  0.044306353

  length of vectors
     2.565866355  2.565866358 22.570126644     0.450023648  0.450023648  0.044306353


 FORCES acting on ions
    electron-ion (+dipol)            ewald-force                    non-local-force                 convergence-correction
 -----------------------------------------------------------------------------------------------
   -.137E-06 -.319E-07 0.425E+04   0.386E-07 -.364E-07 -.425E+04   0.000E+00 0.173E-17 -.111E+01   0.284E-09 0.164E-09 0.161E-03
   -.154E-06 -.890E-07 -.849E+03   -.240E-09 0.227E-09 0.849E+03   0.217E-18 0.108E-18 0.241E+00   0.116E-09 0.672E-10 0.330E-04
   -.445E-05 -.257E-05 0.255E+04   -.146E-08 0.258E-08 -.255E+04   0.678E-18 -.108E-18 -.625E+00   0.987E-10 0.569E-10 -.145E-03
   -.302E-05 -.174E-05 -.255E+04   0.310E-08 -.164E-08 0.255E+04   -.352E-18 -.108E-18 0.625E+00   -.100E-09 -.578E-10 0.132E-03
   0.511E-05 0.295E-05 0.849E+03   -.554E-09 -.686E-09 -.849E+03   -.163E-18 -.108E-18 -.241E+00   -.120E-09 -.693E-10 -.245E-04
   0.275E-05 0.154E-05 -.425E+04   -.394E-07 0.359E-07 0.425E+04   0.000E+00 -.173E-17 0.111E+01   -.287E-09 -.166E-09 -.178E-03
 -----------------------------------------------------------------------------------------------
   0.106E-06 0.612E-07 0.147E-02   0.331E-13 -.695E-13 0.000E+00   0.379E-18 -.217E-18 0.222E-15   -.746E-11 -.455E-11 -.220E-04
 
 
 POSITION                                       TOTAL-FORCE (eV/Angst)
 -----------------------------------------------------------------------------------
      0.00000      0.00000      0.01016         0.000000      0.000000      0.012396
      0.00000      0.00000      6.28656         0.000000      0.000000     -0.003408
      1.28293      0.74070      2.08793         0.000000      0.000000      0.007791
      1.28293      0.74070      8.38718         0.000000      0.000000     -0.007791
      2.56587      1.48140      4.18855         0.000000      0.000000      0.003408
      2.56587      1.48140     10.46494         0.000000      0.000000     -0.012396
 -----------------------------------------------------------------------------------
    total drift:                                0.000000      0.000000      0.001450


--------------------------------------------------------------------------------------------------------



  FREE ENERGIE OF THE ION-ELECTRON SYSTEM (eV)
  ---------------------------------------------------
  free  energy   TOTEN  =       -21.40718606 eV

  energy  without entropy=      -21.40718606  energy(sigma->0) =      -21.40718606
 
 d Force = 0.9253000E-04[ 0.408E-04, 0.144E-03]  d Energy =-0.1443424E-03 0.237E-03
 d Force =-0.1504845E+02[-0.151E+02,-0.150E+02]  d Ewald  =-0.1504845E+02-0.205E-06


--------------------------------------------------------------------------------------------------------


    POTLOK:  cpu time    0.13: real time    0.13


--------------------------------------------------------------------------------------------------------




--------------------------------------------------------------------------------------------------------


  
 reached required accuracy - stopping structural energy minimisation
 writing wavefunctions
     LOOP+:  cpu time   19.30: real time   19.93
    4ORBIT:  cpu time    0.00: real time    0.00
 BZINTS: Fermi energy:  0.095956; 66.000000 electrons
         Band energy:-189.679602;  BLOECHL correction: -0.577787

 total amount of memory used by VASP on root node    53828. kBytes
========================================================================

   base      :      30000. kBytes
   nonl-proj :       3172. kBytes
   fftplans  :       6052. kBytes
   grid      :       7727. kBytes
   one-center:         93. kBytes
   wavefun   :       6784. kBytes
 
  
  
 General timing and accounting informations for this job:
 ========================================================
  
                  Total CPU time used (sec):      138.029
                            User time (sec):      135.220
                          System time (sec):        2.808
                         Elapsed time (sec):      144.246
  
                   Maximum memory used (kb):           0.
                   Average memory used (kb):           0.
  
                          Minor page faults:      1397750
                          Major page faults:           21
                 Voluntary context switches:         1616
