 vasp.5.2.12 11Nov11 complex                                                    
  
 executed on             LinuxIFC date 2016.02.26  22:00:58
 running on    2 nodes
 distr:  one band on    1 nodes,    2 groups


--------------------------------------------------------------------------------------------------------


 INCAR:
 POTCAR:   PAW_PBE Pd 05Jan2001                   
 POTCAR:   PAW_PBE Pd 05Jan2001                   
   VRHFIN =Pd : s1 d9                                                           
   LEXCH  = PE                                                                  
   EATOM  =   809.7532 eV,   59.5152 Ry                                         
                                                                                
   TITEL  = PAW_PBE Pd 05Jan2001                                                
   LULTRA =        F    use ultrasoft PP ?                                      
   IUNSCR =        1    unscreen: 0-lin 1-nonlin 2-no                           
   RPACOR =    2.000    partial core radius                                     
   POMASS =  106.420; ZVAL   =   10.000    mass and valenz                      
   RCORE  =    2.400    outmost cutoff radius                                   
   RWIGS  =    2.710; RWIGS  =    1.434    wigner-seitz radius (au A)           
   ENMAX  =  250.925; ENMIN  =  188.194 eV                                      
   RCLOC  =    1.862    cutoff for local pot                                    
   LCOR   =        T    correct aug charges                                     
   LPAW   =        T    paw PP                                                  
   EAUG   =  416.230                                                            
   DEXC   =    -.079                                                            
   RMAX   =    2.911    core radius for proj-oper                               
   RAUG   =    1.300    factor for augmentation sphere                          
   RDEP   =    2.405    radius for radial grids                                 
   QCUT   =   -4.294; QGAM   =    8.589    optimization parameters              
                                                                                
   Description                                                                  
     l     E      TYP  RCUT    TYP  RCUT                                        
     2   .000     23  2.400                                                     
     2   .000     23  2.400                                                     
     0   .000     23  2.400                                                     
     0   .000     23  2.400                                                     
     1  -.200     23  2.400                                                     
     1   .000     23  2.400                                                     
     3   .000      7   .000                                                     
  local pseudopotential read in
  partial core-charges read in
  atomic valenz-charges read in
  non local Contribution for L=           2  read in
    real space projection operators read in
  non local Contribution for L=           2  read in
    real space projection operators read in
  non local Contribution for L=           0  read in
    real space projection operators read in
  non local Contribution for L=           0  read in
    real space projection operators read in
  non local Contribution for L=           1  read in
    real space projection operators read in
  non local Contribution for L=           1  read in
    real space projection operators read in
    PAW grid and wavefunctions read in
 
   number of l-projection  operators is LMAX  =           6
   number of lm-projection operators is LMMAX =          18
 
 PAW_PBE Pd 05Jan2001                   :
 energy of atom  1       EATOM= -809.7532
 kinetic energy error for atom=    0.0069 (will be added to EATOM!!)
 
 
 POSCAR: Pd Bulk                                 
  positions in direct lattice
  No initial velocities read in
 exchange correlation table for  LEXCH =        8
   RHO(1)=    0.500       N(1)  =     2000
   RHO(2)=  100.500       N(2)  =     4000
 


--------------------------------------------------------------------------------------------------------


 ion  position               nearest neighbor table
   1  0.000  0.000  0.000-   2 2.75   3 2.75   4 2.75   3 2.75   4 2.75   2 2.75   4 2.75   4 2.75
                             2 2.75   3 2.75   3 2.75   2 2.75
   2  0.500  0.500  0.000-   1 2.75   3 2.75   4 2.75   3 2.75   4 2.75   1 2.75   3 2.75   3 2.75
                             1 2.75   4 2.75   4 2.75   1 2.75
   3  0.500  0.000  0.500-   1 2.75   2 2.75   4 2.75   1 2.75   2 2.75   2 2.75   4 2.75   2 2.75
                             1 2.75   4 2.75   1 2.75   4 2.75
   4  0.000  0.500  0.500-   1 2.75   2 2.75   3 2.75   1 2.75   2 2.75   1 2.75   3 2.75   1 2.75
                             2 2.75   3 2.75   2 2.75   3 2.75
 
  LATTYP: Found a simple cubic cell.
 ALAT       =     3.8933299370
  
  Lattice vectors:
  
 A1 = (   3.8933299370,   0.0000000000,   0.0000000000)
 A2 = (   0.0000000000,   3.8933299370,   0.0000000000)
 A3 = (   0.0000000000,   0.0000000000,   3.8933299370)
 Subroutine PRICEL returns following result:
 
  LATTYP: Found a face centered cubic cell.
 ALAT       =     3.8933299370
  
  Lattice vectors:
  
 A1 = (   1.9466649685,   1.9466649685,   0.0000000000)
 A2 = (   1.9466649685,   0.0000000000,  -1.9466649685)
 A3 = (   0.0000000000,   1.9466649685,  -1.9466649685)
 
   4 primitive cells build up your supercell.
 

Analysis of symmetry for initial positions (statically):

 Routine SETGRP: Setting up the symmetry group for a 
 simple cubic supercell.


 Subroutine GETGRP returns: Found 48 space group operations
 (whereof 48 operations were pure point group operations)
 out of a pool of 48 trial point group operations.


The static configuration has the point symmetry O_h .

Analysis of symmetry for dynamics (positions and initial velocities):

 Subroutine DYNSYM returns: Found 48 space group operations
 (whereof 48 operations were pure point group operations)
 out of a pool of 48 trial space group operations
 (whereof 48 operations were pure point group operations)
 and found also     4 'primitive' translations


The dynamic configuration has the point symmetry O_h .

Analysis of constrained symmetry for selective dynamics:

 Subroutine DYNSYM returns: Found 48 space group operations
 (whereof 48 operations were pure point group operations)
 out of a pool of 48 trial space group operations
 (whereof 48 operations were pure point group operations)
 and found also     4 'primitive' translations


The constrained configuration has the point symmetry O_h .
 
 
 KPOINTS: K-Points                                

Automatic generation of k-mesh.
 
 Subroutine IBZKPT returns following result:
 ===========================================
 
 Found     20 irreducible k-points:
 
 Following reciprocal coordinates:
            Coordinates               Weight
  0.000000  0.000000  0.000000      1.000000
  0.142857  0.000000  0.000000      6.000000
  0.285714  0.000000  0.000000      6.000000
  0.428571  0.000000  0.000000      6.000000
  0.142857  0.142857  0.000000     12.000000
  0.285714  0.142857  0.000000     24.000000
  0.428571  0.142857  0.000000     24.000000
  0.285714  0.285714  0.000000     12.000000
  0.428571  0.285714  0.000000     24.000000
  0.428571  0.428571  0.000000     12.000000
  0.142857  0.142857  0.142857      8.000000
  0.285714  0.142857  0.142857     24.000000
  0.428571  0.142857  0.142857     24.000000
  0.285714  0.285714  0.142857     24.000000
  0.428571  0.285714  0.142857     48.000000
  0.428571  0.428571  0.142857     24.000000
  0.285714  0.285714  0.285714      8.000000
  0.428571  0.285714  0.285714     24.000000
  0.428571  0.428571  0.285714     24.000000
  0.428571  0.428571  0.428571      8.000000
 
 Following cartesian coordinates:
            Coordinates               Weight
  0.000000  0.000000  0.000000      1.000000
  0.142857  0.000000  0.000000      6.000000
  0.285714  0.000000  0.000000      6.000000
  0.428571  0.000000  0.000000      6.000000
  0.142857  0.142857  0.000000     12.000000
  0.285714  0.142857  0.000000     24.000000
  0.428571  0.142857  0.000000     24.000000
  0.285714  0.285714  0.000000     12.000000
  0.428571  0.285714  0.000000     24.000000
  0.428571  0.428571  0.000000     12.000000
  0.142857  0.142857  0.142857      8.000000
  0.285714  0.142857  0.142857     24.000000
  0.428571  0.142857  0.142857     24.000000
  0.285714  0.285714  0.142857     24.000000
  0.428571  0.285714  0.142857     48.000000
  0.428571  0.428571  0.142857     24.000000
  0.285714  0.285714  0.285714      8.000000
  0.428571  0.285714  0.285714     24.000000
  0.428571  0.428571  0.285714     24.000000
  0.428571  0.428571  0.428571      8.000000
 
 TETIRR: Found    163 inequivalent tetrahedra from     2058


--------------------------------------------------------------------------------------------------------




 Dimension of arrays:
   k-points           NKPTS =     20   k-points in BZ     NKDIM =     20   number of bands    NBANDS=     24
   number of dos      NEDOS =    301   number of ions     NIONS =      4
   non local maximal  LDIM  =      6   non local SUM 2l+1 LMDIM =     18
   total plane-waves  NPLWV =   8000
   max r-space proj   IRMAX =      1   max aug-charges    IRDMAX=   6774
   dimension x,y,z NGX =    20 NGY =   20 NGZ =   20
   dimension x,y,z NGXF=    40 NGYF=   40 NGZF=   40
   support grid    NGXF=    40 NGYF=   40 NGZF=   40
   ions per type =               4
 NGX,Y,Z   is equivalent  to a cutoff of   8.54,  8.54,  8.54 a.u.
 NGXF,Y,Z  is equivalent  to a cutoff of  17.08, 17.08, 17.08 a.u.


 I would recommend the setting:
   dimension x,y,z NGX =    19 NGY =   19 NGZ =   19
 SYSTEM =  unknown system                          
 POSCAR =  Pd Bulk                                 

 Startparameter for this run:
   NWRITE =      2    write-flag & timer
   PREC   = normal    normal or accurate (medium, high low for compatibility)
   ISTART =      0    job   : 0-new  1-cont  2-samecut
   ICHARG =      2    charge: 1-file 2-atom 10-const
   ISPIN  =      1    spin polarized calculation?
   LNONCOLLINEAR =      F non collinear calculations
   LSORBIT =      F    spin-orbit coupling
   INIWAV =      1    electr: 0-lowe 1-rand  2-diag
   LASPH  =      F    aspherical Exc in radial PAW
   METAGGA=      F    non-selfconsistent MetaGGA calc.

 Electronic Relaxation 1
   ENCUT  =  415.0 eV  30.50 Ry    5.52 a.u.   6.47  6.47  6.47*2*pi/ulx,y,z
   ENINI  =  415.0     initial cutoff
   ENAUG  =  416.2 eV  augmentation charge cutoff
   NELM   =    101;   NELMIN=  2; NELMDL= -5     # of ELM steps 
   EDIFF  = 0.1E-05   stopping-criterion for ELM
   LREAL  =      F    real-space projection
   NLSPLINE    = F    spline interpolate recip. space projectors
   LCOMPAT=      F    compatible to vasp.4.4
   GGA_COMPAT  = T    GGA compatible to vasp.4.4-vasp.4.6
   LMAXPAW     = -100 max onsite density
   LMAXMIX     =    2 max onsite mixed and CHGCAR
   VOSKOWN=      0    Vosko Wilk Nusair interpolation
   ROPT   =    0.00000
 Ionic relaxation
   EDIFFG = 0.1E-03   stopping-criterion for IOM
   NSW    =    101    number of steps for IOM
   NBLOCK =      1;   KBLOCK =    101    inner block; outer block 
   IBRION =      2    ionic relax: 0-MD 1-quasi-New 2-CG
   NFREE  =      1    steps in history (QN), initial steepest desc. (CG)
   ISIF   =      7    stress and relaxation
   IWAVPR =     11    prediction:  0-non 1-charg 2-wave 3-comb
   ISYM   =      2    0-nonsym 1-usesym 2-fastsym
   LCORR  =      T    Harris-Foulkes like correction to forces

   POTIM  = 0.0500    time-step for ionic-motion
   TEIN   =    0.0    initial temperature
   TEBEG  =    0.0;   TEEND  =   0.0 temperature during run
   SMASS  =  -3.00    Nose mass-parameter (am)
   estimated Nose-frequenzy (Omega)   =  0.10E-29 period in steps =****** mass=  -0.346E-27a.u.
   SCALEE = 1.0000    scale energy and forces
   NPACO  =    256;   APACO  = 16.0  distance and # of slots for P.C.
   PSTRESS=    0.0 pullay stress

  Mass of Ions in am
   POMASS = 106.42
  Ionic Valenz
   ZVAL   =  10.00
  Atomic Wigner-Seitz radii
   RWIGS  =  -1.00
  virtual crystal weights 
   VCA    =   1.00
   NELECT =      40.0000    total number of electrons
   NUPDOWN=      -1.0000    fix difference up-down

 DOS related values:
   EMIN   =  10.00;   EMAX   =-10.00  energy-range for DOS
   EFERMI =   0.00
   ISMEAR =    -5;   SIGMA  =   0.20  broadening in eV -4-tet -1-fermi 0-gaus

 Electronic relaxation 2 (details)
   IALGO  =     38    algorithm
   LDIAG  =      T    sub-space diagonalisation (order eigenvalues)
   LSUBROT=      T    optimize rotation matrix (better conditioning)
   TURBO    =      0    0=normal 1=particle mesh
   IRESTART =      0    0=no restart 2=restart with 2 vectors
   NREBOOT  =      0    no. of reboots
   NMIN     =      0    reboot dimension
   EREF     =   0.00    reference energy to select bands
   IMIX   =      4    mixing-type and parameters
     AMIX     =   0.40;   BMIX     =  1.00
     AMIX_MAG =   1.60;   BMIX_MAG =  1.00
     AMIN     =   0.10
     WC   =   100.;   INIMIX=   1;  MIXPRE=   1

 Intra band minimization:
   WEIMIN = 0.0010     energy-eigenvalue tresh-hold
   EBREAK =  0.10E-07  absolut break condition
   DEPER  =   0.30     relativ break condition  

   TIME   =   0.40     timestep for ELM

  volume/ion in A,a.u.               =      14.75        99.56
  Fermi-wavevector in a.u.,A,eV,Ry     =   1.438049  2.717518 28.136635  2.067984
  Thomas-Fermi vector in A             =   2.557059
 
 Write flags
   LWAVE  =      T    write WAVECAR
   LCHARG =      T    write CHGCAR
   LVTOT  =      F    write LOCPOT, total local potential
   LVHAR  =      F    write LOCPOT, Hartree potential only
   LELF   =      F    write electronic localiz. function (ELF)
   LORBIT =      0    0 simple, 1 ext, 2 COOP (PROOUT)


 Dipole corrections
   LMONO  =      F    monopole corrections only (constant potential shift)
   LDIPOL =      F    correct potential (dipole corrections)
   IDIPOL =      0    1-x, 2-y, 3-z, 4-all directions 
   EPSILON=  1.0000000 bulk dielectric constant

 Exchange correlation treatment:
   GGA     =    PE    GGA type
   LEXCH   =     8    internal setting for exchange type
   VOSKOWN=      0    Vosko Wilk Nusair interpolation
   LHFCALC =     F    Hartree Fock is set to
   LHFONE  =     F    Hartree Fock one center treatment
   AEXX    =    0.0000 exact exchange contribution

 Linear response parameters
   LEPSILON=     F    determine dielectric tensor
   LRPA    =     F    only Hartree local field effects (RPA)
   LNABLA  =     F    use nabla operator in PAW spheres
   LVEL    =     F    velocity operator in full k-point grid
   LINTERFAST=   F  fast interpolation
   KINTER  =     0    interpolate to denser k-point grid
   CSHIFT  =0.1000    complex shift for real part using Kramers Kronig
   OMEGAMAX=  -1.0    maximum frequency
   RTIME   =    0.100 relaxation time in fs

 Orbital magnetization related:
   ORBITALMAG=     F  switch on orbital magnetization
   LCHIMAG   =     F  perturbation theory with respect to B field
   DQ        =  0.001000  dq finite difference perturbation B field



--------------------------------------------------------------------------------------------------------


 conjugate gradient relaxation of ions
   using selective dynamics as specified on POSCAR
 charge density and potential will be updated during run
 non-spin polarized calculation
 Variant of blocked Davidson
 Davidson routine will perform the subspace rotation
 perform sub-space diagonalisation
    after iterative eigenvector-optimisation
 modified Broyden-mixing scheme, WC =      100.0
 initial mixing is a Kerker type mixing with AMIX =  0.4000 and BMIX =      1.0000
 Hartree-type preconditioning will be used
 using additional bands            4
 reciprocal scheme for non local part
 use partial core corrections
 calculate Harris-corrections to forces 
   (improved forces if not selfconsistent)
 use gradient corrections 
 use of overlap-Matrix (Vanderbilt PP)
 Fermi weights with tetrahedron method with Bloechl corrections


--------------------------------------------------------------------------------------------------------


  energy-cutoff  :      415.00
  volume of cell :       59.02
      direct lattice vectors                 reciprocal lattice vectors
     3.893329937  0.000000000  0.000000000     0.256849539  0.000000000  0.000000000
     0.000000000  3.893329937  0.000000000     0.000000000  0.256849539  0.000000000
     0.000000000  0.000000000  3.893329937     0.000000000  0.000000000  0.256849539

  length of vectors
     3.893329937  3.893329937  3.893329937     0.256849539  0.256849539  0.256849539


 
 k-points in units of 2pi/SCALE and weight: K-Points                                
   0.00000000  0.00000000  0.00000000       0.003
   0.14285714  0.00000000  0.00000000       0.017
   0.28571429  0.00000000  0.00000000       0.017
   0.42857143  0.00000000  0.00000000       0.017
   0.14285714  0.14285714  0.00000000       0.035
   0.28571429  0.14285714  0.00000000       0.070
   0.42857143  0.14285714  0.00000000       0.070
   0.28571429  0.28571429  0.00000000       0.035
   0.42857143  0.28571429  0.00000000       0.070
   0.42857143  0.42857143  0.00000000       0.035
   0.14285714  0.14285714  0.14285714       0.023
   0.28571429  0.14285714  0.14285714       0.070
   0.42857143  0.14285714  0.14285714       0.070
   0.28571429  0.28571429  0.14285714       0.070
   0.42857143  0.28571429  0.14285714       0.140
   0.42857143  0.42857143  0.14285714       0.070
   0.28571429  0.28571429  0.28571429       0.023
   0.42857143  0.28571429  0.28571429       0.070
   0.42857143  0.42857143  0.28571429       0.070
   0.42857143  0.42857143  0.42857143       0.023
 
 k-points in reciprocal lattice and weights: K-Points                                
   0.00000000  0.00000000  0.00000000       0.003
   0.14285714  0.00000000  0.00000000       0.017
   0.28571429  0.00000000  0.00000000       0.017
   0.42857143  0.00000000  0.00000000       0.017
   0.14285714  0.14285714  0.00000000       0.035
   0.28571429  0.14285714  0.00000000       0.070
   0.42857143  0.14285714  0.00000000       0.070
   0.28571429  0.28571429  0.00000000       0.035
   0.42857143  0.28571429  0.00000000       0.070
   0.42857143  0.42857143  0.00000000       0.035
   0.14285714  0.14285714  0.14285714       0.023
   0.28571429  0.14285714  0.14285714       0.070
   0.42857143  0.14285714  0.14285714       0.070
   0.28571429  0.28571429  0.14285714       0.070
   0.42857143  0.28571429  0.14285714       0.140
   0.42857143  0.42857143  0.14285714       0.070
   0.28571429  0.28571429  0.28571429       0.023
   0.42857143  0.28571429  0.28571429       0.070
   0.42857143  0.42857143  0.28571429       0.070
   0.42857143  0.42857143  0.42857143       0.023
 
 position of ions in fractional coordinates (direct lattice) 
   0.00000000  0.00000000  0.00000000
   0.50000000  0.50000000  0.00000000
   0.50000000  0.00000000  0.50000000
   0.00000000  0.50000000  0.50000000
 
 position of ions in cartesian coordinates  (Angst):
   0.00000000  0.00000000  0.00000000
   1.94666497  1.94666497  0.00000000
   1.94666497  0.00000000  1.94666497
   0.00000000  1.94666497  1.94666497
 


--------------------------------------------------------------------------------------------------------


 k-point  1 :  0.00000.00000.0000  plane waves:    1141
 k-point  2 :  0.14290.00000.0000  plane waves:    1141
 k-point  3 :  0.28570.00000.0000  plane waves:    1145
 k-point  4 :  0.42860.00000.0000  plane waves:    1141
 k-point  5 :  0.14290.14290.0000  plane waves:    1137
 k-point  6 :  0.28570.14290.0000  plane waves:    1144
 k-point  7 :  0.42860.14290.0000  plane waves:    1131
 k-point  8 :  0.28570.28570.0000  plane waves:    1141
 k-point  9 :  0.42860.28570.0000  plane waves:    1129
 k-point 10 :  0.42860.42860.0000  plane waves:    1128
 k-point 11 :  0.14290.14290.1429  plane waves:    1123
 k-point 12 :  0.28570.14290.1429  plane waves:    1137
 k-point 13 :  0.42860.14290.1429  plane waves:    1144
 k-point 14 :  0.28570.28570.1429  plane waves:    1134
 k-point 15 :  0.42860.28570.1429  plane waves:    1127
 k-point 16 :  0.42860.42860.1429  plane waves:    1136
 k-point 17 :  0.28570.28570.2857  plane waves:    1142
 k-point 18 :  0.42860.28570.2857  plane waves:    1120
 k-point 19 :  0.42860.42860.2857  plane waves:    1123
 k-point 20 :  0.42860.42860.4286  plane waves:    1106

 maximum and minimum number of plane-waves per node :      1145     1106

 maximum number of plane-waves:      1145
 maximum index in each direction: 
   IXMAX=    6   IYMAX=    6   IZMAX=    6
   IXMIN=   -6   IYMIN=   -6   IZMIN=   -6

 WARNING: aliasing errors must be expected set NGX to  26 to avoid them
 WARNING: aliasing errors must be expected set NGY to  26 to avoid them
 WARNING: aliasing errors must be expected set NGZ to  26 to avoid them
 aliasing errors are usually negligible using standard VASP settings
 and one can safely disregard these warnings

 serial   3D FFT for wavefunctions
 parallel 3D FFT for charge:
    minimum data exchange during FFTs selected (reduces bandwidth)


 total amount of memory used by VASP on root node    41183. kBytes
========================================================================

   base      :      30000. kBytes
   nonl-proj :       3373. kBytes
   fftplans  :       1158. kBytes
   grid      :       1913. kBytes
   one-center:         62. kBytes
   wavefun   :       4677. kBytes
 
 Broyden mixing: mesh for mixing (old mesh)
   NGX = 13   NGY = 13   NGZ = 13
  (NGX  = 40   NGY  = 40   NGZ  = 40)
  gives a total of   2197 points

 initial charge density was supplied:
 charge density of overlapping atoms calculated
 number of electron      40.0000000 magnetization 
 keeping initial charge density in first step


--------------------------------------------------------------------------------------------------------


 Maximum index for augmentation-charges         3191 (set IRDMAX)


--------------------------------------------------------------------------------------------------------


 First call to EWALD:  gamma=   0.455
 Maximum number of real-space cells 3x 3x 3
 Maximum number of reciprocal cells 3x 3x 3

    FEWALD:  cpu time    0.00: real time    0.00


----------------------------------------- Iteration    1(   1)  ---------------------------------------


    POTLOK:  cpu time    0.09: real time    0.09
    SETDIJ:  cpu time    0.03: real time    0.03
     EDDAV:  cpu time    2.14: real time    2.15
 BZINTS: Fermi energy: 20.450283; 40.000000 electrons
         Band energy: 490.104958;  BLOECHL correction: -0.140627
       DOS:  cpu time    0.03: real time    0.03
    --------------------------------------------
      LOOP:  cpu time    2.30: real time    2.30

 eigenvalue-minimisations  :   976
 total energy-change (2. order) : 0.3471401E+03  (-0.1732934E+04)
 number of electron      40.0000000 magnetization 
 augmentation part       40.0000000 magnetization 

 Free energy of the ion-electron system (eV)
  ---------------------------------------------------
  alpha Z        PSCENC =       369.11897992
  Ewald energy   TEWEN  =     -3391.49467553
  -1/2 Hartree   DENC   =      -491.99780979
  -exchange  EXHF       =         0.00000000
  -V(xc)+E(xc)   XCENC  =      -116.46393087
  PAW double counting   =      2708.10111537    -2459.21352679
  entropy T*S    EENTRO =         0.00000000
  eigenvalues    EBANDS =       490.10495823
  atomic energy  EATOM  =      3238.98500772
  ---------------------------------------------------
  free energy    TOTEN  =       347.14011824 eV

  energy without entropy =      347.14011824  energy(sigma->0) =      347.14011824


--------------------------------------------------------------------------------------------------------




----------------------------------------- Iteration    1(   2)  ---------------------------------------


     EDDAV:  cpu time    2.25: real time    2.25
 BZINTS: Fermi energy:  6.758499; 40.000000 electrons
         Band energy: 137.365596;  BLOECHL correction: -0.186137
       DOS:  cpu time    0.04: real time    0.03
    --------------------------------------------
      LOOP:  cpu time    2.29: real time    2.29

 eigenvalue-minimisations  :  1040
 total energy-change (2. order) :-0.3527394E+03  (-0.3431615E+03)
 number of electron      40.0000000 magnetization 
 augmentation part       40.0000000 magnetization 

 Free energy of the ion-electron system (eV)
  ---------------------------------------------------
  alpha Z        PSCENC =       369.11897992
  Ewald energy   TEWEN  =     -3391.49467553
  -1/2 Hartree   DENC   =      -491.99780979
  -exchange  EXHF       =         0.00000000
  -V(xc)+E(xc)   XCENC  =      -116.46393087
  PAW double counting   =      2708.10111537    -2459.21352679
  entropy T*S    EENTRO =         0.00000000
  eigenvalues    EBANDS =       137.36559633
  atomic energy  EATOM  =      3238.98500772
  ---------------------------------------------------
  free energy    TOTEN  =        -5.59924365 eV

  energy without entropy =       -5.59924365  energy(sigma->0) =       -5.59924365


--------------------------------------------------------------------------------------------------------




----------------------------------------- Iteration    1(   3)  ---------------------------------------


     EDDAV:  cpu time    2.35: real time    2.35
 BZINTS: Fermi energy:  5.887010; 40.000000 electrons
         Band energy: 121.720599;  BLOECHL correction: -0.106408
       DOS:  cpu time    0.04: real time    0.04
    --------------------------------------------
      LOOP:  cpu time    2.38: real time    2.39

 eigenvalue-minimisations  :  1104
 total energy-change (2. order) :-0.1564500E+02  (-0.1513850E+02)
 number of electron      40.0000000 magnetization 
 augmentation part       40.0000000 magnetization 

 Free energy of the ion-electron system (eV)
  ---------------------------------------------------
  alpha Z        PSCENC =       369.11897992
  Ewald energy   TEWEN  =     -3391.49467553
  -1/2 Hartree   DENC   =      -491.99780979
  -exchange  EXHF       =         0.00000000
  -V(xc)+E(xc)   XCENC  =      -116.46393087
  PAW double counting   =      2708.10111537    -2459.21352679
  entropy T*S    EENTRO =         0.00000000
  eigenvalues    EBANDS =       121.72059862
  atomic energy  EATOM  =      3238.98500772
  ---------------------------------------------------
  free energy    TOTEN  =       -21.24424137 eV

  energy without entropy =      -21.24424137  energy(sigma->0) =      -21.24424137


--------------------------------------------------------------------------------------------------------




----------------------------------------- Iteration    1(   4)  ---------------------------------------


     EDDAV:  cpu time    2.22: real time    2.22
 BZINTS: Fermi energy:  5.866165; 40.000000 electrons
         Band energy: 121.257807;  BLOECHL correction: -0.109931
       DOS:  cpu time    0.04: real time    0.04
    --------------------------------------------
      LOOP:  cpu time    2.26: real time    2.26

 eigenvalue-minimisations  :  1032
 total energy-change (2. order) :-0.4627919E+00  (-0.4466988E+00)
 number of electron      40.0000000 magnetization 
 augmentation part       40.0000000 magnetization 

 Free energy of the ion-electron system (eV)
  ---------------------------------------------------
  alpha Z        PSCENC =       369.11897992
  Ewald energy   TEWEN  =     -3391.49467553
  -1/2 Hartree   DENC   =      -491.99780979
  -exchange  EXHF       =         0.00000000
  -V(xc)+E(xc)   XCENC  =      -116.46393087
  PAW double counting   =      2708.10111537    -2459.21352679
  entropy T*S    EENTRO =         0.00000000
  eigenvalues    EBANDS =       121.25780671
  atomic energy  EATOM  =      3238.98500772
  ---------------------------------------------------
  free energy    TOTEN  =       -21.70703327 eV

  energy without entropy =      -21.70703327  energy(sigma->0) =      -21.70703327


--------------------------------------------------------------------------------------------------------




----------------------------------------- Iteration    1(   5)  ---------------------------------------


     EDDAV:  cpu time    2.38: real time    2.38
 BZINTS: Fermi energy:  5.865766; 40.000000 electrons
         Band energy: 121.246244;  BLOECHL correction: -0.110254
       DOS:  cpu time    0.04: real time    0.04
    CHARGE:  cpu time    0.12: real time    0.12
    MIXING:  cpu time    0.00: real time    0.00
    --------------------------------------------
      LOOP:  cpu time    2.54: real time    2.54

 eigenvalue-minimisations  :  1128
 total energy-change (2. order) :-0.1156234E-01  (-0.1128005E-01)
 number of electron      40.0000043 magnetization 
 augmentation part       16.0405017 magnetization 

 Broyden mixing:
  rms(total) = 0.68041E+00    rms(broyden)= 0.68029E+00
  rms(prec ) = 0.16633E+01
  weight for this iteration     100.00

 Free energy of the ion-electron system (eV)
  ---------------------------------------------------
  alpha Z        PSCENC =       369.11897992
  Ewald energy   TEWEN  =     -3391.49467553
  -1/2 Hartree   DENC   =      -491.99780979
  -exchange  EXHF       =         0.00000000
  -V(xc)+E(xc)   XCENC  =      -116.46393087
  PAW double counting   =      2708.10111537    -2459.21352679
  entropy T*S    EENTRO =         0.00000000
  eigenvalues    EBANDS =       121.24624437
  atomic energy  EATOM  =      3238.98500772
  ---------------------------------------------------
  free energy    TOTEN  =       -21.71859561 eV

  energy without entropy =      -21.71859561  energy(sigma->0) =      -21.71859561


--------------------------------------------------------------------------------------------------------




----------------------------------------- Iteration    1(   6)  ---------------------------------------


    POTLOK:  cpu time    0.08: real time    0.08
    SETDIJ:  cpu time    0.02: real time    0.03
     EDDAV:  cpu time    2.13: real time    2.13
 BZINTS: Fermi energy:  4.996211; 40.000000 electrons
         Band energy:  95.603819;  BLOECHL correction: -0.093058
       DOS:  cpu time    0.04: real time    0.04
    CHARGE:  cpu time    0.12: real time    0.12
    MIXING:  cpu time    0.00: real time    0.00
    --------------------------------------------
      LOOP:  cpu time    2.40: real time    2.40

 eigenvalue-minimisations  :   976
 total energy-change (2. order) : 0.1044590E+01  (-0.3915679E+00)
 number of electron      40.0000046 magnetization 
 augmentation part       16.8542744 magnetization 

 Broyden mixing:
  rms(total) = 0.93163E-01    rms(broyden)= 0.93088E-01
  rms(prec ) = 0.17347E+00
  weight for this iteration     100.00

 eigenvalues of (default mixing * dielectric matrix)
  average eigenvalue GAMMA=   1.0499
  1.0499

 Free energy of the ion-electron system (eV)
  ---------------------------------------------------
  alpha Z        PSCENC =       369.11897992
  Ewald energy   TEWEN  =     -3391.49467553
  -1/2 Hartree   DENC   =      -460.08410356
  -exchange  EXHF       =         0.00000000
  -V(xc)+E(xc)   XCENC  =      -117.36242214
  PAW double counting   =      2697.54080432    -2452.98141462
  entropy T*S    EENTRO =         0.00000000
  eigenvalues    EBANDS =        95.60381857
  atomic energy  EATOM  =      3238.98500772
  ---------------------------------------------------
  free energy    TOTEN  =       -20.67400532 eV

  energy without entropy =      -20.67400532  energy(sigma->0) =      -20.67400532


--------------------------------------------------------------------------------------------------------




----------------------------------------- Iteration    1(   7)  ---------------------------------------


    POTLOK:  cpu time    0.08: real time    0.08
    SETDIJ:  cpu time    0.03: real time    0.03
     EDDAV:  cpu time    2.18: real time    2.19
 BZINTS: Fermi energy:  4.981902; 40.000000 electrons
         Band energy:  95.055807;  BLOECHL correction: -0.093455
       DOS:  cpu time    0.04: real time    0.04
    CHARGE:  cpu time    0.12: real time    0.12
    MIXING:  cpu time    0.00: real time    0.00
    --------------------------------------------
      LOOP:  cpu time    2.46: real time    2.46

 eigenvalue-minimisations  :  1000
 total energy-change (2. order) : 0.2499831E-01  (-0.3201507E-02)
 number of electron      40.0000046 magnetization 
 augmentation part       16.8681256 magnetization 

 Broyden mixing:
  rms(total) = 0.53476E-01    rms(broyden)= 0.53468E-01
  rms(prec ) = 0.96387E-01
  weight for this iteration     100.00

 eigenvalues of (default mixing * dielectric matrix)
  average eigenvalue GAMMA=   1.7734
  1.0080  2.5388

 Free energy of the ion-electron system (eV)
  ---------------------------------------------------
  alpha Z        PSCENC =       369.11897992
  Ewald energy   TEWEN  =     -3391.49467553
  -1/2 Hartree   DENC   =      -457.85980966
  -exchange  EXHF       =         0.00000000
  -V(xc)+E(xc)   XCENC  =      -117.42480710
  PAW double counting   =      2735.87216317    -2492.90167242
  entropy T*S    EENTRO =         0.00000000
  eigenvalues    EBANDS =        95.05580691
  atomic energy  EATOM  =      3238.98500772
  ---------------------------------------------------
  free energy    TOTEN  =       -20.64900701 eV

  energy without entropy =      -20.64900701  energy(sigma->0) =      -20.64900701


--------------------------------------------------------------------------------------------------------




----------------------------------------- Iteration    1(   8)  ---------------------------------------


    POTLOK:  cpu time    0.08: real time    0.08
    SETDIJ:  cpu time    0.03: real time    0.03
     EDDAV:  cpu time    2.18: real time    2.19
 BZINTS: Fermi energy:  4.968676; 40.000000 electrons
         Band energy:  94.544877;  BLOECHL correction: -0.093576
       DOS:  cpu time    0.04: real time    0.04
    CHARGE:  cpu time    0.12: real time    0.12
    MIXING:  cpu time    0.00: real time    0.00
    --------------------------------------------
      LOOP:  cpu time    2.45: real time    2.45

 eigenvalue-minimisations  :  1008
 total energy-change (2. order) : 0.1166231E-01  (-0.6255546E-03)
 number of electron      40.0000046 magnetization 
 augmentation part       16.8720082 magnetization 

 Broyden mixing:
  rms(total) = 0.31348E-02    rms(broyden)= 0.31307E-02
  rms(prec ) = 0.39893E-02
  weight for this iteration     100.00

 eigenvalues of (default mixing * dielectric matrix)
  average eigenvalue GAMMA=   1.6242
  2.5245  1.0122  1.3359

 Free energy of the ion-electron system (eV)
  ---------------------------------------------------
  alpha Z        PSCENC =       369.11897992
  Ewald energy   TEWEN  =     -3391.49467553
  -1/2 Hartree   DENC   =      -455.20395313
  -exchange  EXHF       =         0.00000000
  -V(xc)+E(xc)   XCENC  =      -117.49734365
  PAW double counting   =      2792.19937636    -2551.28961294
  entropy T*S    EENTRO =         0.00000000
  eigenvalues    EBANDS =        94.54487654
  atomic energy  EATOM  =      3238.98500772
  ---------------------------------------------------
  free energy    TOTEN  =       -20.63734470 eV

  energy without entropy =      -20.63734470  energy(sigma->0) =      -20.63734470


--------------------------------------------------------------------------------------------------------




----------------------------------------- Iteration    1(   9)  ---------------------------------------


    POTLOK:  cpu time    0.08: real time    0.08
    SETDIJ:  cpu time    0.03: real time    0.03
     EDDAV:  cpu time    2.40: real time    2.40
 BZINTS: Fermi energy:  4.965930; 40.000000 electrons
         Band energy:  94.461406;  BLOECHL correction: -0.093563
       DOS:  cpu time    0.04: real time    0.04
    CHARGE:  cpu time    0.12: real time    0.12
    MIXING:  cpu time    0.00: real time    0.00
    --------------------------------------------
      LOOP:  cpu time    2.67: real time    2.67

 eigenvalue-minimisations  :  1136
 total energy-change (2. order) : 0.2123690E-04  (-0.2930950E-04)
 number of electron      40.0000046 magnetization 
 augmentation part       16.8748455 magnetization 

 Broyden mixing:
  rms(total) = 0.19774E-02    rms(broyden)= 0.19771E-02
  rms(prec ) = 0.35536E-02
  weight for this iteration     100.00

 eigenvalues of (default mixing * dielectric matrix)
  average eigenvalue GAMMA=   1.7524
  2.5303  2.5303  0.9745  0.9745

 Free energy of the ion-electron system (eV)
  ---------------------------------------------------
  alpha Z        PSCENC =       369.11897992
  Ewald energy   TEWEN  =     -3391.49467553
  -1/2 Hartree   DENC   =      -455.21834916
  -exchange  EXHF       =         0.00000000
  -V(xc)+E(xc)   XCENC  =      -117.49708779
  PAW double counting   =      2792.23825811    -2551.23086232
  entropy T*S    EENTRO =         0.00000000
  eigenvalues    EBANDS =        94.46140559
  atomic energy  EATOM  =      3238.98500772
  ---------------------------------------------------
  free energy    TOTEN  =       -20.63732347 eV

  energy without entropy =      -20.63732347  energy(sigma->0) =      -20.63732347


--------------------------------------------------------------------------------------------------------




----------------------------------------- Iteration    1(  10)  ---------------------------------------


    POTLOK:  cpu time    0.08: real time    0.08
    SETDIJ:  cpu time    0.03: real time    0.03
     EDDAV:  cpu time    2.28: real time    2.28
 BZINTS: Fermi energy:  4.966139; 40.000000 electrons
         Band energy:  94.466219;  BLOECHL correction: -0.093571
       DOS:  cpu time    0.04: real time    0.04
    CHARGE:  cpu time    0.12: real time    0.12
    MIXING:  cpu time    0.00: real time    0.00
    --------------------------------------------
      LOOP:  cpu time    2.55: real time    2.55

 eigenvalue-minimisations  :  1064
 total energy-change (2. order) :-0.1042163E-04  (-0.1345024E-05)
 number of electron      40.0000046 magnetization 
 augmentation part       16.8746953 magnetization 

 Broyden mixing:
  rms(total) = 0.31904E-03    rms(broyden)= 0.31891E-03
  rms(prec ) = 0.52908E-03
  weight for this iteration     100.00

 eigenvalues of (default mixing * dielectric matrix)
  average eigenvalue GAMMA=   1.5967
  2.6327  2.4572  1.0004  1.0004  0.8928

 Free energy of the ion-electron system (eV)
  ---------------------------------------------------
  alpha Z        PSCENC =       369.11897992
  Ewald energy   TEWEN  =     -3391.49467553
  -1/2 Hartree   DENC   =      -455.34759495
  -exchange  EXHF       =         0.00000000
  -V(xc)+E(xc)   XCENC  =      -117.49378971
  PAW double counting   =      2793.01756940    -2551.88904968
  entropy T*S    EENTRO =         0.00000000
  eigenvalues    EBANDS =        94.46621895
  atomic energy  EATOM  =      3238.98500772
  ---------------------------------------------------
  free energy    TOTEN  =       -20.63733389 eV

  energy without entropy =      -20.63733389  energy(sigma->0) =      -20.63733389


--------------------------------------------------------------------------------------------------------




----------------------------------------- Iteration    1(  11)  ---------------------------------------


    POTLOK:  cpu time    0.08: real time    0.08
    SETDIJ:  cpu time    0.02: real time    0.03
     EDDAV:  cpu time    1.47: real time    1.47
 BZINTS: Fermi energy:  4.966258; 40.000000 electrons
         Band energy:  94.469104;  BLOECHL correction: -0.093573
       DOS:  cpu time    0.04: real time    0.04
    CHARGE:  cpu time    0.12: real time    0.12
    MIXING:  cpu time    0.00: real time    0.00
    --------------------------------------------
      LOOP:  cpu time    1.73: real time    1.74

 eigenvalue-minimisations  :   536
 total energy-change (2. order) :-0.6205461E-05  (-0.5412057E-07)
 number of electron      40.0000046 magnetization 
 augmentation part       16.8745674 magnetization 

 Broyden mixing:
  rms(total) = 0.36659E-04    rms(broyden)= 0.36617E-04
  rms(prec ) = 0.57301E-04
  weight for this iteration     100.00

 eigenvalues of (default mixing * dielectric matrix)
  average eigenvalue GAMMA=   1.6922
  2.5510  2.5510  2.1192  0.9959  0.9959  0.9399

 Free energy of the ion-electron system (eV)
  ---------------------------------------------------
  alpha Z        PSCENC =       369.11897992
  Ewald energy   TEWEN  =     -3391.49467553
  -1/2 Hartree   DENC   =      -455.35010629
  -exchange  EXHF       =         0.00000000
  -V(xc)+E(xc)   XCENC  =      -117.49373192
  PAW double counting   =      2793.34541737    -2552.21733487
  entropy T*S    EENTRO =         0.00000000
  eigenvalues    EBANDS =        94.46910352
  atomic energy  EATOM  =      3238.98500772
  ---------------------------------------------------
  free energy    TOTEN  =       -20.63734009 eV

  energy without entropy =      -20.63734009  energy(sigma->0) =      -20.63734009


--------------------------------------------------------------------------------------------------------




----------------------------------------- Iteration    1(  12)  ---------------------------------------


    POTLOK:  cpu time    0.08: real time    0.08
    SETDIJ:  cpu time    0.02: real time    0.03
     EDDAV:  cpu time    1.40: real time    1.40
 BZINTS: Fermi energy:  4.966313; 40.000000 electrons
         Band energy:  94.470768;  BLOECHL correction: -0.093573
       DOS:  cpu time    0.04: real time    0.04
    CHARGE:  cpu time    0.12: real time    0.12
    MIXING:  cpu time    0.00: real time    0.00
    --------------------------------------------
      LOOP:  cpu time    1.67: real time    1.67

 eigenvalue-minimisations  :   496
 total energy-change (2. order) :-0.1174700E-05  (-0.1303035E-07)
 number of electron      40.0000046 magnetization 
 augmentation part       16.8745654 magnetization 

 Broyden mixing:
  rms(total) = 0.26843E-04    rms(broyden)= 0.26839E-04
  rms(prec ) = 0.43040E-04
  weight for this iteration     100.00

 eigenvalues of (default mixing * dielectric matrix)
  average eigenvalue GAMMA=   1.6385
  2.6192  2.6192  2.5680  0.9968  0.9968  0.9510  0.7186

 Free energy of the ion-electron system (eV)
  ---------------------------------------------------
  alpha Z        PSCENC =       369.11897992
  Ewald energy   TEWEN  =     -3391.49467553
  -1/2 Hartree   DENC   =      -455.35153858
  -exchange  EXHF       =         0.00000000
  -V(xc)+E(xc)   XCENC  =      -117.49369172
  PAW double counting   =      2793.29352354    -2552.16571436
  entropy T*S    EENTRO =         0.00000000
  eigenvalues    EBANDS =        94.47076775
  atomic energy  EATOM  =      3238.98500772
  ---------------------------------------------------
  free energy    TOTEN  =       -20.63734127 eV

  energy without entropy =      -20.63734127  energy(sigma->0) =      -20.63734127


--------------------------------------------------------------------------------------------------------




----------------------------------------- Iteration    1(  13)  ---------------------------------------


    POTLOK:  cpu time    0.08: real time    0.08
    SETDIJ:  cpu time    0.03: real time    0.03
     EDDAV:  cpu time    1.38: real time    1.38
 BZINTS: Fermi energy:  4.966324; 40.000000 electrons
         Band energy:  94.471042;  BLOECHL correction: -0.093573
       DOS:  cpu time    0.04: real time    0.04
    --------------------------------------------
      LOOP:  cpu time    1.53: real time    1.53

 eigenvalue-minimisations  :   480
 total energy-change (2. order) :-0.5028674E-06  (-0.4208697E-08)
 number of electron      40.0000046 magnetization 
 augmentation part       16.8745654 magnetization 

 Free energy of the ion-electron system (eV)
  ---------------------------------------------------
  alpha Z        PSCENC =       369.11897992
  Ewald energy   TEWEN  =     -3391.49467553
  -1/2 Hartree   DENC   =      -455.35067922
  -exchange  EXHF       =         0.00000000
  -V(xc)+E(xc)   XCENC  =      -117.49371369
  PAW double counting   =      2793.28090138    -2552.15420404
  entropy T*S    EENTRO =         0.00000000
  eigenvalues    EBANDS =        94.47104170
  atomic energy  EATOM  =      3238.98500772
  ---------------------------------------------------
  free energy    TOTEN  =       -20.63734177 eV

  energy without entropy =      -20.63734177  energy(sigma->0) =      -20.63734177


--------------------------------------------------------------------------------------------------------




 average (electrostatic) potential at core
  the test charge radii are     1.1199
  (the norm of the test charge is              1.0000)
       1 -46.6993       2 -46.6993       3 -46.6993       4 -46.6993
 
 
 
 E-fermi :   4.9663     XC(G=0): -13.1760     alpha+bet :-11.8587


 k-point   1 :       0.0000    0.0000    0.0000
  band No.  band energies     occupation 
      1      -2.1859      2.00000
      2      -0.4254      2.00000
      3      -0.4254      2.00000
      4      -0.4254      2.00000
      5      -0.1416      2.00000
      6      -0.1416      2.00000
      7      -0.1416      2.00000
      8       2.1296      2.00000
      9       2.1296      2.00000
     10       2.1296      2.00000
     11       3.7501      2.00000
     12       3.7501      2.00000
     13       4.9254      2.00000
     14       4.9254      2.00000
     15       4.9254      2.00000
     16       5.2614      1.06053
     17       5.2614      0.34351
     18       5.2614     -0.03546
     19       5.2614      0.00000
     20       5.2614      0.00000
     21       5.2614      0.00000
     22       8.3414      0.00000
     23       8.3414      0.00000
     24       8.3414      0.00000

 k-point   2 :       0.1429    0.0000    0.0000
  band No.  band energies     occupation 
      1      -1.9397      2.00000
      2      -0.3094      2.00000
      3      -0.2672      2.00000
      4      -0.2672      2.00000
      5      -0.0457      2.00000
      6       0.0028      2.00000
      7       0.0028      2.00000
      8       1.9957      2.00000
      9       2.2426      2.00000
     10       2.2426      2.00000
     11       3.6123      2.00000
     12       3.8043      2.00000
     13       4.5209      2.00000
     14       4.5209      2.00000
     15       4.7347      2.00000
     16       4.7347      1.98387
     17       4.8626      1.93031
     18       5.0364      1.42302
     19       5.0364      0.37122
     20       5.2616      0.00000
     21       5.2616      0.00000
     22       7.2532      0.00000
     23       9.2486      0.00000
     24       9.2486      0.00000

 k-point   3 :       0.2857    0.0000    0.0000
  band No.  band energies     occupation 
      1      -1.2484      2.00000
      2      -0.0264      2.00000
      3       0.1450      2.00000
      4       0.1450      2.00000
      5       0.2301      2.00000
      6       0.4324      2.00000
      7       0.4324      2.00000
      8       1.6352      2.00000
      9       2.5743      2.00000
     10       2.5743      2.00000
     11       3.2672      2.00000
     12       3.2672      2.00000
     13       3.2727      2.00000
     14       3.9580      2.00000
     15       4.2430      2.00000
     16       4.2430      2.00000
     17       4.4679      2.00000
     18       4.4679      2.00408
     19       4.6897      2.10861
     20       5.2612     -0.10945
     21       5.2625     -0.03838
     22       5.2625      0.00000
     23      10.9900      0.00000
     24      10.9900      0.00000

 k-point   4 :       0.4286    0.0000    0.0000
  band No.  band energies     occupation 
      1      -0.3404      2.00000
      2       0.1443      2.00000
      3       0.5701      2.00000
      4       0.5701      2.00000
      5       0.6498      2.00000
      6       1.1372      2.00000
      7       1.1372      2.00000
      8       1.1492      2.00000
      9       2.0967      2.00000
     10       2.0967      2.00000
     11       3.0302      2.00000
     12       3.0999      2.00000
     13       3.0999      2.00000
     14       3.6073      2.00000
     15       3.7481      2.00000
     16       3.7481      2.00000
     17       3.7652      2.00000
     18       3.7652      2.00000
     19       4.1859      2.00076
     20       4.4469      2.48063
     21       5.2631     -0.12738
     22       5.2631      0.00000
     23      12.9293      0.00000
     24      12.9293      0.00000

 k-point   5 :       0.1429    0.1429    0.0000
  band No.  band energies     occupation 
      1      -1.7035      2.00000
      2      -0.1553      2.00000
      3      -0.1477      2.00000
      4      -0.1477      2.00000
      5       0.0929      2.00000
      6       0.0929      2.00000
      7       0.1754      2.00000
      8       1.9440      2.00000
      9       2.2843      2.00000
     10       2.3260      2.00000
     11       3.5797      2.00000
     12       3.7909      2.00000
     13       4.1249      2.00000
     14       4.1770      2.00000
     15       4.1770      2.00000
     16       4.5711      2.00809
     17       4.7703      1.99707
     18       4.7703      2.00170
     19       5.0350      0.69519
     20       5.0350      0.07535
     21       5.1106     -0.00515
     22       8.1485      0.00000
     23       8.1485      0.00000
     24       9.9660      0.00000

 k-point   6 :       0.2857    0.1429    0.0000
  band No.  band energies     occupation 
      1      -1.0417      2.00000
      2       0.1464      2.00000
      3       0.1841      2.00000
      4       0.2763      2.00000
      5       0.3520      2.00000
      6       0.5048      2.00000
      7       0.6238      2.00000
      8       1.6489      2.00000
      9       2.5289      2.00000
     10       2.5793      2.00000
     11       2.9820      2.00000
     12       3.1312      2.00000
     13       3.3458      2.00000
     14       3.4959      2.00000
     15       3.9872      2.00000
     16       4.1393      2.00000
     17       4.2920      2.00000
     18       4.4635      2.00252
     19       4.5948      2.21238
     20       5.0312      0.46266
     21       5.0349      0.14189
     22       6.2879      0.00000
     23       9.6923      0.00000
     24      11.5340      0.00000

 k-point   7 :       0.4286    0.1429    0.0000
  band No.  band energies     occupation 
      1      -0.1644      2.00000
      2       0.3267      2.00000
      3       0.6524      2.00000
      4       0.7165      2.00000
      5       0.7443      2.00000
      6       1.1758      2.00000
      7       1.1864      2.00000
      8       1.2072      2.00000
      9       1.9291      2.00000
     10       2.0754      2.00000
     11       2.5589      2.00000
     12       2.7673      2.00000
     13       3.0964      2.00000
     14       3.4740      2.00000
     15       3.7099      2.00000
     16       3.7598      2.00000
     17       3.7779      2.00000
     18       4.1105      2.00000
     19       4.3441      2.00090
     20       4.9494      1.72982
     21       5.0233      0.08028
     22       5.0262      0.00000
     23      11.2682      0.00000
     24      12.7597      0.00000

 k-point   8 :       0.2857    0.2857    0.0000
  band No.  band energies     occupation 
      1      -0.4702      2.00000
      2       0.3915      2.00000
      3       0.6101      2.00000
      4       0.6101      2.00000
      5       0.7099      2.00000
      6       0.7099      2.00000
      7       1.0509      2.00000
      8       1.5833      2.00000
      9       2.4179      2.00000
     10       2.4179      2.00000
     11       2.4886      2.00000
     12       2.6772      2.00000
     13       2.7197      2.00000
     14       3.2388      2.00000
     15       3.8413      2.00000
     16       4.1870      2.00000
     17       4.1870      2.00000
     18       4.3503      2.00000
     19       4.4549      2.07356
     20       4.4549      2.41043
     21       4.6830      2.47985
     22       7.6838      0.00000
     23       7.6838      0.00000
     24      12.2150      0.00000

 k-point   9 :       0.4286    0.2857    0.0000
  band No.  band energies     occupation 
      1       0.2908      2.00000
      2       0.8094      2.00000
      3       0.8101      2.00000
      4       1.0105      2.00000
      5       1.1230      2.00000
      6       1.2758      2.00000
      7       1.3382      2.00000
      8       1.4170      2.00000
      9       1.5772      2.00000
     10       1.9820      2.00000
     11       2.0240      2.00000
     12       2.2663      2.00000
     13       3.1365      2.00000
     14       3.3064      2.00000
     15       3.5364      2.00000
     16       3.6921      2.00000
     17       3.7607      2.00000
     18       3.7785      2.00000
     19       4.4572      2.00067
     20       4.5071      2.05525
     21       5.0460      0.12175
     22       6.0903      0.00000
     23       9.0879      0.00000
     24      10.5399      0.00000

 k-point  10 :       0.4286    0.4286    0.0000
  band No.  band energies     occupation 
      1       0.8029      2.00000
      2       0.9965      2.00000
      3       1.2034      2.00000
      4       1.2034      2.00000
      5       1.3867      2.00000
      6       1.3867      2.00000
      7       1.4247      2.00000
      8       1.6877      2.00000
      9       1.6877      2.00000
     10       1.7395      2.00000
     11       1.7514      2.00000
     12       2.1320      2.00000
     13       3.0542      2.00000
     14       3.2511      2.00000
     15       3.3378      2.00000
     16       3.3378      2.00000
     17       3.3523      2.00000
     18       3.8257      2.00000
     19       3.8257      2.00000
     20       4.0553      2.00000
     21       6.0477     -0.16924
     22       7.3403      0.00000
     23       7.3403      0.00000
     24       8.7631      0.00000

 k-point  11 :       0.1429    0.1429    0.1429
  band No.  band energies     occupation 
      1      -1.4840      2.00000
      2      -0.0483      2.00000
      3      -0.0483      2.00000
      4      -0.0483      2.00000
      5       0.2727      2.00000
      6       0.2727      2.00000
      7       0.2727      2.00000
      8       1.9305      2.00000
      9       2.3427      2.00000
     10       2.3427      2.00000
     11       3.6808      2.00000
     12       3.6808      2.00000
     13       3.8644      2.00000
     14       3.8644      2.00000
     15       3.8644      2.00000
     16       4.3384      2.01204
     17       4.3384      2.02826
     18       4.3384      2.05533
     19       5.1133      0.26915
     20       5.1133      0.02087
     21       5.1133     -0.03435
     22       8.7801      0.00000
     23       8.7801      0.00000
     24       8.7801      0.00000

 k-point  12 :       0.2857    0.1429    0.1429
  band No.  band energies     occupation 
      1      -0.8752      2.00000
      2       0.1975      2.00000
      3       0.2724      2.00000
      4       0.2724      2.00000
      5       0.5651      2.00000
      6       0.7180      2.00000
      7       0.7180      2.00000
      8       1.7245      2.00000
      9       2.4982      2.00000
     10       2.5297      2.00000
     11       2.9086      2.00000
     12       2.9086      2.00000
     13       3.2127      2.00000
     14       3.5065      2.00000
     15       3.8504      2.00000
     16       3.9528      2.00000
     17       4.0024      2.00000
     18       4.0024      2.00191
     19       4.9872      1.56306
     20       5.0104      0.70063
     21       5.0104      0.33790
     22       6.7751      0.00000
     23      10.0942      0.00000
     24      10.0942      0.00000

 k-point  13 :       0.4286    0.1429    0.1429
  band No.  band energies     occupation 
      1      -0.0870      2.00000
      2       0.3389      2.00000
      3       0.7598      2.00000
      4       0.7598      2.00000
      5       0.9776      2.00000
      6       1.1487      2.00000
      7       1.1487      2.00000
      8       1.3686      2.00000
      9       2.0536      2.00000
     10       2.0536      2.00000
     11       2.4416      2.00000
     12       2.5464      2.00000
     13       2.8595      2.00000
     14       3.3190      2.00000
     15       3.6308      2.00000
     16       3.6308      2.00000
     17       3.9041      2.00000
     18       4.3222      2.00000
     19       4.6985      2.01483
     20       4.9299      1.85914
     21       4.9299      1.39314
     22       5.0547      0.00000
     23      11.4811      0.00000
     24      11.4811      0.00000

 k-point  14 :       0.2857    0.2857    0.1429
  band No.  band energies     occupation 
      1      -0.4345      2.00000
      2       0.4149      2.00000
      3       0.4328      2.00000
      4       0.4328      2.00000
      5       1.0331      2.00000
      6       1.0331      2.00000
      7       1.1245      2.00000
      8       1.8359      2.00000
      9       2.4453      2.00000
     10       2.4453      2.00000
     11       2.4646      2.00000
     12       2.5354      2.00000
     13       2.6154      2.00000
     14       3.5495      2.00000
     15       3.5555      2.00000
     16       3.5965      2.00000
     17       3.5965      2.00000
     18       4.2488      2.00000
     19       4.8620      2.00844
     20       4.8837      1.95690
     21       4.8837      1.79019
     22       7.8963      0.00000
     23       7.8963      0.00000
     24      10.9018      0.00000

 k-point  15 :       0.4286    0.2857    0.1429
  band No.  band energies     occupation 
      1       0.0986      2.00000
      2       0.4367      2.00000
      3       0.7263      2.00000
      4       0.7980      2.00000
      5       1.2835      2.00000
      6       1.3154      2.00000
      7       1.5215      2.00000
      8       1.7953      2.00000
      9       2.0771      2.00000
     10       2.0901      2.00000
     11       2.2570      2.00000
     12       2.2809      2.00000
     13       2.7177      2.00000
     14       3.1036      2.00000
     15       3.2707      2.00000
     16       3.3446      2.00000
     17       3.8769      2.00000
     18       4.5080      2.00000
     19       4.6876      2.00826
     20       4.6924      2.05039
     21       4.9282      1.21868
     22       6.0750      0.00000
     23       9.1652      0.00000
     24      10.4446      0.00000

 k-point  16 :       0.4286    0.4286    0.1429
  band No.  band energies     occupation 
      1       0.3240      2.00000
      2       0.5697      2.00000
      3       0.5697      2.00000
      4       0.6514      2.00000
      5       1.5612      2.00000
      6       1.7119      2.00000
      7       1.7119      2.00000
      8       1.9790      2.00000
      9       2.2177      2.00000
     10       2.2177      2.00000
     11       2.3619      2.00000
     12       2.4611      2.00000
     13       2.6487      2.00000
     14       2.9312      2.00000
     15       2.9400      2.00000
     16       2.9400      2.00000
     17       3.8382      2.00000
     18       4.2731      2.00000
     19       4.2731      2.00548
     20       4.3728      2.00562
     21       5.9280     -0.27371
     22       7.2821      0.00000
     23       7.2821      0.00000
     24       8.6974      0.00000

 k-point  17 :       0.2857    0.2857    0.2857
  band No.  band energies     occupation 
      1      -0.3138      2.00000
      2       0.3650      2.00000
      3       0.3650      2.00000
      4       0.3650      2.00000
      5       1.4075      2.00000
      6       1.4075      2.00000
      7       1.4075      2.00000
      8       2.3794      2.00000
      9       2.3794      2.00000
     10       2.4687      2.00000
     11       2.5269      2.00000
     12       2.5269      2.00000
     13       2.5269      2.00000
     14       3.0635      2.00000
     15       3.0635      2.00000
     16       3.0635      2.00000
     17       4.0829      2.00000
     18       4.0829      2.00000
     19       5.0176      1.50983
     20       5.0176      1.34802
     21       5.0176      0.48005
     22       8.4672      0.00000
     23       8.4672      0.00000
     24       8.4672      0.00000

 k-point  18 :       0.4286    0.2857    0.2857
  band No.  band energies     occupation 
      1      -0.1017      2.00000
      2       0.1594      2.00000
      3       0.3876      2.00000
      4       0.3876      2.00000
      5       1.5151      2.00000
      6       1.5151      2.00000
      7       1.8541      2.00000
      8       2.2078      2.00000
      9       2.4152      2.00000
     10       2.5697      2.00000
     11       2.6546      2.00000
     12       2.7169      2.00000
     13       2.7169      2.00000
     14       2.7502      2.00000
     15       2.8602      2.00000
     16       2.8602      2.00000
     17       4.5811      2.00000
     18       4.6536      2.00000
     19       4.8750      2.00203
     20       4.8750      2.00334
     21       4.9231      0.96992
     22       6.2929      0.00000
     23       9.0551      0.00000
     24       9.0551      0.00000

 k-point  19 :       0.4286    0.4286    0.2857
  band No.  band energies     occupation 
      1      -0.1185      2.00000
      2       0.0584      2.00000
      3       0.0584      2.00000
      4       0.1346      2.00000
      5       1.7528      2.00000
      6       1.8625      2.00000
      7       1.8625      2.00000
      8       2.1321      2.00000
      9       2.2851      2.00000
     10       2.4442      2.00000
     11       2.4442      2.00000
     12       2.4916      2.00000
     13       3.2619      2.00000
     14       3.2619      2.00000
     15       3.3049      2.00000
     16       3.5262      2.00000
     17       4.4109      2.00000
     18       4.7762      2.00000
     19       4.7762      2.01257
     20       4.7802      2.01304
     21       5.5647     -0.20922
     22       7.0764      0.00000
     23       7.0764      0.00000
     24       8.1613      0.00000

 k-point  20 :       0.4286    0.4286    0.4286
  band No.  band energies     occupation 
      1      -0.2988      2.00000
      2      -0.2070      2.00000
      3      -0.2070      2.00000
      4      -0.2070      2.00000
      5       1.9892      2.00000
      6       1.9892      2.00000
      7       1.9892      2.00000
      8       2.1288      2.00000
      9       2.1288      2.00000
     10       2.2025      2.00000
     11       2.2025      2.00000
     12       2.2025      2.00000
     13       4.1497      2.00000
     14       4.1497      2.00000
     15       4.1497      2.00000
     16       4.8226      2.00000
     17       4.8226      2.00000
     18       4.9578      2.00000
     19       4.9578      1.98320
     20       4.9578      1.98311
     21       5.1940     -0.00130
     22       6.7731      0.00000
     23       6.7731      0.00000
     24       6.7731      0.00000


--------------------------------------------------------------------------------------------------------


 soft charge-density along one line, spin component           1
         0         1         2         3         4         5         6         7         8         9
 total charge-density along one line
 
 pseudopotential strength for first ion, spin component:           1
 -9.307   0.000   0.000   0.000   0.000  -0.228   0.000   0.000
  0.000  -9.307   0.000   0.000   0.000   0.000  -0.228   0.000
  0.000   0.000  -9.271   0.000   0.000   0.000   0.000  -0.233
  0.000   0.000   0.000  -9.307   0.000   0.000   0.000   0.000
  0.000   0.000   0.000   0.000  -9.271   0.000   0.000   0.000
 -0.228   0.000   0.000   0.000   0.000   0.376   0.000   0.000
  0.000  -0.228   0.000   0.000   0.000   0.000   0.376   0.000
  0.000   0.000  -0.233   0.000   0.000   0.000   0.000   0.377
  0.000   0.000   0.000  -0.228   0.000   0.000   0.000   0.000
  0.000   0.000   0.000   0.000  -0.233   0.000   0.000   0.000
  0.000   0.000   0.000   0.000   0.000   0.000   0.000   0.000
  0.000   0.000   0.000   0.000   0.000   0.000   0.000   0.000
  0.000   0.000   0.000   0.000   0.000   0.000   0.000   0.000
  0.000   0.000   0.000   0.000   0.000   0.000   0.000   0.000
  0.000   0.000   0.000   0.000   0.000   0.000   0.000   0.000
  0.000   0.000   0.000   0.000   0.000   0.000   0.000   0.000
  0.000   0.000   0.000   0.000   0.000   0.000   0.000   0.000
  0.000   0.000   0.000   0.000   0.000   0.000   0.000   0.000
 total augmentation occupancy for first ion, spin component:           1
  1.735   0.000   0.000   0.000   0.000   0.143   0.000   0.000   0.000   0.000   0.000   0.000   0.000   0.000   0.000   0.000
  0.000   1.735   0.000   0.000   0.000   0.000   0.143   0.000   0.000   0.000   0.000   0.000   0.000   0.000   0.000   0.000
  0.000   0.000   1.870   0.000   0.000   0.000   0.000   0.048   0.000   0.000   0.000   0.000   0.000   0.000   0.000   0.000
  0.000   0.000   0.000   1.735   0.000   0.000   0.000   0.000   0.143   0.000   0.000   0.000   0.000   0.000   0.000   0.000
  0.000   0.000   0.000   0.000   1.870   0.000   0.000   0.000   0.000   0.048   0.000   0.000   0.000   0.000   0.000   0.000
  0.143   0.000   0.000   0.000   0.000   0.172   0.000   0.000   0.000   0.000   0.000   0.000   0.000   0.000   0.000   0.000
  0.000   0.143   0.000   0.000   0.000   0.000   0.172   0.000   0.000   0.000   0.000   0.000   0.000   0.000   0.000   0.000
  0.000   0.000   0.048   0.000   0.000   0.000   0.000   0.161   0.000   0.000   0.000   0.000   0.000   0.000   0.000   0.000
  0.000   0.000   0.000   0.143   0.000   0.000   0.000   0.000   0.172   0.000   0.000   0.000   0.000   0.000   0.000   0.000
  0.000   0.000   0.000   0.000   0.048   0.000   0.000   0.000   0.000   0.161   0.000   0.000   0.000   0.000   0.000   0.000
  0.000   0.000   0.000   0.000   0.000   0.000   0.000   0.000   0.000   0.000   1.072  -0.403   0.000   0.000   0.000   0.000
  0.000   0.000   0.000   0.000   0.000   0.000   0.000   0.000   0.000   0.000  -0.403   0.167   0.000   0.000   0.000   0.000
  0.000   0.000   0.000   0.000   0.000   0.000   0.000   0.000   0.000   0.000   0.000   0.000   0.143   0.000   0.000  -0.003
  0.000   0.000   0.000   0.000   0.000   0.000   0.000   0.000   0.000   0.000   0.000   0.000   0.000   0.143   0.000   0.000
  0.000   0.000   0.000   0.000   0.000   0.000   0.000   0.000   0.000   0.000   0.000   0.000   0.000   0.000   0.143   0.000
  0.000   0.000   0.000   0.000   0.000   0.000   0.000   0.000   0.000   0.000   0.000   0.000  -0.003   0.000   0.000   0.000
  0.000   0.000   0.000   0.000   0.000   0.000   0.000   0.000   0.000   0.000   0.000   0.000   0.000  -0.003   0.000   0.000
  0.000   0.000   0.000   0.000   0.000   0.000   0.000   0.000   0.000   0.000   0.000   0.000   0.000   0.000  -0.003   0.000


------------------------ aborting loop because EDIFF is reached ----------------------------------------


    CHARGE:  cpu time    0.11: real time    0.11
    FORLOC:  cpu time    0.00: real time    0.00
    FORNL :  cpu time    1.06: real time    1.06
    STRESS:  cpu time    0.96: real time    0.95
    FORCOR:  cpu time    0.08: real time    0.09
    FORHAR:  cpu time    0.03: real time    0.02
    MIXING:  cpu time    0.00: real time    0.00

  FORCE on cell =-STRESS in cart. coord.  units (eV):
  Direction    XX          YY          ZZ          XY          YZ          ZX
  --------------------------------------------------------------------------------------
  Alpha Z   369.11898   369.11898   369.11898
  Ewald   -1130.49872 -1130.49872 -1130.49872     0.00000     0.00000     0.00000
  Hartree   151.78281   151.78281   151.78281     0.00000     0.00000     0.00000
  E(xc)    -210.39748  -210.39748  -210.39748     0.00000     0.00000     0.00000
  Local     314.06595   314.06595   314.06595     0.00000     0.00000     0.00000
  n-local  -207.88412  -210.68023  -205.00248     4.68932     3.34864     3.02104
  augment   171.98400   171.98401   171.98400    -0.00001    -0.00001     0.00000
  Kinetic   553.72007   540.96371   540.30196     2.64402    -1.40931     0.21576
  Fock        0.00000     0.00000     0.00000     0.00000     0.00000     0.00000
  -------------------------------------------------------------------------------------
  Total       3.19518     3.19518     3.19518     0.00000     0.00000     0.00000
  in kB      86.74444    86.74444    86.74444     0.00000     0.00000     0.00000
  external pressure =       86.74 kB  Pullay stress =        0.00 kB


 VOLUME and BASIS-vectors are now :
 -----------------------------------------------------------------------------
  energy-cutoff  :      415.00
  volume of cell :       59.02
      direct lattice vectors                 reciprocal lattice vectors
     3.893329937  0.000000000  0.000000000     0.256849539  0.000000000  0.000000000
     0.000000000  3.893329937  0.000000000     0.000000000  0.256849539  0.000000000
     0.000000000  0.000000000  3.893329937     0.000000000  0.000000000  0.256849539

  length of vectors
     3.893329937  3.893329937  3.893329937     0.256849539  0.256849539  0.256849539


 FORCES acting on ions
    electron-ion (+dipol)            ewald-force                    non-local-force                 convergence-correction
 -----------------------------------------------------------------------------------------------
   0.319E-13 0.240E-13 0.272E-13   -.647E-15 -.438E-14 -.534E-14   -.678E-20 0.000E+00 0.000E+00   -.134E-14 0.710E-14 -.409E-13
   -.717E-13 -.578E-13 -.312E-12   -.923E-15 0.206E-14 -.528E-14   -.678E-20 0.136E-19 0.000E+00   -.248E-13 0.875E-14 -.279E-13
   -.691E-13 0.230E-13 0.357E-12   0.839E-14 -.184E-14 0.452E-14   -.169E-19 -.136E-19 0.000E+00   -.330E-13 0.854E-14 0.408E-13
   0.321E-13 -.667E-13 -.675E-13   -.794E-14 0.460E-14 0.459E-14   -.169E-19 0.339E-20 0.000E+00   0.402E-14 -.229E-14 0.380E-13
 -----------------------------------------------------------------------------------------------
   -.768E-13 -.775E-13 0.537E-14   -.112E-14 0.433E-15 -.151E-14   -.474E-19 0.339E-20 0.000E+00   -.551E-13 0.221E-13 0.994E-14
 
 
 POSITION                                       TOTAL-FORCE (eV/Angst)
 -----------------------------------------------------------------------------------
      0.00000      0.00000      0.00000         0.000000      0.000000      0.000000
      1.94666      1.94666      0.00000         0.000000      0.000000      0.000000
      1.94666      0.00000      1.94666         0.000000      0.000000      0.000000
      0.00000      1.94666      1.94666         0.000000      0.000000      0.000000
 -----------------------------------------------------------------------------------
    total drift:                                0.000000      0.000000      0.000000


--------------------------------------------------------------------------------------------------------



  FREE ENERGIE OF THE ION-ELECTRON SYSTEM (eV)
  ---------------------------------------------------
  free  energy   TOTEN  =       -20.637342 eV

  energy  without entropy=      -20.637342  energy(sigma->0) =      -20.637342
 


--------------------------------------------------------------------------------------------------------


    POTLOK:  cpu time    0.11: real time    0.11


--------------------------------------------------------------------------------------------------------




--------------------------------------------------------------------------------------------------------


    WAVPRE:  cpu time    0.02: real time    0.02
    FEWALD:  cpu time    0.00: real time    0.00
    GENKIN:  cpu time    0.01: real time    0.01
    ORTHCH:  cpu time    0.12: real time    0.12
     LOOP+:  cpu time   32.05: real time   32.04


----------------------------------------- Iteration    2(   1)  ---------------------------------------


    POTLOK:  cpu time    0.08: real time    0.09
    SETDIJ:  cpu time    0.03: real time    0.03
     EDDAV:  cpu time    2.10: real time    2.10
 BZINTS: Fermi energy:  4.606762; 40.000000 electrons
         Band energy:  84.192040;  BLOECHL correction: -0.093379
       DOS:  cpu time    0.04: real time    0.04
    CHARGE:  cpu time    0.12: real time    0.11
    MIXING:  cpu time    0.00: real time    0.00
    --------------------------------------------
      LOOP:  cpu time    2.36: real time    2.36

 eigenvalue-minimisations  :   960
 total energy-change (2. order) :-0.9726619E-01  (-0.1429937E+00)
 number of electron      40.0000105 magnetization 
 augmentation part       17.0909627 magnetization 

 Broyden mixing:
  rms(total) = 0.16242E+00    rms(broyden)= 0.16239E+00
  rms(prec ) = 0.38175E+00
  weight for this iteration     100.00

 Free energy of the ion-electron system (eV)
  ---------------------------------------------------
  alpha Z        PSCENC =       364.88435544
  Ewald energy   TEWEN  =     -3378.47540511
  -1/2 Hartree   DENC   =      -453.60201286
  -exchange  EXHF       =         0.00000000
  -V(xc)+E(xc)   XCENC  =      -117.84564052
  PAW double counting   =      2793.28063739    -2552.15358928
  entropy T*S    EENTRO =         0.00000000
  eigenvalues    EBANDS =        84.19203977
  atomic energy  EATOM  =      3238.98500772
  ---------------------------------------------------
  free energy    TOTEN  =       -20.73460745 eV

  energy without entropy =      -20.73460745  energy(sigma->0) =      -20.73460745


--------------------------------------------------------------------------------------------------------




----------------------------------------- Iteration    2(   2)  ---------------------------------------


    POTLOK:  cpu time    0.08: real time    0.08
    SETDIJ:  cpu time    0.02: real time    0.03
     EDDAV:  cpu time    2.13: real time    2.13
 BZINTS: Fermi energy:  4.826214; 40.000000 electrons
         Band energy:  90.839047;  BLOECHL correction: -0.091792
       DOS:  cpu time    0.04: real time    0.03
    CHARGE:  cpu time    0.12: real time    0.12
    MIXING:  cpu time    0.00: real time    0.00
    --------------------------------------------
      LOOP:  cpu time    2.39: real time    2.39

 eigenvalue-minimisations  :   968
 total energy-change (2. order) : 0.6592750E-01  (-0.2608836E-01)
 number of electron      40.0000104 magnetization 
 augmentation part       16.8901085 magnetization 

 Broyden mixing:
  rms(total) = 0.16573E-01    rms(broyden)= 0.16570E-01
  rms(prec ) = 0.24267E-01
  weight for this iteration     100.00

 eigenvalues of (default mixing * dielectric matrix)
  average eigenvalue GAMMA=   1.0283
  1.0283

 Free energy of the ion-electron system (eV)
  ---------------------------------------------------
  alpha Z        PSCENC =       364.88435544
  Ewald energy   TEWEN  =     -3378.47540511
  -1/2 Hartree   DENC   =      -460.72955415
  -exchange  EXHF       =         0.00000000
  -V(xc)+E(xc)   XCENC  =      -117.65183602
  PAW double counting   =      2801.97549178    -2560.49578614
  entropy T*S    EENTRO =         0.00000000
  eigenvalues    EBANDS =        90.83904653
  atomic energy  EATOM  =      3238.98500772
  ---------------------------------------------------
  free energy    TOTEN  =       -20.66867995 eV

  energy without entropy =      -20.66867995  energy(sigma->0) =      -20.66867995


--------------------------------------------------------------------------------------------------------




----------------------------------------- Iteration    2(   3)  ---------------------------------------


    POTLOK:  cpu time    0.08: real time    0.08
    SETDIJ:  cpu time    0.02: real time    0.03
     EDDAV:  cpu time    2.12: real time    2.12
 BZINTS: Fermi energy:  4.831488; 40.000000 electrons
         Band energy:  90.983728;  BLOECHL correction: -0.091772
       DOS:  cpu time    0.04: real time    0.04
    CHARGE:  cpu time    0.12: real time    0.12
    MIXING:  cpu time    0.00: real time    0.00
    --------------------------------------------
      LOOP:  cpu time    2.38: real time    2.39

 eigenvalue-minimisations  :   968
 total energy-change (2. order) : 0.4590174E-04  (-0.2689341E-03)
 number of electron      40.0000104 magnetization 
 augmentation part       16.8802838 magnetization 

 Broyden mixing:
  rms(total) = 0.96330E-02    rms(broyden)= 0.96327E-02
  rms(prec ) = 0.14745E-01
  weight for this iteration     100.00

 eigenvalues of (default mixing * dielectric matrix)
  average eigenvalue GAMMA=   1.6915
  1.0451  2.3379

 Free energy of the ion-electron system (eV)
  ---------------------------------------------------
  alpha Z        PSCENC =       364.88435544
  Ewald energy   TEWEN  =     -3378.47540511
  -1/2 Hartree   DENC   =      -460.87786322
  -exchange  EXHF       =         0.00000000
  -V(xc)+E(xc)   XCENC  =      -117.64684385
  PAW double counting   =      2796.87581452    -2555.39742738
  entropy T*S    EENTRO =         0.00000000
  eigenvalues    EBANDS =        90.98372783
  atomic energy  EATOM  =      3238.98500772
  ---------------------------------------------------
  free energy    TOTEN  =       -20.66863405 eV

  energy without entropy =      -20.66863405  energy(sigma->0) =      -20.66863405


--------------------------------------------------------------------------------------------------------




----------------------------------------- Iteration    2(   4)  ---------------------------------------


    POTLOK:  cpu time    0.08: real time    0.08
    SETDIJ:  cpu time    0.02: real time    0.03
     EDDAV:  cpu time    2.28: real time    2.28
 BZINTS: Fermi energy:  4.825412; 40.000000 electrons
         Band energy:  90.771560;  BLOECHL correction: -0.091739
       DOS:  cpu time    0.04: real time    0.04
    CHARGE:  cpu time    0.12: real time    0.11
    MIXING:  cpu time    0.00: real time    0.00
    --------------------------------------------
      LOOP:  cpu time    2.55: real time    2.55

 eigenvalue-minimisations  :  1064
 total energy-change (2. order) :-0.4785215E-04  (-0.7757876E-04)
 number of electron      40.0000104 magnetization 
 augmentation part       16.8816658 magnetization 

 Broyden mixing:
  rms(total) = 0.14904E-02    rms(broyden)= 0.14898E-02
  rms(prec ) = 0.22894E-02
  weight for this iteration     100.00

 eigenvalues of (default mixing * dielectric matrix)
  average eigenvalue GAMMA=   1.6362
  2.4605  1.0658  1.3821

 Free energy of the ion-electron system (eV)
  ---------------------------------------------------
  alpha Z        PSCENC =       364.88435544
  Ewald energy   TEWEN  =     -3378.47540511
  -1/2 Hartree   DENC   =      -460.59302439
  -exchange  EXHF       =         0.00000000
  -V(xc)+E(xc)   XCENC  =      -117.65275771
  PAW double counting   =      2787.94512600    -2546.53354395
  entropy T*S    EENTRO =         0.00000000
  eigenvalues    EBANDS =        90.77156011
  atomic energy  EATOM  =      3238.98500772
  ---------------------------------------------------
  free energy    TOTEN  =       -20.66868190 eV

  energy without entropy =      -20.66868190  energy(sigma->0) =      -20.66868190


--------------------------------------------------------------------------------------------------------




----------------------------------------- Iteration    2(   5)  ---------------------------------------


    POTLOK:  cpu time    0.08: real time    0.08
    SETDIJ:  cpu time    0.03: real time    0.03
     EDDAV:  cpu time    2.34: real time    2.35
 BZINTS: Fermi energy:  4.827559; 40.000000 electrons
         Band energy:  90.835248;  BLOECHL correction: -0.091755
       DOS:  cpu time    0.04: real time    0.04
    CHARGE:  cpu time    0.12: real time    0.11
    MIXING:  cpu time    0.00: real time    0.00
    --------------------------------------------
      LOOP:  cpu time    2.61: real time    2.61

 eigenvalue-minimisations  :  1112
 total energy-change (2. order) :-0.2235646E-04  (-0.5257876E-05)
 number of electron      40.0000104 magnetization 
 augmentation part       16.8795334 magnetization 

 Broyden mixing:
  rms(total) = 0.75796E-03    rms(broyden)= 0.75794E-03
  rms(prec ) = 0.17191E-02
  weight for this iteration     100.00

 eigenvalues of (default mixing * dielectric matrix)
  average eigenvalue GAMMA=   1.8537
  2.9420  2.4494  1.0117  1.0117

 Free energy of the ion-electron system (eV)
  ---------------------------------------------------
  alpha Z        PSCENC =       364.88435544
  Ewald energy   TEWEN  =     -3378.47540511
  -1/2 Hartree   DENC   =      -460.63398674
  -exchange  EXHF       =         0.00000000
  -V(xc)+E(xc)   XCENC  =      -117.65159299
  PAW double counting   =      2787.78111455    -2546.39344482
  entropy T*S    EENTRO =         0.00000000
  eigenvalues    EBANDS =        90.83524769
  atomic energy  EATOM  =      3238.98500772
  ---------------------------------------------------
  free energy    TOTEN  =       -20.66870426 eV

  energy without entropy =      -20.66870426  energy(sigma->0) =      -20.66870426


--------------------------------------------------------------------------------------------------------




----------------------------------------- Iteration    2(   6)  ---------------------------------------


    POTLOK:  cpu time    0.08: real time    0.08
    SETDIJ:  cpu time    0.03: real time    0.03
     EDDAV:  cpu time    1.90: real time    1.90
 BZINTS: Fermi energy:  4.826655; 40.000000 electrons
         Band energy:  90.807063;  BLOECHL correction: -0.091749
       DOS:  cpu time    0.04: real time    0.04
    CHARGE:  cpu time    0.12: real time    0.12
    MIXING:  cpu time    0.00: real time    0.00
    --------------------------------------------
      LOOP:  cpu time    2.17: real time    2.17

 eigenvalue-minimisations  :   824
 total energy-change (2. order) : 0.1503954E-04  (-0.4715586E-06)
 number of electron      40.0000104 magnetization 
 augmentation part       16.8802221 magnetization 

 Broyden mixing:
  rms(total) = 0.16322E-03    rms(broyden)= 0.16321E-03
  rms(prec ) = 0.38170E-03
  weight for this iteration     100.00

 eigenvalues of (default mixing * dielectric matrix)
  average eigenvalue GAMMA=   1.6173
  2.5688  2.4324  1.0810  1.0022  1.0022

 Free energy of the ion-electron system (eV)
  ---------------------------------------------------
  alpha Z        PSCENC =       364.88435544
  Ewald energy   TEWEN  =     -3378.47540511
  -1/2 Hartree   DENC   =      -460.57351365
  -exchange  EXHF       =         0.00000000
  -V(xc)+E(xc)   XCENC  =      -117.65324078
  PAW double counting   =      2787.45487017    -2546.09782635
  entropy T*S    EENTRO =         0.00000000
  eigenvalues    EBANDS =        90.80706334
  atomic energy  EATOM  =      3238.98500772
  ---------------------------------------------------
  free energy    TOTEN  =       -20.66868922 eV

  energy without entropy =      -20.66868922  energy(sigma->0) =      -20.66868922


--------------------------------------------------------------------------------------------------------




----------------------------------------- Iteration    2(   7)  ---------------------------------------


    POTLOK:  cpu time    0.08: real time    0.08
    SETDIJ:  cpu time    0.02: real time    0.03
     EDDAV:  cpu time    1.37: real time    1.37
 BZINTS: Fermi energy:  4.826809; 40.000000 electrons
         Band energy:  90.812007;  BLOECHL correction: -0.091750
       DOS:  cpu time    0.04: real time    0.04
    CHARGE:  cpu time    0.12: real time    0.12
    MIXING:  cpu time    0.00: real time    0.00
    --------------------------------------------
      LOOP:  cpu time    1.64: real time    1.64

 eigenvalue-minimisations  :   480
 total energy-change (2. order) :-0.1650907E-05  (-0.2395799E-07)
 number of electron      40.0000104 magnetization 
 augmentation part       16.8801088 magnetization 

 Broyden mixing:
  rms(total) = 0.14586E-04    rms(broyden)= 0.14581E-04
  rms(prec ) = 0.18300E-04
  weight for this iteration     100.00

 eigenvalues of (default mixing * dielectric matrix)
  average eigenvalue GAMMA=   1.7561
  2.5763  2.5763  2.3799  0.9902  0.9902  1.0238

 Free energy of the ion-electron system (eV)
  ---------------------------------------------------
  alpha Z        PSCENC =       364.88435544
  Ewald energy   TEWEN  =     -3378.47540511
  -1/2 Hartree   DENC   =      -460.58527944
  -exchange  EXHF       =         0.00000000
  -V(xc)+E(xc)   XCENC  =      -117.65293386
  PAW double counting   =      2787.56205465    -2546.19849732
  entropy T*S    EENTRO =         0.00000000
  eigenvalues    EBANDS =        90.81200705
  atomic energy  EATOM  =      3238.98500772
  ---------------------------------------------------
  free energy    TOTEN  =       -20.66869087 eV

  energy without entropy =      -20.66869087  energy(sigma->0) =      -20.66869087


--------------------------------------------------------------------------------------------------------




----------------------------------------- Iteration    2(   8)  ---------------------------------------


    POTLOK:  cpu time    0.08: real time    0.08
    SETDIJ:  cpu time    0.03: real time    0.03
     EDDAV:  cpu time    1.38: real time    1.38
 BZINTS: Fermi energy:  4.826791; 40.000000 electrons
         Band energy:  90.811476;  BLOECHL correction: -0.091750
       DOS:  cpu time    0.04: real time    0.04
    --------------------------------------------
      LOOP:  cpu time    1.53: real time    1.53

 eigenvalue-minimisations  :   480
 total energy-change (2. order) : 0.6089849E-06  (-0.3824139E-08)
 number of electron      40.0000104 magnetization 
 augmentation part       16.8801088 magnetization 

 Free energy of the ion-electron system (eV)
  ---------------------------------------------------
  alpha Z        PSCENC =       364.88435544
  Ewald energy   TEWEN  =     -3378.47540511
  -1/2 Hartree   DENC   =      -460.58564762
  -exchange  EXHF       =         0.00000000
  -V(xc)+E(xc)   XCENC  =      -117.65293103
  PAW double counting   =      2787.57331642    -2546.20886233
  entropy T*S    EENTRO =         0.00000000
  eigenvalues    EBANDS =        90.81147624
  atomic energy  EATOM  =      3238.98500772
  ---------------------------------------------------
  free energy    TOTEN  =       -20.66869026 eV

  energy without entropy =      -20.66869026  energy(sigma->0) =      -20.66869026


--------------------------------------------------------------------------------------------------------




 average (electrostatic) potential at core
  the test charge radii are     1.1199
  (the norm of the test charge is              1.0000)
       1 -46.8064       2 -46.8064       3 -46.8064       4 -46.8064
 
 
 
 E-fermi :   4.8268     XC(G=0): -13.1044     alpha+bet :-11.7227


 k-point   1 :       0.0000    0.0000    0.0000
  band No.  band energies     occupation 
      1      -2.2347      2.00000
      2      -0.4661      2.00000
      3      -0.4661      2.00000
      4      -0.4661      2.00000
      5      -0.1875      2.00000
      6      -0.1875      2.00000
      7      -0.1875      2.00000
      8       2.0430      2.00000
      9       2.0430      2.00000
     10       2.0430      2.00000
     11       3.6331      2.00000
     12       3.6331      2.00000
     13       4.7858      2.00000
     14       4.7858      2.00000
     15       4.7858      2.00000
     16       5.1150      1.06538
     17       5.1150      0.35156
     18       5.1150     -0.03421
     19       5.1150      0.00000
     20       5.1150      0.00000
     21       5.1150      0.00000
     22       8.2029      0.00000
     23       8.2029      0.00000
     24       8.2029      0.00000

 k-point   2 :       0.1429    0.0000    0.0000
  band No.  band energies     occupation 
      1      -1.9909      2.00000
      2      -0.3525      2.00000
      3      -0.3103      2.00000
      4      -0.3103      2.00000
      5      -0.0932      2.00000
      6      -0.0458      2.00000
      7      -0.0458      2.00000
      8       1.9117      2.00000
      9       2.1539      2.00000
     10       2.1539      2.00000
     11       3.4983      2.00000
     12       3.6862      2.00000
     13       4.3923      2.00000
     14       4.3923      2.00000
     15       4.5994      2.00000
     16       4.5994      1.98410
     17       4.7242      1.93137
     18       4.8948      1.42579
     19       4.8948      0.37358
     20       5.1152      0.00000
     21       5.1152      0.00000
     22       7.1171      0.00000
     23       9.0923      0.00000
     24       9.0923      0.00000

 k-point   3 :       0.2857    0.0000    0.0000
  band No.  band energies     occupation 
      1      -1.3060      2.00000
      2      -0.0762      2.00000
      3       0.0956      2.00000
      4       0.0956      2.00000
      5       0.1782      2.00000
      6       0.3761      2.00000
      7       0.3761      2.00000
      8       1.5583      2.00000
      9       2.4797      2.00000
     10       2.4797      2.00000
     11       3.1620      2.00000
     12       3.1620      2.00000
     13       3.1660      2.00000
     14       3.8371      2.00000
     15       4.1182      2.00000
     16       4.1182      2.00000
     17       4.3380      2.00000
     18       4.3380      2.00402
     19       4.5548      2.10984
     20       5.1160     -0.10799
     21       5.1160     -0.03974
     22       5.1372      0.00000
     23      10.8104      0.00000
     24      10.8104      0.00000

 k-point   4 :       0.4286    0.0000    0.0000
  band No.  band energies     occupation 
      1      -0.4036      2.00000
      2       0.0854      2.00000
      3       0.5140      2.00000
      4       0.5140      2.00000
      5       0.5908      2.00000
      6       1.0686      2.00000
      7       1.0686      2.00000
      8       1.0813      2.00000
      9       2.0116      2.00000
     10       2.0116      2.00000
     11       2.9286      2.00000
     12       2.9958      2.00000
     13       2.9958      2.00000
     14       3.4983      2.00000
     15       3.6335      2.00000
     16       3.6335      2.00000
     17       3.6489      2.00000
     18       3.6489      2.00000
     19       4.0608      2.00069
     20       4.3167      2.49412
     21       5.1167     -0.12993
     22       5.1167      0.00000
     23      12.7307      0.00000
     24      12.7307      0.00000

 k-point   5 :       0.1429    0.1429    0.0000
  band No.  band energies     occupation 
      1      -1.7570      2.00000
      2      -0.2002      2.00000
      3      -0.1933      2.00000
      4      -0.1933      2.00000
      5       0.0429      2.00000
      6       0.0429      2.00000
      7       0.1238      2.00000
      8       1.8611      2.00000
      9       2.1949      2.00000
     10       2.2359      2.00000
     11       3.4664      2.00000
     12       3.6733      2.00000
     13       4.0044      2.00000
     14       4.0548      2.00000
     15       4.0548      2.00000
     16       4.4392      2.00808
     17       4.6348      1.99707
     18       4.6348      2.00209
     19       4.8935      0.69860
     20       4.8935      0.07607
     21       4.9674     -0.00480
     22       7.9939      0.00000
     23       7.9939      0.00000
     24       9.7983      0.00000

 k-point   6 :       0.2857    0.1429    0.0000
  band No.  band energies     occupation 
      1      -1.1011      2.00000
      2       0.0941      2.00000
      3       0.1337      2.00000
      4       0.2243      2.00000
      5       0.2978      2.00000
      6       0.4473      2.00000
      7       0.5645      2.00000
      8       1.5718      2.00000
      9       2.4354      2.00000
     10       2.4847      2.00000
     11       2.8816      2.00000
     12       3.0284      2.00000
     13       3.2375      2.00000
     14       3.3864      2.00000
     15       3.8660      2.00000
     16       4.0166      2.00000
     17       4.1665      2.00000
     18       4.3337      2.00249
     19       4.4633      2.21199
     20       4.8898      0.46013
     21       4.8933      0.14365
     22       6.1427      0.00000
     23       9.5158      0.00000
     24      11.3469      0.00000

 k-point   7 :       0.4286    0.1429    0.0000
  band No.  band energies     occupation 
      1      -0.2293      2.00000
      2       0.2654      2.00000
      3       0.5948      2.00000
      4       0.6579      2.00000
      5       0.6835      2.00000
      6       1.1066      2.00000
      7       1.1169      2.00000
      8       1.1382      2.00000
      9       1.8466      2.00000
     10       1.9906      2.00000
     11       2.4656      2.00000
     12       2.6701      2.00000
     13       2.9925      2.00000
     14       3.3639      2.00000
     15       3.5960      2.00000
     16       3.6435      2.00000
     17       3.6627      2.00000
     18       3.9895      2.00000
     19       4.2164      2.00083
     20       4.8135      1.71327
     21       4.8820      0.08210
     22       4.8848      0.00000
     23      11.0755      0.00000
     24      12.5578      0.00000

 k-point   8 :       0.2857    0.2857    0.0000
  band No.  band energies     occupation 
      1      -0.5341      2.00000
      2       0.3372      2.00000
      3       0.5511      2.00000
      4       0.5511      2.00000
      5       0.6491      2.00000
      6       0.6491      2.00000
      7       0.9846      2.00000
      8       1.5074      2.00000
      9       2.3267      2.00000
     10       2.3267      2.00000
     11       2.3964      2.00000
     12       2.5821      2.00000
     13       2.6226      2.00000
     14       3.1328      2.00000
     15       3.7245      2.00000
     16       4.0639      2.00000
     17       4.0639      2.00000
     18       4.2228      2.00000
     19       4.3252      2.07304
     20       4.3252      2.41174
     21       4.5485      2.48088
     22       7.5193      0.00000
     23       7.5193      0.00000
     24      12.0200      0.00000

 k-point   9 :       0.4286    0.2857    0.0000
  band No.  band energies     occupation 
      1       0.2221      2.00000
      2       0.7412      2.00000
      3       0.7485      2.00000
      4       0.9447      2.00000
      5       1.0573      2.00000
      6       1.2049      2.00000
      7       1.2667      2.00000
      8       1.3442      2.00000
      9       1.4995      2.00000
     10       1.8988      2.00000
     11       1.9402      2.00000
     12       2.1790      2.00000
     13       3.0319      2.00000
     14       3.1995      2.00000
     15       3.4256      2.00000
     16       3.5786      2.00000
     17       3.6444      2.00000
     18       3.6634      2.00000
     19       4.3274      2.00061
     20       4.3762      2.05635
     21       4.9071      0.10633
     22       5.9388      0.00000
     23       8.9092      0.00000
     24      10.3522      0.00000

 k-point  10 :       0.4286    0.4286    0.0000
  band No.  band energies     occupation 
      1       0.7309      2.00000
      2       0.9294      2.00000
      3       1.1292      2.00000
      4       1.1292      2.00000
      5       1.3140      2.00000
      6       1.3140      2.00000
      7       1.3515      2.00000
      8       1.6121      2.00000
      9       1.6121      2.00000
     10       1.6621      2.00000
     11       1.6722      2.00000
     12       2.0480      2.00000
     13       2.9522      2.00000
     14       3.1456      2.00000
     15       3.2309      2.00000
     16       3.2309      2.00000
     17       3.2437      2.00000
     18       3.7082      2.00000
     19       3.7082      2.00000
     20       3.9333      2.00000
     21       5.8949     -0.16396
     22       7.1746      0.00000
     23       7.1746      0.00000
     24       8.5862      0.00000

 k-point  11 :       0.1429    0.1429    0.1429
  band No.  band energies     occupation 
      1      -1.5394      2.00000
      2      -0.0955      2.00000
      3      -0.0955      2.00000
      4      -0.0955      2.00000
      5       0.2196      2.00000
      6       0.2196      2.00000
      7       0.2196      2.00000
      8       1.8480      2.00000
      9       2.2523      2.00000
     10       2.2523      2.00000
     11       3.5655      2.00000
     12       3.5655      2.00000
     13       3.7488      2.00000
     14       3.7488      2.00000
     15       3.7488      2.00000
     16       4.2113      2.01200
     17       4.2113      2.02817
     18       4.2113      2.05525
     19       4.9699      0.27165
     20       4.9699      0.02128
     21       4.9699     -0.03380
     22       8.6156      0.00000
     23       8.6156      0.00000
     24       8.6156      0.00000

 k-point  12 :       0.2857    0.1429    0.1429
  band No.  band energies     occupation 
      1      -0.9353      2.00000
      2       0.1446      2.00000
      3       0.2199      2.00000
      4       0.2199      2.00000
      5       0.5071      2.00000
      6       0.6575      2.00000
      7       0.6575      2.00000
      8       1.6459      2.00000
      9       2.4054      2.00000
     10       2.4360      2.00000
     11       2.8095      2.00000
     12       2.8095      2.00000
     13       3.1082      2.00000
     14       3.3952      2.00000
     15       3.7327      2.00000
     16       3.8323      2.00000
     17       3.8824      2.00000
     18       3.8824      2.00188
     19       4.8463      1.57063
     20       4.8692      0.70532
     21       4.8692      0.34417
     22       6.6244      0.00000
     23       9.9131      0.00000
     24       9.9131      0.00000

 k-point  13 :       0.4286    0.1429    0.1429
  band No.  band energies     occupation 
      1      -0.1510      2.00000
      2       0.2787      2.00000
      3       0.6997      2.00000
      4       0.6997      2.00000
      5       0.9119      2.00000
      6       1.0801      2.00000
      7       1.0801      2.00000
      8       1.2962      2.00000
      9       1.9691      2.00000
     10       1.9691      2.00000
     11       2.3506      2.00000
     12       2.4529      2.00000
     13       2.7600      2.00000
     14       3.2112      2.00000
     15       3.5182      2.00000
     16       3.5182      2.00000
     17       3.7867      2.00000
     18       4.1946      2.00000
     19       4.5634      2.01452
     20       4.7905      1.86105
     21       4.7905      1.40112
     22       4.9215      0.00000
     23      11.2890      0.00000
     24      11.2890      0.00000

 k-point  14 :       0.2857    0.2857    0.1429
  band No.  band energies     occupation 
      1      -0.4961      2.00000
      2       0.3592      2.00000
      3       0.3757      2.00000
      4       0.3757      2.00000
      5       0.9679      2.00000
      6       0.9679      2.00000
      7       1.0575      2.00000
      8       1.7549      2.00000
      9       2.3537      2.00000
     10       2.3537      2.00000
     11       2.3727      2.00000
     12       2.4419      2.00000
     13       2.5213      2.00000
     14       3.4381      2.00000
     15       3.4433      2.00000
     16       3.4841      2.00000
     17       3.4841      2.00000
     18       4.1232      2.00000
     19       4.7239      2.01024
     20       4.7453      1.96158
     21       4.7453      1.79563
     22       7.7315      0.00000
     23       7.7315      0.00000
     24      10.7166      0.00000

 k-point  15 :       0.4286    0.2857    0.1429
  band No.  band energies     occupation 
      1       0.0362      2.00000
      2       0.3759      2.00000
      3       0.6640      2.00000
      4       0.7337      2.00000
      5       1.2150      2.00000
      6       1.2456      2.00000
      7       1.4473      2.00000
      8       1.7147      2.00000
      9       1.9922      2.00000
     10       2.0045      2.00000
     11       2.1698      2.00000
     12       2.1930      2.00000
     13       2.6211      2.00000
     14       3.0002      2.00000
     15       3.1646      2.00000
     16       3.2372      2.00000
     17       3.7593      2.00000
     18       4.3780      2.00000
     19       4.5531      2.00794
     20       4.5580      2.05000
     21       4.7918      1.20097
     22       5.9262      0.00000
     23       8.9889      0.00000
     24      10.2636      0.00000

 k-point  16 :       0.4286    0.4286    0.1429
  band No.  band energies     occupation 
      1       0.2622      2.00000
      2       0.5070      2.00000
      3       0.5070      2.00000
      4       0.5885      2.00000
      5       1.4873      2.00000
      6       1.6352      2.00000
      7       1.6352      2.00000
      8       1.8958      2.00000
      9       2.1311      2.00000
     10       2.1311      2.00000
     11       2.2739      2.00000
     12       2.3709      2.00000
     13       2.5538      2.00000
     14       2.8314      2.00000
     15       2.8401      2.00000
     16       2.8401      2.00000
     17       3.7206      2.00000
     18       4.1473      2.00000
     19       4.1473      2.00531
     20       4.2447      2.00545
     21       5.7782     -0.27095
     22       7.1199      0.00000
     23       7.1199      0.00000
     24       8.5252      0.00000

 k-point  17 :       0.2857    0.2857    0.2857
  band No.  band energies     occupation 
      1      -0.3716      2.00000
      2       0.3078      2.00000
      3       0.3078      2.00000
      4       0.3078      2.00000
      5       1.3366      2.00000
      6       1.3366      2.00000
      7       1.3366      2.00000
      8       2.2889      2.00000
      9       2.2889      2.00000
     10       2.3778      2.00000
     11       2.4343      2.00000
     12       2.4343      2.00000
     13       2.4343      2.00000
     14       2.9609      2.00000
     15       2.9609      2.00000
     16       2.9609      2.00000
     17       3.9604      2.00000
     18       3.9604      2.00000
     19       4.8761      1.52178
     20       4.8761      1.36083
     21       4.8761      0.48999
     22       8.3008      0.00000
     23       8.3008      0.00000
     24       8.3008      0.00000

 k-point  18 :       0.4286    0.2857    0.2857
  band No.  band energies     occupation 
      1      -0.1578      2.00000
      2       0.1028      2.00000
      3       0.3289      2.00000
      4       0.3289      2.00000
      5       1.4423      2.00000
      6       1.4423      2.00000
      7       1.7750      2.00000
      8       2.1208      2.00000
      9       2.3241      2.00000
     10       2.4770      2.00000
     11       2.5593      2.00000
     12       2.6219      2.00000
     13       2.6219      2.00000
     14       2.6559      2.00000
     15       2.7621      2.00000
     16       2.7621      2.00000
     17       4.4486      2.00000
     18       4.5250      2.00000
     19       4.7366      2.00229
     20       4.7366      2.00373
     21       4.7836      0.97082
     22       6.1473      0.00000
     23       8.8899      0.00000
     24       8.8899      0.00000

 k-point  19 :       0.4286    0.4286    0.2857
  band No.  band energies     occupation 
      1      -0.1721      2.00000
      2       0.0037      2.00000
      3       0.0037      2.00000
      4       0.0792      2.00000
      5       1.6752      2.00000
      6       1.7826      2.00000
      7       1.7826      2.00000
      8       2.0465      2.00000
      9       2.1966      2.00000
     10       2.3530      2.00000
     11       2.3530      2.00000
     12       2.3996      2.00000
     13       3.1594      2.00000
     14       3.1594      2.00000
     15       3.2015      2.00000
     16       3.4216      2.00000
     17       4.2820      2.00000
     18       4.6402      2.00000
     19       4.6402      2.01220
     20       4.6438      2.01267
     21       5.4242     -0.20901
     22       6.9257      0.00000
     23       6.9257      0.00000
     24       8.0058      0.00000

 k-point  20 :       0.4286    0.4286    0.4286
  band No.  band energies     occupation 
      1      -0.3487      2.00000
      2      -0.2576      2.00000
      3      -0.2576      2.00000
      4      -0.2576      2.00000
      5       1.9065      2.00000
      6       1.9065      2.00000
      7       1.9065      2.00000
      8       2.0431      2.00000
      9       2.0431      2.00000
     10       2.1155      2.00000
     11       2.1155      2.00000
     12       2.1155      2.00000
     13       4.0320      2.00000
     14       4.0320      2.00000
     15       4.0320      2.00000
     16       4.6853      2.00000
     17       4.6853      2.00000
     18       4.8176      2.00000
     19       4.8176      1.98395
     20       4.8176      1.98388
     21       5.0818     -0.00314
     22       6.6377      0.00000
     23       6.6377      0.00000
     24       6.6377      0.00000


--------------------------------------------------------------------------------------------------------


 soft charge-density along one line, spin component           1
         0         1         2         3         4         5         6         7         8         9
 total charge-density along one line
 
 pseudopotential strength for first ion, spin component:           1
 -9.360   0.000   0.000   0.000   0.000  -0.220   0.000   0.000
  0.000  -9.360   0.000   0.000   0.000   0.000  -0.220   0.000
  0.000   0.000  -9.323   0.000   0.000   0.000   0.000  -0.225
  0.000   0.000   0.000  -9.360   0.000   0.000   0.000   0.000
  0.000   0.000   0.000   0.000  -9.323   0.000   0.000   0.000
 -0.220   0.000   0.000   0.000   0.000   0.375   0.000   0.000
  0.000  -0.220   0.000   0.000   0.000   0.000   0.375   0.000
  0.000   0.000  -0.225   0.000   0.000   0.000   0.000   0.376
  0.000   0.000   0.000  -0.220   0.000   0.000   0.000   0.000
  0.000   0.000   0.000   0.000  -0.225   0.000   0.000   0.000
  0.000   0.000   0.000   0.000   0.000   0.000   0.000   0.000
  0.000   0.000   0.000   0.000   0.000   0.000   0.000   0.000
  0.000   0.000   0.000   0.000   0.000   0.000   0.000   0.000
  0.000   0.000   0.000   0.000   0.000   0.000   0.000   0.000
  0.000   0.000   0.000   0.000   0.000   0.000   0.000   0.000
  0.000   0.000   0.000   0.000   0.000   0.000   0.000   0.000
  0.000   0.000   0.000   0.000   0.000   0.000   0.000   0.000
  0.000   0.000   0.000   0.000   0.000   0.000   0.000   0.000
 total augmentation occupancy for first ion, spin component:           1
  1.734   0.000   0.000   0.000   0.000   0.138   0.000   0.000   0.000   0.000   0.000   0.000   0.000   0.000   0.000   0.000
  0.000   1.734   0.000   0.000   0.000   0.000   0.138   0.000   0.000   0.000   0.000   0.000   0.000   0.000   0.000   0.000
  0.000   0.000   1.869   0.000   0.000   0.000   0.000   0.044   0.000   0.000   0.000   0.000   0.000   0.000   0.000   0.000
  0.000   0.000   0.000   1.734   0.000   0.000   0.000   0.000   0.138   0.000   0.000   0.000   0.000   0.000   0.000   0.000
  0.000   0.000   0.000   0.000   1.869   0.000   0.000   0.000   0.000   0.044   0.000   0.000   0.000   0.000   0.000   0.000
  0.138   0.000   0.000   0.000   0.000   0.165   0.000   0.000   0.000   0.000   0.000   0.000   0.000   0.000   0.000   0.000
  0.000   0.138   0.000   0.000   0.000   0.000   0.165   0.000   0.000   0.000   0.000   0.000   0.000   0.000   0.000   0.000
  0.000   0.000   0.044   0.000   0.000   0.000   0.000   0.155   0.000   0.000   0.000   0.000   0.000   0.000   0.000   0.000
  0.000   0.000   0.000   0.138   0.000   0.000   0.000   0.000   0.165   0.000   0.000   0.000   0.000   0.000   0.000   0.000
  0.000   0.000   0.000   0.000   0.044   0.000   0.000   0.000   0.000   0.155   0.000   0.000   0.000   0.000   0.000   0.000
  0.000   0.000   0.000   0.000   0.000   0.000   0.000   0.000   0.000   0.000   1.060  -0.396   0.000   0.000   0.000   0.000
  0.000   0.000   0.000   0.000   0.000   0.000   0.000   0.000   0.000   0.000  -0.396   0.163   0.000   0.000   0.000   0.000
  0.000   0.000   0.000   0.000   0.000   0.000   0.000   0.000   0.000   0.000   0.000   0.000   0.139   0.000   0.000  -0.003
  0.000   0.000   0.000   0.000   0.000   0.000   0.000   0.000   0.000   0.000   0.000   0.000   0.000   0.139   0.000   0.000
  0.000   0.000   0.000   0.000   0.000   0.000   0.000   0.000   0.000   0.000   0.000   0.000   0.000   0.000   0.139   0.000
  0.000   0.000   0.000   0.000   0.000   0.000   0.000   0.000   0.000   0.000   0.000   0.000  -0.003   0.000   0.000   0.000
  0.000   0.000   0.000   0.000   0.000   0.000   0.000   0.000   0.000   0.000   0.000   0.000   0.000  -0.003   0.000   0.000
  0.000   0.000   0.000   0.000   0.000   0.000   0.000   0.000   0.000   0.000   0.000   0.000   0.000   0.000  -0.003   0.000


------------------------ aborting loop because EDIFF is reached ----------------------------------------


    CHARGE:  cpu time    0.11: real time    0.11
    FORLOC:  cpu time    0.01: real time    0.00
    FORNL :  cpu time    1.06: real time    1.07
    STRESS:  cpu time    0.96: real time    0.96
    FORCOR:  cpu time    0.08: real time    0.09
    FORHAR:  cpu time    0.02: real time    0.02
    MIXING:  cpu time    0.00: real time    0.00

  FORCE on cell =-STRESS in cart. coord.  units (eV):
  Direction    XX          YY          ZZ          XY          YZ          ZX
  --------------------------------------------------------------------------------------
  Alpha Z   364.88436   364.88436   364.88436
  Ewald   -1126.15896 -1126.15896 -1126.15896     0.00000     0.00000     0.00000
  Hartree   153.52919   153.52919   153.52919     0.00000     0.00000     0.00000
  E(xc)    -210.20518  -210.20518  -210.20518     0.00000     0.00000     0.00000
  Local     312.35403   312.35403   312.35403     0.00000     0.00000     0.00000
  n-local  -208.73816  -211.65604  -205.77062     4.62307     3.35734     3.01196
  augment   172.01602   172.01603   172.01603     0.00001     0.00001     0.00000
  Kinetic   553.08164   540.95001   539.83100     2.66385    -1.43359     0.23571
  Fock        0.00000     0.00000     0.00000     0.00000     0.00000     0.00000
  -------------------------------------------------------------------------------------
  Total       2.31873     2.31873     2.31873     0.00000     0.00000     0.00000
  in kB      62.22812    62.22812    62.22812     0.00000     0.00000     0.00000
  external pressure =       62.23 kB  Pullay stress =        0.00 kB


 VOLUME and BASIS-vectors are now :
 -----------------------------------------------------------------------------
  energy-cutoff  :      415.00
  volume of cell :       59.70
      direct lattice vectors                 reciprocal lattice vectors
     3.908333247  0.000000000  0.000000000     0.255863545  0.000000000  0.000000000
     0.000000000  3.908333247  0.000000000     0.000000000  0.255863545  0.000000000
     0.000000000  0.000000000  3.908333247     0.000000000  0.000000000  0.255863545

  length of vectors
     3.908333247  3.908333247  3.908333247     0.255863545  0.255863545  0.255863545


 FORCES acting on ions
    electron-ion (+dipol)            ewald-force                    non-local-force                 convergence-correction
 -----------------------------------------------------------------------------------------------
   0.251E-13 0.243E-13 0.239E-13   -.187E-13 0.581E-14 -.870E-14   0.136E-19 -.136E-19 0.000E+00   -.192E-13 0.271E-14 -.275E-13
   -.688E-13 -.537E-13 -.322E-12   -.166E-14 0.112E-13 -.874E-14   0.136E-19 -.136E-19 0.000E+00   0.463E-13 0.808E-14 -.277E-13
   -.700E-13 0.266E-13 0.365E-12   0.856E-14 -.114E-13 0.981E-14   0.424E-21 -.271E-19 0.000E+00   0.439E-13 0.195E-15 0.378E-13
   0.256E-13 -.620E-13 -.647E-13   0.963E-14 -.604E-14 0.977E-14   -.847E-21 -.271E-19 0.000E+00   -.161E-13 0.512E-14 0.393E-13
 -----------------------------------------------------------------------------------------------
   -.881E-13 -.648E-13 0.294E-14   -.213E-14 -.455E-15 0.214E-14   0.267E-19 -.813E-19 0.000E+00   0.550E-13 0.161E-13 0.219E-13
 
 
 POSITION                                       TOTAL-FORCE (eV/Angst)
 -----------------------------------------------------------------------------------
      0.00000      0.00000      0.00000         0.000000      0.000000      0.000000
      1.95417      1.95417      0.00000         0.000000      0.000000      0.000000
      1.95417      0.00000      1.95417         0.000000      0.000000      0.000000
      0.00000      1.95417      1.95417         0.000000      0.000000      0.000000
 -----------------------------------------------------------------------------------
    total drift:                                0.000000      0.000000      0.000000


--------------------------------------------------------------------------------------------------------



  FREE ENERGIE OF THE ION-ELECTRON SYSTEM (eV)
  ---------------------------------------------------
  free  energy   TOTEN  =       -20.668690 eV

  energy  without entropy=      -20.668690  energy(sigma->0) =      -20.668690
 
 d Force = 0.0000000E+00[ 0.000E+00, 0.000E+00]  d Energy = 0.3134849E-01-0.313E-01
 d Force = 0.0000000E+00[ 0.000E+00, 0.000E+00]  d Ewald  =-0.1301927E+02 0.130E+02


--------------------------------------------------------------------------------------------------------


    POTLOK:  cpu time    0.11: real time    0.11


--------------------------------------------------------------------------------------------------------


 Steepest descent step on ions:
 trial-energy change:   -0.031348  1 .order   -0.031873   -0.036939   -0.026806
  (g-gl).g = 0.369E-01      g.g   = 0.369E-01  gl.gl    = 0.000E+00
 g(Force)  = 0.000E+00   g(Stress)= 0.369E-01 ortho     = 0.000E+00
 gamma     =   0.00000
 trial     =   1.00000
 opt step  =   3.64562  (harmonic =   3.64562) maximal distance =0.00000000
 next E    =   -20.704674   (d E  =  -0.06733)


--------------------------------------------------------------------------------------------------------


    WAVPRE:  cpu time    0.02: real time    0.02
    FEWALD:  cpu time    0.00: real time    0.00
    GENKIN:  cpu time    0.01: real time    0.01
    ORTHCH:  cpu time    0.12: real time    0.12
     LOOP+:  cpu time   20.21: real time   20.21


----------------------------------------- Iteration    3(   1)  ---------------------------------------


    POTLOK:  cpu time    0.08: real time    0.08
    SETDIJ:  cpu time    0.03: real time    0.03
     EDDAV:  cpu time    2.09: real time    2.09
 BZINTS: Fermi energy:  3.881771; 40.000000 electrons
         Band energy:  63.526639;  BLOECHL correction: -0.080908
       DOS:  cpu time    0.04: real time    0.04
    CHARGE:  cpu time    0.12: real time    0.11
    MIXING:  cpu time    0.00: real time    0.00
    --------------------------------------------
      LOOP:  cpu time    2.36: real time    2.36

 eigenvalue-minimisations  :   960
 total energy-change (2. order) :-0.5007220E+00  (-0.1007275E+01)
 number of electron      40.0000203 magnetization 
 augmentation part       17.4789432 magnetization 

 Broyden mixing:
  rms(total) = 0.43937E+00    rms(broyden)= 0.43931E+00
  rms(prec ) = 0.10299E+01
  weight for this iteration     100.00

 Free energy of the ion-electron system (eV)
  ---------------------------------------------------
  alpha Z        PSCENC =       353.98909253
  Ewald energy   TEWEN  =     -3344.50852555
  -1/2 Hartree   DENC   =      -455.95534390
  -exchange  EXHF       =         0.00000000
  -V(xc)+E(xc)   XCENC  =      -118.57034581
  PAW double counting   =      2787.56806276    -2546.20399946
  entropy T*S    EENTRO =         0.00000000
  eigenvalues    EBANDS =        63.52663889
  atomic energy  EATOM  =      3238.98500772
  ---------------------------------------------------
  free energy    TOTEN  =       -21.16941283 eV

  energy without entropy =      -21.16941283  energy(sigma->0) =      -21.16941283


--------------------------------------------------------------------------------------------------------




----------------------------------------- Iteration    3(   2)  ---------------------------------------


    POTLOK:  cpu time    0.08: real time    0.08
    SETDIJ:  cpu time    0.03: real time    0.03
     EDDAV:  cpu time    2.12: real time    2.12
 BZINTS: Fermi energy:  4.486510; 40.000000 electrons
         Band energy:  82.024093;  BLOECHL correction: -0.089341
       DOS:  cpu time    0.04: real time    0.04
    CHARGE:  cpu time    0.11: real time    0.11
    MIXING:  cpu time    0.00: real time    0.00
    --------------------------------------------
      LOOP:  cpu time    2.39: real time    2.39

 eigenvalue-minimisations  :   968
 total energy-change (2. order) : 0.4625767E+00  (-0.2037600E+00)
 number of electron      40.0000200 magnetization 
 augmentation part       16.9093741 magnetization 

 Broyden mixing:
  rms(total) = 0.42401E-01    rms(broyden)= 0.42383E-01
  rms(prec ) = 0.59461E-01
  weight for this iteration     100.00

 eigenvalues of (default mixing * dielectric matrix)
  average eigenvalue GAMMA=   1.0011
  1.0011

 Free energy of the ion-electron system (eV)
  ---------------------------------------------------
  alpha Z        PSCENC =       353.98909253
  Ewald energy   TEWEN  =     -3344.50852555
  -1/2 Hartree   DENC   =      -475.50100274
  -exchange  EXHF       =         0.00000000
  -V(xc)+E(xc)   XCENC  =      -118.03837714
  PAW double counting   =      2813.04686705    -2570.70399099
  entropy T*S    EENTRO =         0.00000000
  eigenvalues    EBANDS =        82.02409302
  atomic energy  EATOM  =      3238.98500772
  ---------------------------------------------------
  free energy    TOTEN  =       -20.70683610 eV

  energy without entropy =      -20.70683610  energy(sigma->0) =      -20.70683610


--------------------------------------------------------------------------------------------------------




----------------------------------------- Iteration    3(   3)  ---------------------------------------


    POTLOK:  cpu time    0.08: real time    0.08
    SETDIJ:  cpu time    0.03: real time    0.03
     EDDAV:  cpu time    2.11: real time    2.11
 BZINTS: Fermi energy:  4.484376; 40.000000 electrons
         Band energy:  81.944026;  BLOECHL correction: -0.087453
       DOS:  cpu time    0.04: real time    0.04
    CHARGE:  cpu time    0.12: real time    0.12
    MIXING:  cpu time    0.00: real time    0.00
    --------------------------------------------
      LOOP:  cpu time    2.38: real time    2.38

 eigenvalue-minimisations  :   960
 total energy-change (2. order) : 0.2165005E-02  (-0.1811855E-02)
 number of electron      40.0000200 magnetization 
 augmentation part       16.8955953 magnetization 

 Broyden mixing:
  rms(total) = 0.25578E-01    rms(broyden)= 0.25577E-01
  rms(prec ) = 0.39271E-01
  weight for this iteration     100.00

 eigenvalues of (default mixing * dielectric matrix)
  average eigenvalue GAMMA=   1.6725
  1.0201  2.3248

 Free energy of the ion-electron system (eV)
  ---------------------------------------------------
  alpha Z        PSCENC =       353.98909253
  Ewald energy   TEWEN  =     -3344.50852555
  -1/2 Hartree   DENC   =      -475.38146421
  -exchange  EXHF       =         0.00000000
  -V(xc)+E(xc)   XCENC  =      -118.03975273
  PAW double counting   =      2798.71328286    -2556.40633804
  entropy T*S    EENTRO =         0.00000000
  eigenvalues    EBANDS =        81.94402633
  atomic energy  EATOM  =      3238.98500772
  ---------------------------------------------------
  free energy    TOTEN  =       -20.70467109 eV

  energy without entropy =      -20.70467109  energy(sigma->0) =      -20.70467109


--------------------------------------------------------------------------------------------------------




----------------------------------------- Iteration    3(   4)  ---------------------------------------


    POTLOK:  cpu time    0.08: real time    0.08
    SETDIJ:  cpu time    0.02: real time    0.03
     EDDAV:  cpu time    2.20: real time    2.20
 BZINTS: Fermi energy:  4.466364; 40.000000 electrons
         Band energy:  81.324448;  BLOECHL correction: -0.087285
       DOS:  cpu time    0.04: real time    0.04
    CHARGE:  cpu time    0.11: real time    0.11
    MIXING:  cpu time    0.00: real time    0.00
    --------------------------------------------
      LOOP:  cpu time    2.46: real time    2.47

 eigenvalue-minimisations  :  1024
 total energy-change (2. order) :-0.1424338E-03  (-0.6101170E-03)
 number of electron      40.0000200 magnetization 
 augmentation part       16.9022329 magnetization 

 Broyden mixing:
  rms(total) = 0.48990E-02    rms(broyden)= 0.48966E-02
  rms(prec ) = 0.84044E-02
  weight for this iteration     100.00

 eigenvalues of (default mixing * dielectric matrix)
  average eigenvalue GAMMA=   1.5940
  2.4644  1.0550  1.2627

 Free energy of the ion-electron system (eV)
  ---------------------------------------------------
  alpha Z        PSCENC =       353.98909253
  Ewald energy   TEWEN  =     -3344.50852555
  -1/2 Hartree   DENC   =      -474.55197094
  -exchange  EXHF       =         0.00000000
  -V(xc)+E(xc)   XCENC  =      -118.05851940
  PAW double counting   =      2775.07108001    -2532.95542597
  entropy T*S    EENTRO =         0.00000000
  eigenvalues    EBANDS =        81.32444808
  atomic energy  EATOM  =      3238.98500772
  ---------------------------------------------------
  free energy    TOTEN  =       -20.70481353 eV

  energy without entropy =      -20.70481353  energy(sigma->0) =      -20.70481353


--------------------------------------------------------------------------------------------------------




----------------------------------------- Iteration    3(   5)  ---------------------------------------


    POTLOK:  cpu time    0.09: real time    0.08
    SETDIJ:  cpu time    0.02: real time    0.03
     EDDAV:  cpu time    2.54: real time    2.54
 BZINTS: Fermi energy:  4.473285; 40.000000 electrons
         Band energy:  81.530212;  BLOECHL correction: -0.087304
       DOS:  cpu time    0.04: real time    0.04
    CHARGE:  cpu time    0.12: real time    0.11
    MIXING:  cpu time    0.00: real time    0.00
    --------------------------------------------
      LOOP:  cpu time    2.81: real time    2.81

 eigenvalue-minimisations  :  1232
 total energy-change (2. order) :-0.4714149E-04  (-0.4672788E-04)
 number of electron      40.0000200 magnetization 
 augmentation part       16.8950237 magnetization 

 Broyden mixing:
  rms(total) = 0.21545E-02    rms(broyden)= 0.21544E-02
  rms(prec ) = 0.46273E-02
  weight for this iteration     100.00

 eigenvalues of (default mixing * dielectric matrix)
  average eigenvalue GAMMA=   1.8048
  2.4404  2.8050  0.9869  0.9869

 Free energy of the ion-electron system (eV)
  ---------------------------------------------------
  alpha Z        PSCENC =       353.98909253
  Ewald energy   TEWEN  =     -3344.50852555
  -1/2 Hartree   DENC   =      -474.70107941
  -exchange  EXHF       =         0.00000000
  -V(xc)+E(xc)   XCENC  =      -118.05422921
  PAW double counting   =      2774.26120130    -2532.20653994
  entropy T*S    EENTRO =         0.00000000
  eigenvalues    EBANDS =        81.53021188
  atomic energy  EATOM  =      3238.98500772
  ---------------------------------------------------
  free energy    TOTEN  =       -20.70486067 eV

  energy without entropy =      -20.70486067  energy(sigma->0) =      -20.70486067


--------------------------------------------------------------------------------------------------------




----------------------------------------- Iteration    3(   6)  ---------------------------------------


    POTLOK:  cpu time    0.08: real time    0.08
    SETDIJ:  cpu time    0.02: real time    0.03
     EDDAV:  cpu time    2.18: real time    2.18
 BZINTS: Fermi energy:  4.471271; 40.000000 electrons
         Band energy:  81.466707;  BLOECHL correction: -0.087301
       DOS:  cpu time    0.04: real time    0.04
    CHARGE:  cpu time    0.11: real time    0.11
    MIXING:  cpu time    0.00: real time    0.00
    --------------------------------------------
      LOOP:  cpu time    2.44: real time    2.44

 eigenvalue-minimisations  :  1008
 total energy-change (2. order) : 0.4019574E-04  (-0.2527465E-05)
 number of electron      40.0000200 magnetization 
 augmentation part       16.8965861 magnetization 

 Broyden mixing:
  rms(total) = 0.24864E-03    rms(broyden)= 0.24860E-03
  rms(prec ) = 0.45200E-03
  weight for this iteration     100.00

 eigenvalues of (default mixing * dielectric matrix)
  average eigenvalue GAMMA=   1.6022
  2.5677  2.4231  0.9938  0.9938  1.0327

 Free energy of the ion-electron system (eV)
  ---------------------------------------------------
  alpha Z        PSCENC =       353.98909253
  Ewald energy   TEWEN  =     -3344.50852555
  -1/2 Hartree   DENC   =      -474.55400369
  -exchange  EXHF       =         0.00000000
  -V(xc)+E(xc)   XCENC  =      -118.05835215
  PAW double counting   =      2773.56942627    -2531.59417262
  entropy T*S    EENTRO =         0.00000000
  eigenvalues    EBANDS =        81.46670701
  atomic energy  EATOM  =      3238.98500772
  ---------------------------------------------------
  free energy    TOTEN  =       -20.70482047 eV

  energy without entropy =      -20.70482047  energy(sigma->0) =      -20.70482047


--------------------------------------------------------------------------------------------------------




----------------------------------------- Iteration    3(   7)  ---------------------------------------


    POTLOK:  cpu time    0.08: real time    0.08
    SETDIJ:  cpu time    0.02: real time    0.03
     EDDAV:  cpu time    1.37: real time    1.38
 BZINTS: Fermi energy:  4.471349; 40.000000 electrons
         Band energy:  81.469744;  BLOECHL correction: -0.087302
       DOS:  cpu time    0.04: real time    0.04
    --------------------------------------------
      LOOP:  cpu time    1.52: real time    1.52

 eigenvalue-minimisations  :   480
 total energy-change (2. order) :-0.7310746E-06  (-0.5509791E-07)
 number of electron      40.0000200 magnetization 
 augmentation part       16.8965861 magnetization 

 Free energy of the ion-electron system (eV)
  ---------------------------------------------------
  alpha Z        PSCENC =       353.98909253
  Ewald energy   TEWEN  =     -3344.50852555
  -1/2 Hartree   DENC   =      -474.56915556
  -exchange  EXHF       =         0.00000000
  -V(xc)+E(xc)   XCENC  =      -118.05796002
  PAW double counting   =      2773.78710336    -2531.80012789
  entropy T*S    EENTRO =         0.00000000
  eigenvalues    EBANDS =        81.46974420
  atomic energy  EATOM  =      3238.98500772
  ---------------------------------------------------
  free energy    TOTEN  =       -20.70482120 eV

  energy without entropy =      -20.70482120  energy(sigma->0) =      -20.70482120


--------------------------------------------------------------------------------------------------------




 average (electrostatic) potential at core
  the test charge radii are     1.1199
  (the norm of the test charge is              1.0000)
       1 -47.0777       2 -47.0777       3 -47.0777       4 -47.0777
 
 
 
 E-fermi :   4.4713     XC(G=0): -12.9172     alpha+bet :-11.3726


 k-point   1 :       0.0000    0.0000    0.0000
  band No.  band energies     occupation 
      1      -2.3575      2.00000
      2      -0.5707      2.00000
      3      -0.5707      2.00000
      4      -0.5707      2.00000
      5      -0.3055      2.00000
      6      -0.3055      2.00000
      7      -0.3055      2.00000
      8       1.8216      2.00000
      9       1.8216      2.00000
     10       1.8216      2.00000
     11       3.3345      2.00000
     12       3.3345      2.00000
     13       4.4301      2.00000
     14       4.4301      2.00000
     15       4.4301      2.00000
     16       4.7423      1.07867
     17       4.7423      0.37385
     18       4.7423     -0.03073
     19       4.7423      0.00000
     20       4.7423      0.00000
     21       4.7423      0.00000
     22       7.8495      0.00000
     23       7.8495      0.00000
     24       7.8495      0.00000

 k-point   2 :       0.1429    0.0000    0.0000
  band No.  band energies     occupation 
      1      -2.1201      2.00000
      2      -0.4632      2.00000
      3      -0.4211      2.00000
      4      -0.4211      2.00000
      5      -0.2150      2.00000
      6      -0.1703      2.00000
      7      -0.1703      2.00000
      8       1.6972      2.00000
      9       1.9274      2.00000
     10       1.9274      2.00000
     11       3.2072      2.00000
     12       3.3852      2.00000
     13       4.0643      2.00000
     14       4.0643      2.00000
     15       4.2543      2.00000
     16       4.2543      1.98473
     17       4.3716      1.93427
     18       4.5343      1.43352
     19       4.5343      0.38015
     20       4.7425      0.00000
     21       4.7425      0.00000
     22       6.7697      0.00000
     23       8.6939      0.00000
     24       8.6939      0.00000

 k-point   3 :       0.2857    0.0000    0.0000
  band No.  band energies     occupation 
      1      -1.4516      2.00000
      2      -0.2039      2.00000
      3      -0.0314      2.00000
      4      -0.0314      2.00000
      5       0.0449      2.00000
      6       0.2322      2.00000
      7       0.2322      2.00000
      8       1.3616      2.00000
      9       2.2381      2.00000
     10       2.2381      2.00000
     11       2.8933      2.00000
     12       2.8936      2.00000
     13       2.8936      2.00000
     14       3.5288      2.00000
     15       3.7999      2.00000
     16       3.7999      2.00000
     17       4.0069      2.00000
     18       4.0069      2.00387
     19       4.2109      2.11306
     20       4.7432     -0.10023
     21       4.7432     -0.04354
     22       4.8210      0.00000
     23      10.3523      0.00000
     24      10.3523      0.00000

 k-point   4 :       0.4286    0.0000    0.0000
  band No.  band energies     occupation 
      1      -0.5637      2.00000
      2      -0.0649      2.00000
      3       0.3702      2.00000
      4       0.3702      2.00000
      5       0.4395      2.00000
      6       0.8933      2.00000
      7       0.8933      2.00000
      8       0.9076      2.00000
      9       1.7944      2.00000
     10       1.7944      2.00000
     11       2.6692      2.00000
     12       2.7302      2.00000
     13       2.7302      2.00000
     14       3.2205      2.00000
     15       3.3409      2.00000
     16       3.3409      2.00000
     17       3.3520      2.00000
     18       3.3520      2.00000
     19       3.7417      2.00053
     20       3.9850      2.53949
     21       4.7438     -0.13687
     22       4.7438      0.00000
     23      12.2231      0.00000
     24      12.2231      0.00000

 k-point   5 :       0.1429    0.1429    0.0000
  band No.  band energies     occupation 
      1      -1.8920      2.00000
      2      -0.3155      2.00000
      3      -0.3102      2.00000
      4      -0.3102      2.00000
      5      -0.0853      2.00000
      6      -0.0853      2.00000
      7      -0.0082      2.00000
      8       1.6493      2.00000
      9       1.9667      2.00000
     10       2.0057      2.00000
     11       3.1773      2.00000
     12       3.3734      2.00000
     13       3.6970      2.00000
     14       3.7431      2.00000
     15       3.7431      2.00000
     16       4.1031      2.00806
     17       4.2893      1.99707
     18       4.2893      2.00318
     19       4.5330      0.70815
     20       4.5330      0.07812
     21       4.6025     -0.00382
     22       7.5996      0.00000
     23       7.5996      0.00000
     24       9.3710      0.00000

 k-point   6 :       0.2857    0.1429    0.0000
  band No.  band energies     occupation 
      1      -1.2511      2.00000
      2      -0.0399      2.00000
      3       0.0043      2.00000
      4       0.0910      2.00000
      5       0.1588      2.00000
      6       0.3004      2.00000
      7       0.4129      2.00000
      8       1.3745      2.00000
      9       2.1966      2.00000
     10       2.2432      2.00000
     11       2.6255      2.00000
     12       2.7662      2.00000
     13       2.9612      2.00000
     14       3.1070      2.00000
     15       3.5569      2.00000
     16       3.7034      2.00000
     17       3.8462      2.00000
     18       4.0027      2.00241
     19       4.1281      2.21094
     20       4.5294      0.45257
     21       4.5326      0.14868
     22       5.7726      0.00000
     23       9.0653      0.00000
     24      10.8695      0.00000

 k-point   7 :       0.4286    0.1429    0.0000
  band No.  band energies     occupation 
      1      -0.3937      2.00000
      2       0.1089      2.00000
      3       0.4470      2.00000
      4       0.5077      2.00000
      5       0.5277      2.00000
      6       0.9297      2.00000
      7       0.9394      2.00000
      8       0.9617      2.00000
      9       1.6359      2.00000
     10       1.7743      2.00000
     11       2.2272      2.00000
     12       2.4218      2.00000
     13       2.7271      2.00000
     14       3.0829      2.00000
     15       3.3049      2.00000
     16       3.3470      2.00000
     17       3.3686      2.00000
     18       3.6808      2.00000
     19       3.8907      2.00063
     20       4.4673      1.66026
     21       4.5220      0.08719
     22       4.5248      0.00000
     23      10.5826      0.00000
     24      12.0404      0.00000

 k-point   8 :       0.2857    0.2857    0.0000
  band No.  band energies     occupation 
      1      -0.6957      2.00000
      2       0.1977      2.00000
      3       0.4001      2.00000
      4       0.4001      2.00000
      5       0.4936      2.00000
      6       0.4936      2.00000
      7       0.8152      2.00000
      8       1.3134      2.00000
      9       2.0940      2.00000
     10       2.0940      2.00000
     11       2.1607      2.00000
     12       2.3397      2.00000
     13       2.3749      2.00000
     14       2.8622      2.00000
     15       3.4262      2.00000
     16       3.7498      2.00000
     17       3.7498      2.00000
     18       3.8976      2.00000
     19       3.9946      2.07156
     20       3.9946      2.41636
     21       4.2058      2.48296
     22       7.1000      0.00000
     23       7.1000      0.00000
     24      11.5199      0.00000

 k-point   9 :       0.4286    0.2857    0.0000
  band No.  band energies     occupation 
      1       0.0475      2.00000
      2       0.5674      2.00000
      3       0.5904      2.00000
      4       0.7763      2.00000
      5       0.8890      2.00000
      6       1.0237      2.00000
      7       1.0838      2.00000
      8       1.1585      2.00000
      9       1.3014      2.00000
     10       1.6864      2.00000
     11       1.7263      2.00000
     12       1.9557      2.00000
     13       2.7648      2.00000
     14       2.9268      2.00000
     15       3.1427      2.00000
     16       3.2887      2.00000
     17       3.3478      2.00000
     18       3.3697      2.00000
     19       3.9965      2.00047
     20       4.0426      2.05960
     21       4.5532      0.06823
     22       5.5529      0.00000
     23       8.4530      0.00000
     24       9.8723      0.00000

 k-point  10 :       0.4286    0.4286    0.0000
  band No.  band energies     occupation 
      1       0.5480      2.00000
      2       0.7578      2.00000
      3       0.9403      2.00000
      4       0.9403      2.00000
      5       1.1282      2.00000
      6       1.1282      2.00000
      7       1.1643      2.00000
      8       1.4187      2.00000
      9       1.4187      2.00000
     10       1.4646      2.00000
     11       1.4699      2.00000
     12       1.8330      2.00000
     13       2.6917      2.00000
     14       2.8762      2.00000
     15       2.9579      2.00000
     16       2.9579      2.00000
     17       2.9665      2.00000
     18       3.4084      2.00000
     19       3.4084      2.00000
     20       3.6221      2.00000
     21       5.5056     -0.15017
     22       6.7520      0.00000
     23       6.7520      0.00000
     24       8.1347      0.00000

 k-point  11 :       0.1429    0.1429    0.1429
  band No.  band energies     occupation 
      1      -1.6792      2.00000
      2      -0.2165      2.00000
      3      -0.2165      2.00000
      4      -0.2165      2.00000
      5       0.0837      2.00000
      6       0.0837      2.00000
      7       0.0837      2.00000
      8       1.6372      2.00000
      9       2.0214      2.00000
     10       2.0214      2.00000
     11       3.2716      2.00000
     12       3.2716      2.00000
     13       3.4538      2.00000
     14       3.4538      2.00000
     15       3.4538      2.00000
     16       3.8871      2.01189
     17       3.8871      2.02791
     18       3.8871      2.05502
     19       4.6048      0.27863
     20       4.6048      0.02241
     21       4.6048     -0.03224
     22       8.1961      0.00000
     23       8.1961      0.00000
     24       8.1961      0.00000

 k-point  12 :       0.2857    0.1429    0.1429
  band No.  band energies     occupation 
      1      -1.0873      2.00000
      2       0.0091      2.00000
      3       0.0853      2.00000
      4       0.0853      2.00000
      5       0.3588      2.00000
      6       0.5027      2.00000
      7       0.5027      2.00000
      8       1.4449      2.00000
      9       2.1683      2.00000
     10       2.1968      2.00000
     11       2.5567      2.00000
     12       2.5567      2.00000
     13       2.8419      2.00000
     14       3.1112      2.00000
     15       3.4324      2.00000
     16       3.5252      2.00000
     17       3.5761      2.00000
     18       3.5761      2.00180
     19       4.4874      1.59123
     20       4.5098      0.71841
     21       4.5098      0.36172
     22       6.2399      0.00000
     23       9.4507      0.00000
     24       9.4507      0.00000

 k-point  13 :       0.4286    0.1429    0.1429
  band No.  band energies     occupation 
      1      -0.3135      2.00000
      2       0.1252      2.00000
      3       0.5457      2.00000
      4       0.5457      2.00000
      5       0.7441      2.00000
      6       0.9052      2.00000
      7       0.9052      2.00000
      8       1.1111      2.00000
      9       1.7536      2.00000
     10       1.7536      2.00000
     11       2.1179      2.00000
     12       2.2142      2.00000
     13       2.5059      2.00000
     14       2.9360      2.00000
     15       3.2308      2.00000
     16       3.2308      2.00000
     17       3.4871      2.00000
     18       3.8692      2.00000
     19       4.2192      2.01365
     20       4.4354      1.86607
     21       4.4354      1.42341
     22       4.5819      0.00000
     23      10.7979      0.00000
     24      10.7979      0.00000

 k-point  14 :       0.2857    0.2857    0.1429
  band No.  band energies     occupation 
      1      -0.6523      2.00000
      2       0.2165      2.00000
      3       0.2297      2.00000
      4       0.2297      2.00000
      5       0.8010      2.00000
      6       0.8010      2.00000
      7       0.8863      2.00000
      8       1.5482      2.00000
      9       2.1198      2.00000
     10       2.1198      2.00000
     11       2.1378      2.00000
     12       2.2030      2.00000
     13       2.2814      2.00000
     14       3.1535      2.00000
     15       3.1570      2.00000
     16       3.1972      2.00000
     17       3.1972      2.00000
     18       3.8030      2.00000
     19       4.3720      2.01481
     20       4.3928      1.97399
     21       4.3928      1.81058
     22       7.3110      0.00000
     23       7.3110      0.00000
     24      10.2434      0.00000

 k-point  15 :       0.4286    0.2857    0.1429
  band No.  band energies     occupation 
      1      -0.1225      2.00000
      2       0.2206      2.00000
      3       0.5049      2.00000
      4       0.5696      2.00000
      5       1.0396      2.00000
      6       1.0670      2.00000
      7       1.2575      2.00000
      8       1.5090      2.00000
      9       1.7757      2.00000
     10       1.7860      2.00000
     11       1.9467      2.00000
     12       1.9687      2.00000
     13       2.3743      2.00000
     14       2.7359      2.00000
     15       2.8938      2.00000
     16       2.9632      2.00000
     17       3.4590      2.00000
     18       4.0464      2.00000
     19       4.2105      2.00712
     20       4.2155      2.04912
     21       4.4439      1.15261
     22       5.5470      0.00000
     23       8.5387      0.00000
     24       9.8010      0.00000

 k-point  16 :       0.4286    0.4286    0.1429
  band No.  band energies     occupation 
      1       0.1050      2.00000
      2       0.3470      2.00000
      3       0.3470      2.00000
      4       0.4278      2.00000
      5       1.2982      2.00000
      6       1.4388      2.00000
      7       1.4388      2.00000
      8       1.6830      2.00000
      9       1.9103      2.00000
     10       1.9103      2.00000
     11       2.0493      2.00000
     12       2.1408      2.00000
     13       2.3112      2.00000
     14       2.5764      2.00000
     15       2.5848      2.00000
     16       2.5848      2.00000
     17       3.4207      2.00000
     18       3.8265      2.00000
     19       3.8265      2.00486
     20       3.9181      2.00500
     21       5.3965     -0.26336
     22       6.7063      0.00000
     23       6.7063      0.00000
     24       8.0857      0.00000

 k-point  17 :       0.2857    0.2857    0.2857
  band No.  band energies     occupation 
      1      -0.5187      2.00000
      2       0.1618      2.00000
      3       0.1618      2.00000
      4       0.1618      2.00000
      5       1.1551      2.00000
      6       1.1551      2.00000
      7       1.1551      2.00000
      8       2.0574      2.00000
      9       2.0574      2.00000
     10       2.1460      2.00000
     11       2.1980      2.00000
     12       2.1980      2.00000
     13       2.1980      2.00000
     14       2.6989      2.00000
     15       2.6989      2.00000
     16       2.6989      2.00000
     17       3.6480      2.00000
     18       3.6480      2.00000
     19       4.5159      1.55390
     20       4.5159      1.39544
     21       4.5159      0.51690
     22       7.8760      0.00000
     23       7.8760      0.00000
     24       7.8760      0.00000

 k-point  18 :       0.4286    0.2857    0.2857
  band No.  band energies     occupation 
      1      -0.3006      2.00000
      2      -0.0414      2.00000
      3       0.1791      2.00000
      4       0.1791      2.00000
      5       1.2558      2.00000
      6       1.2558      2.00000
      7       1.5725      2.00000
      8       1.8985      2.00000
      9       2.0913      2.00000
     10       2.2405      2.00000
     11       2.3159      2.00000
     12       2.3793      2.00000
     13       2.3793      2.00000
     14       2.4152      2.00000
     15       2.5114      2.00000
     16       2.5114      2.00000
     17       4.1108      2.00000
     18       4.1972      2.00000
     19       4.3842      2.00290
     20       4.3842      2.00469
     21       4.4281      0.97412
     22       5.7758      0.00000
     23       8.4682      0.00000
     24       8.4682      0.00000

 k-point  19 :       0.4286    0.4286    0.2857
  band No.  band energies     occupation 
      1      -0.3088      2.00000
      2      -0.1360      2.00000
      3      -0.1360      2.00000
      4      -0.0623      2.00000
      5       1.4764      2.00000
      6       1.5782      2.00000
      7       1.5782      2.00000
      8       1.8277      2.00000
      9       1.9705      2.00000
     10       2.1197      2.00000
     11       2.1197      2.00000
     12       2.1644      2.00000
     13       2.8977      2.00000
     14       2.8977      2.00000
     15       2.9376      2.00000
     16       3.1546      2.00000
     17       3.9534      2.00000
     18       4.2934      2.00000
     19       4.2934      2.01121
     20       4.2962      2.01169
     21       5.0667     -0.20936
     22       6.5417      0.00000
     23       6.5417      0.00000
     24       7.6096      0.00000

 k-point  20 :       0.4286    0.4286    0.4286
  band No.  band energies     occupation 
      1      -0.4760      2.00000
      2      -0.3868      2.00000
      3      -0.3868      2.00000
      4      -0.3868      2.00000
      5       1.6949      2.00000
      6       1.6949      2.00000
      7       1.6949      2.00000
      8       1.8239      2.00000
      9       1.8239      2.00000
     10       1.8932      2.00000
     11       1.8932      2.00000
     12       1.8932      2.00000
     13       3.7311      2.00000
     14       3.7311      2.00000
     15       3.7311      2.00000
     16       4.3352      2.00000
     17       4.3352      2.00000
     18       4.4606      2.00000
     19       4.4606      1.98588
     20       4.4606      1.98583
     21       4.7956     -0.00655
     22       6.2932      0.00000
     23       6.2932      0.00000
     24       6.2932      0.00000


--------------------------------------------------------------------------------------------------------


 soft charge-density along one line, spin component           1
         0         1         2         3         4         5         6         7         8         9
 total charge-density along one line
 
 pseudopotential strength for first ion, spin component:           1
 -9.494   0.000   0.000   0.000   0.000  -0.198   0.000   0.000
  0.000  -9.494   0.000   0.000   0.000   0.000  -0.198   0.000
  0.000   0.000  -9.457   0.000   0.000   0.000   0.000  -0.203
  0.000   0.000   0.000  -9.494   0.000   0.000   0.000   0.000
  0.000   0.000   0.000   0.000  -9.457   0.000   0.000   0.000
 -0.198   0.000   0.000   0.000   0.000   0.372   0.000   0.000
  0.000  -0.198   0.000   0.000   0.000   0.000   0.372   0.000
  0.000   0.000  -0.203   0.000   0.000   0.000   0.000   0.372
  0.000   0.000   0.000  -0.198   0.000   0.000   0.000   0.000
  0.000   0.000   0.000   0.000  -0.203   0.000   0.000   0.000
  0.000   0.000   0.000   0.000   0.000   0.000   0.000   0.000
  0.000   0.000   0.000   0.000   0.000   0.000   0.000   0.000
  0.000   0.000   0.000   0.000   0.000   0.000   0.000   0.000
  0.000   0.000   0.000   0.000   0.000   0.000   0.000   0.000
  0.000   0.000   0.000   0.000   0.000   0.000   0.000   0.000
  0.000   0.000   0.000   0.000   0.000   0.000   0.000   0.000
  0.000   0.000   0.000   0.000   0.000   0.000   0.000   0.000
  0.000   0.000   0.000   0.000   0.000   0.000   0.000   0.000
 total augmentation occupancy for first ion, spin component:           1
  1.733   0.000   0.000   0.000   0.000   0.126   0.000   0.000   0.000   0.000   0.000   0.000   0.000   0.000   0.000   0.000
  0.000   1.733   0.000   0.000   0.000   0.000   0.126   0.000   0.000   0.000   0.000   0.000   0.000   0.000   0.000   0.000
  0.000   0.000   1.868   0.000   0.000   0.000   0.000   0.037   0.000   0.000   0.000   0.000   0.000   0.000   0.000   0.000
  0.000   0.000   0.000   1.733   0.000   0.000   0.000   0.000   0.126   0.000   0.000   0.000   0.000   0.000   0.000   0.000
  0.000   0.000   0.000   0.000   1.868   0.000   0.000   0.000   0.000   0.037   0.000   0.000   0.000   0.000   0.000   0.000
  0.126   0.000   0.000   0.000   0.000   0.150   0.000   0.000   0.000   0.000   0.000   0.000   0.000   0.000   0.000   0.000
  0.000   0.126   0.000   0.000   0.000   0.000   0.150   0.000   0.000   0.000   0.000   0.000   0.000   0.000   0.000   0.000
  0.000   0.000   0.037   0.000   0.000   0.000   0.000   0.141   0.000   0.000   0.000   0.000   0.000   0.000   0.000   0.000
  0.000   0.000   0.000   0.126   0.000   0.000   0.000   0.000   0.150   0.000   0.000   0.000   0.000   0.000   0.000   0.000
  0.000   0.000   0.000   0.000   0.037   0.000   0.000   0.000   0.000   0.141   0.000   0.000   0.000   0.000   0.000   0.000
  0.000   0.000   0.000   0.000   0.000   0.000   0.000   0.000   0.000   0.000   1.029  -0.378   0.000   0.000   0.000   0.000
  0.000   0.000   0.000   0.000   0.000   0.000   0.000   0.000   0.000   0.000  -0.378   0.152   0.000   0.000   0.000   0.000
  0.000   0.000   0.000   0.000   0.000   0.000   0.000   0.000   0.000   0.000   0.000   0.000   0.130   0.000   0.000  -0.003
  0.000   0.000   0.000   0.000   0.000   0.000   0.000   0.000   0.000   0.000   0.000   0.000   0.000   0.130   0.000   0.000
  0.000   0.000   0.000   0.000   0.000   0.000   0.000   0.000   0.000   0.000   0.000   0.000   0.000   0.000   0.130   0.000
  0.000   0.000   0.000   0.000   0.000   0.000   0.000   0.000   0.000   0.000   0.000   0.000  -0.003   0.000   0.000   0.000
  0.000   0.000   0.000   0.000   0.000   0.000   0.000   0.000   0.000   0.000   0.000   0.000   0.000  -0.003   0.000   0.000
  0.000   0.000   0.000   0.000   0.000   0.000   0.000   0.000   0.000   0.000   0.000   0.000   0.000   0.000  -0.003   0.000


------------------------ aborting loop because EDIFF is reached ----------------------------------------


    CHARGE:  cpu time    0.11: real time    0.11
    FORLOC:  cpu time    0.00: real time    0.00
    FORNL :  cpu time    1.06: real time    1.06
    STRESS:  cpu time    0.95: real time    0.95
    FORCOR:  cpu time    0.08: real time    0.09
    FORHAR:  cpu time    0.03: real time    0.02
    MIXING:  cpu time    0.00: real time    0.00

  FORCE on cell =-STRESS in cart. coord.  units (eV):
  Direction    XX          YY          ZZ          XY          YZ          ZX
  --------------------------------------------------------------------------------------
  Alpha Z   353.98909   353.98909   353.98909
  Ewald   -1114.83667 -1114.83667 -1114.83667     0.00000     0.00000     0.00000
  Hartree   158.19022   158.19022   158.19022     0.00000     0.00000     0.00000
  E(xc)    -209.73132  -209.73132  -209.73132     0.00000     0.00000     0.00000
  Local     307.72451   307.72451   307.72451     0.00000     0.00000     0.00000
  n-local  -211.30311  -213.72651  -207.99001     4.53032     3.31139     2.93598
  augment   172.07178   172.07176   172.07178    -0.00001     0.00000     0.00000
  Kinetic   552.23606   539.65317   539.39547     2.64434    -1.35629     0.33585
  Fock        0.00000     0.00000     0.00000     0.00000     0.00000     0.00000
  -------------------------------------------------------------------------------------
  Total       0.16263     0.16263     0.16263     0.00000     0.00000     0.00000
  in kB       4.23433     4.23433     4.23433     0.00000     0.00000     0.00000
  external pressure =        4.23 kB  Pullay stress =        0.00 kB


 VOLUME and BASIS-vectors are now :
 -----------------------------------------------------------------------------
  energy-cutoff  :      415.00
  volume of cell :       61.54
      direct lattice vectors                 reciprocal lattice vectors
     3.948026339  0.000000000  0.000000000     0.253291117  0.000000000  0.000000000
     0.000000000  3.948026339  0.000000000     0.000000000  0.253291117  0.000000000
     0.000000000  0.000000000  3.948026339     0.000000000  0.000000000  0.253291117

  length of vectors
     3.948026339  3.948026339  3.948026339     0.253291117  0.253291117  0.253291117


 FORCES acting on ions
    electron-ion (+dipol)            ewald-force                    non-local-force                 convergence-correction
 -----------------------------------------------------------------------------------------------
   0.202E-13 0.306E-13 0.268E-13   -.908E-14 0.464E-14 -.468E-14   0.000E+00 0.932E-20 0.339E-20   -.214E-13 0.185E-14 -.235E-13
   -.627E-13 -.497E-13 -.329E-12   0.989E-14 0.369E-14 -.467E-14   0.000E+00 0.000E+00 0.102E-19   0.115E-13 0.189E-14 -.244E-13
   -.653E-13 0.308E-13 0.376E-12   -.666E-15 -.377E-14 0.435E-14   0.339E-20 -.195E-19 0.678E-20   0.106E-13 0.363E-14 0.540E-13
   0.207E-13 -.614E-13 -.719E-13   0.270E-14 -.472E-14 0.436E-14   0.339E-20 -.678E-20 0.000E+00   -.741E-14 0.235E-14 0.548E-13
 -----------------------------------------------------------------------------------------------
   -.872E-13 -.497E-13 0.178E-14   0.285E-14 -.166E-15 -.650E-15   0.678E-20 -.169E-19 0.203E-19   -.675E-14 0.972E-14 0.609E-13
 
 
 POSITION                                       TOTAL-FORCE (eV/Angst)
 -----------------------------------------------------------------------------------
      0.00000      0.00000      0.00000         0.000000      0.000000      0.000000
      1.97401      1.97401      0.00000         0.000000      0.000000      0.000000
      1.97401      0.00000      1.97401         0.000000      0.000000      0.000000
      0.00000      1.97401      1.97401         0.000000      0.000000      0.000000
 -----------------------------------------------------------------------------------
    total drift:                                0.000000      0.000000      0.000000


--------------------------------------------------------------------------------------------------------



  FREE ENERGIE OF THE ION-ELECTRON SYSTEM (eV)
  ---------------------------------------------------
  free  energy   TOTEN  =       -20.704821 eV

  energy  without entropy=      -20.704821  energy(sigma->0) =      -20.704821
 
 d Force = 0.0000000E+00[ 0.000E+00, 0.000E+00]  d Energy = 0.3613094E-01-0.361E-01
 d Force = 0.0000000E+00[ 0.000E+00, 0.000E+00]  d Ewald  =-0.3396688E+02 0.340E+02


--------------------------------------------------------------------------------------------------------


    POTLOK:  cpu time    0.11: real time    0.11


--------------------------------------------------------------------------------------------------------




--------------------------------------------------------------------------------------------------------


    WAVPRE:  cpu time    0.02: real time    0.02
    FEWALD:  cpu time    0.00: real time    0.00
    GENKIN:  cpu time    0.01: real time    0.01
    ORTHCH:  cpu time    0.12: real time    0.12
     LOOP+:  cpu time   18.91: real time   18.92


----------------------------------------- Iteration    4(   1)  ---------------------------------------


    POTLOK:  cpu time    0.08: real time    0.08
    SETDIJ:  cpu time    0.02: real time    0.03
     EDDAV:  cpu time    2.11: real time    2.11
 BZINTS: Fermi energy:  4.401050; 40.000000 electrons
         Band energy:  79.444628;  BLOECHL correction: -0.088614
       DOS:  cpu time    0.04: real time    0.04
    CHARGE:  cpu time    0.12: real time    0.11
    MIXING:  cpu time    0.00: real time    0.00
    --------------------------------------------
      LOOP:  cpu time    2.37: real time    2.37

 eigenvalue-minimisations  :   960
 total energy-change (2. order) :-0.4169813E-02  (-0.5640991E-02)
 number of electron      40.0000203 magnetization 
 augmentation part       16.9414342 magnetization 

 Broyden mixing:
  rms(total) = 0.33020E-01    rms(broyden)= 0.33015E-01
  rms(prec ) = 0.77440E-01
  weight for this iteration     100.00

 Free energy of the ion-electron system (eV)
  ---------------------------------------------------
  alpha Z        PSCENC =       353.18495000
  Ewald energy   TEWEN  =     -3341.97407774
  -1/2 Hartree   DENC   =      -474.20993349
  -exchange  EXHF       =         0.00000000
  -V(xc)+E(xc)   XCENC  =      -118.12736008
  PAW double counting   =      2773.80355936    -2531.81576429
  entropy T*S    EENTRO =         0.00000000
  eigenvalues    EBANDS =        79.44462824
  atomic energy  EATOM  =      3238.98500772
  ---------------------------------------------------
  free energy    TOTEN  =       -20.70899029 eV

  energy without entropy =      -20.70899029  energy(sigma->0) =      -20.70899029


--------------------------------------------------------------------------------------------------------




----------------------------------------- Iteration    4(   2)  ---------------------------------------


    POTLOK:  cpu time    0.08: real time    0.08
    SETDIJ:  cpu time    0.02: real time    0.03
     EDDAV:  cpu time    2.14: real time    2.13
 BZINTS: Fermi energy:  4.446242; 40.000000 electrons
         Band energy:  80.821052;  BLOECHL correction: -0.087017
       DOS:  cpu time    0.04: real time    0.04
    CHARGE:  cpu time    0.12: real time    0.12
    MIXING:  cpu time    0.00: real time    0.00
    --------------------------------------------
      LOOP:  cpu time    2.40: real time    2.40

 eigenvalue-minimisations  :   968
 total energy-change (2. order) : 0.4039118E-02  (-0.1117007E-02)
 number of electron      40.0000203 magnetization 
 augmentation part       16.8988733 magnetization 

 Broyden mixing:
  rms(total) = 0.32297E-02    rms(broyden)= 0.32289E-02
  rms(prec ) = 0.45633E-02
  weight for this iteration     100.00

 eigenvalues of (default mixing * dielectric matrix)
  average eigenvalue GAMMA=   1.0044
  1.0044

 Free energy of the ion-electron system (eV)
  ---------------------------------------------------
  alpha Z        PSCENC =       353.18495000
  Ewald energy   TEWEN  =     -3341.97407774
  -1/2 Hartree   DENC   =      -475.69656340
  -exchange  EXHF       =         0.00000000
  -V(xc)+E(xc)   XCENC  =      -118.08626705
  PAW double counting   =      2775.74261312    -2533.68166619
  entropy T*S    EENTRO =         0.00000000
  eigenvalues    EBANDS =        80.82105238
  atomic energy  EATOM  =      3238.98500772
  ---------------------------------------------------
  free energy    TOTEN  =       -20.70495117 eV

  energy without entropy =      -20.70495117  energy(sigma->0) =      -20.70495117


--------------------------------------------------------------------------------------------------------




----------------------------------------- Iteration    4(   3)  ---------------------------------------


    POTLOK:  cpu time    0.08: real time    0.08
    SETDIJ:  cpu time    0.02: real time    0.03
     EDDAV:  cpu time    2.10: real time    2.10
 BZINTS: Fermi energy:  4.446204; 40.000000 electrons
         Band energy:  80.817429;  BLOECHL correction: -0.086999
       DOS:  cpu time    0.04: real time    0.03
    CHARGE:  cpu time    0.12: real time    0.12
    MIXING:  cpu time    0.00: real time    0.00
    --------------------------------------------
      LOOP:  cpu time    2.37: real time    2.37

 eigenvalue-minimisations  :   952
 total energy-change (2. order) :-0.2311514E-05  (-0.1035736E-04)
 number of electron      40.0000203 magnetization 
 augmentation part       16.8978278 magnetization 

 Broyden mixing:
  rms(total) = 0.19560E-02    rms(broyden)= 0.19559E-02
  rms(prec ) = 0.30193E-02
  weight for this iteration     100.00

 eigenvalues of (default mixing * dielectric matrix)
  average eigenvalue GAMMA=   1.6888
  1.0209  2.3567

 Free energy of the ion-electron system (eV)
  ---------------------------------------------------
  alpha Z        PSCENC =       353.18495000
  Ewald energy   TEWEN  =     -3341.97407774
  -1/2 Hartree   DENC   =      -475.68996545
  -exchange  EXHF       =         0.00000000
  -V(xc)+E(xc)   XCENC  =      -118.08629059
  PAW double counting   =      2774.68255937    -2532.62456609
  entropy T*S    EENTRO =         0.00000000
  eigenvalues    EBANDS =        80.81742931
  atomic energy  EATOM  =      3238.98500772
  ---------------------------------------------------
  free energy    TOTEN  =       -20.70495348 eV

  energy without entropy =      -20.70495348  energy(sigma->0) =      -20.70495348


--------------------------------------------------------------------------------------------------------




----------------------------------------- Iteration    4(   4)  ---------------------------------------


    POTLOK:  cpu time    0.08: real time    0.08
    SETDIJ:  cpu time    0.02: real time    0.03
     EDDAV:  cpu time    2.22: real time    2.22
 BZINTS: Fermi energy:  4.444858; 40.000000 electrons
         Band energy:  80.770794;  BLOECHL correction: -0.086987
       DOS:  cpu time    0.04: real time    0.04
    CHARGE:  cpu time    0.12: real time    0.11
    MIXING:  cpu time    0.00: real time    0.00
    --------------------------------------------
      LOOP:  cpu time    2.49: real time    2.49

 eigenvalue-minimisations  :  1024
 total energy-change (2. order) :-0.2749118E-05  (-0.3445667E-05)
 number of electron      40.0000203 magnetization 
 augmentation part       16.8982799 magnetization 

 Broyden mixing:
  rms(total) = 0.35928E-03    rms(broyden)= 0.35914E-03
  rms(prec ) = 0.59879E-03
  weight for this iteration     100.00

 eigenvalues of (default mixing * dielectric matrix)
  average eigenvalue GAMMA=   1.6363
  2.4590  1.0433  1.4065

 Free energy of the ion-electron system (eV)
  ---------------------------------------------------
  alpha Z        PSCENC =       353.18495000
  Ewald energy   TEWEN  =     -3341.97407774
  -1/2 Hartree   DENC   =      -475.62731438
  -exchange  EXHF       =         0.00000000
  -V(xc)+E(xc)   XCENC  =      -118.08770111
  PAW double counting   =      2772.89076392    -2530.84737888
  entropy T*S    EENTRO =         0.00000000
  eigenvalues    EBANDS =        80.77079426
  atomic energy  EATOM  =      3238.98500772
  ---------------------------------------------------
  free energy    TOTEN  =       -20.70495623 eV

  energy without entropy =      -20.70495623  energy(sigma->0) =      -20.70495623


--------------------------------------------------------------------------------------------------------




----------------------------------------- Iteration    4(   5)  ---------------------------------------


    POTLOK:  cpu time    0.08: real time    0.08
    SETDIJ:  cpu time    0.02: real time    0.02
     EDDAV:  cpu time    1.70: real time    1.70
 BZINTS: Fermi energy:  4.445406; 40.000000 electrons
         Band energy:  80.787228;  BLOECHL correction: -0.086989
       DOS:  cpu time    0.04: real time    0.04
    CHARGE:  cpu time    0.12: real time    0.11
    MIXING:  cpu time    0.00: real time    0.00
    --------------------------------------------
      LOOP:  cpu time    1.97: real time    1.97

 eigenvalue-minimisations  :   688
 total energy-change (2. order) :-0.3878296E-05  (-0.2528303E-06)
 number of electron      40.0000203 magnetization 
 augmentation part       16.8977466 magnetization 

 Broyden mixing:
  rms(total) = 0.15510E-03    rms(broyden)= 0.15509E-03
  rms(prec ) = 0.36450E-03
  weight for this iteration     100.00

 eigenvalues of (default mixing * dielectric matrix)
  average eigenvalue GAMMA=   1.7598
  2.6600  2.3651  1.0070  1.0070

 Free energy of the ion-electron system (eV)
  ---------------------------------------------------
  alpha Z        PSCENC =       353.18495000
  Ewald energy   TEWEN  =     -3341.97407774
  -1/2 Hartree   DENC   =      -475.63944104
  -exchange  EXHF       =         0.00000000
  -V(xc)+E(xc)   XCENC  =      -118.08736071
  PAW double counting   =      2772.86725341    -2530.82851950
  entropy T*S    EENTRO =         0.00000000
  eigenvalues    EBANDS =        80.78722776
  atomic energy  EATOM  =      3238.98500772
  ---------------------------------------------------
  free energy    TOTEN  =       -20.70496011 eV

  energy without entropy =      -20.70496011  energy(sigma->0) =      -20.70496011


--------------------------------------------------------------------------------------------------------




----------------------------------------- Iteration    4(   6)  ---------------------------------------


    POTLOK:  cpu time    0.08: real time    0.08
    SETDIJ:  cpu time    0.02: real time    0.03
     EDDAV:  cpu time    1.39: real time    1.39
 BZINTS: Fermi energy:  4.445220; 40.000000 electrons
         Band energy:  80.781438;  BLOECHL correction: -0.086988
       DOS:  cpu time    0.04: real time    0.04
    CHARGE:  cpu time    0.11: real time    0.11
    MIXING:  cpu time    0.00: real time    0.00
    --------------------------------------------
      LOOP:  cpu time    1.65: real time    1.65

 eigenvalue-minimisations  :   480
 total energy-change (2. order) : 0.2001636E-05  (-0.3262024E-07)
 number of electron      40.0000203 magnetization 
 augmentation part       16.8979085 magnetization 

 Broyden mixing:
  rms(total) = 0.21648E-04    rms(broyden)= 0.21633E-04
  rms(prec ) = 0.31343E-04
  weight for this iteration     100.00

 eigenvalues of (default mixing * dielectric matrix)
  average eigenvalue GAMMA=   1.7904
  3.1192  2.4937  1.0045  1.0045  1.3301

 Free energy of the ion-electron system (eV)
  ---------------------------------------------------
  alpha Z        PSCENC =       353.18495000
  Ewald energy   TEWEN  =     -3341.97407774
  -1/2 Hartree   DENC   =      -475.62868620
  -exchange  EXHF       =         0.00000000
  -V(xc)+E(xc)   XCENC  =      -118.08766119
  PAW double counting   =      2772.82820792    -2530.79413614
  entropy T*S    EENTRO =         0.00000000
  eigenvalues    EBANDS =        80.78143753
  atomic energy  EATOM  =      3238.98500772
  ---------------------------------------------------
  free energy    TOTEN  =       -20.70495810 eV

  energy without entropy =      -20.70495810  energy(sigma->0) =      -20.70495810


--------------------------------------------------------------------------------------------------------




----------------------------------------- Iteration    4(   7)  ---------------------------------------


    POTLOK:  cpu time    0.08: real time    0.08
    SETDIJ:  cpu time    0.02: real time    0.03
     EDDAV:  cpu time    1.38: real time    1.38
 BZINTS: Fermi energy:  4.445232; 40.000000 electrons
         Band energy:  80.781757;  BLOECHL correction: -0.086989
       DOS:  cpu time    0.04: real time    0.03
    --------------------------------------------
      LOOP:  cpu time    1.52: real time    1.52

 eigenvalue-minimisations  :   480
 total energy-change (2. order) : 0.2288107E-07  (-0.7058548E-08)
 number of electron      40.0000203 magnetization 
 augmentation part       16.8979085 magnetization 

 Free energy of the ion-electron system (eV)
  ---------------------------------------------------
  alpha Z        PSCENC =       353.18495000
  Ewald energy   TEWEN  =     -3341.97407774
  -1/2 Hartree   DENC   =      -475.62845241
  -exchange  EXHF       =         0.00000000
  -V(xc)+E(xc)   XCENC  =      -118.08767017
  PAW double counting   =      2772.82549188    -2530.79196483
  entropy T*S    EENTRO =         0.00000000
  eigenvalues    EBANDS =        80.78175746
  atomic energy  EATOM  =      3238.98500772
  ---------------------------------------------------
  free energy    TOTEN  =       -20.70495808 eV

  energy without entropy =      -20.70495808  energy(sigma->0) =      -20.70495808


--------------------------------------------------------------------------------------------------------




 average (electrostatic) potential at core
  the test charge radii are     1.1199
  (the norm of the test charge is              1.0000)
       1 -47.0976       2 -47.0976       3 -47.0976       4 -47.0976
 
 
 
 E-fermi :   4.4452     XC(G=0): -12.9032     alpha+bet :-11.3468


 k-point   1 :       0.0000    0.0000    0.0000
  band No.  band energies     occupation 
      1      -2.3664      2.00000
      2      -0.5785      2.00000
      3      -0.5785      2.00000
      4      -0.5785      2.00000
      5      -0.3142      2.00000
      6      -0.3142      2.00000
      7      -0.3142      2.00000
      8       1.8053      2.00000
      9       1.8053      2.00000
     10       1.8053      2.00000
     11       3.3125      2.00000
     12       3.3125      2.00000
     13       4.4039      2.00000
     14       4.4039      2.00000
     15       4.4039      2.00000
     16       4.7149      1.07974
     17       4.7149      0.37564
     18       4.7149     -0.03045
     19       4.7149      0.00000
     20       4.7149      0.00000
     21       4.7149      0.00000
     22       7.8236      0.00000
     23       7.8236      0.00000
     24       7.8236      0.00000

 k-point   2 :       0.1429    0.0000    0.0000
  band No.  band energies     occupation 
      1      -2.1295      2.00000
      2      -0.4714      2.00000
      3      -0.4293      2.00000
      4      -0.4293      2.00000
      5      -0.2240      2.00000
      6      -0.1795      2.00000
      7      -0.1795      2.00000
      8       1.6814      2.00000
      9       1.9107      2.00000
     10       1.9107      2.00000
     11       3.1858      2.00000
     12       3.3630      2.00000
     13       4.0402      2.00000
     14       4.0402      2.00000
     15       4.2290      2.00000
     16       4.2290      1.98478
     17       4.3457      1.93450
     18       4.5078      1.43416
     19       4.5078      0.38069
     20       4.7151      0.00000
     21       4.7151      0.00000
     22       6.7442      0.00000
     23       8.6647      0.00000
     24       8.6647      0.00000

 k-point   3 :       0.2857    0.0000    0.0000
  band No.  band energies     occupation 
      1      -1.4622      2.00000
      2      -0.2134      2.00000
      3      -0.0408      2.00000
      4      -0.0408      2.00000
      5       0.0350      2.00000
      6       0.2215      2.00000
      7       0.2215      2.00000
      8       1.3471      2.00000
      9       2.2203      2.00000
     10       2.2203      2.00000
     11       2.8732      2.00000
     12       2.8739      2.00000
     13       2.8739      2.00000
     14       3.5062      2.00000
     15       3.7765      2.00000
     16       3.7765      2.00000
     17       3.9826      2.00000
     18       3.9826      2.00386
     19       4.1856      2.11331
     20       4.7158     -0.09957
     21       4.7158     -0.04385
     22       4.7978      0.00000
     23      10.3187      0.00000
     24      10.3187      0.00000

 k-point   4 :       0.4286    0.0000    0.0000
  band No.  band energies     occupation 
      1      -0.5754      2.00000
      2      -0.0759      2.00000
      3       0.3595      2.00000
      4       0.3595      2.00000
      5       0.4283      2.00000
      6       0.8804      2.00000
      7       0.8804      2.00000
      8       0.8948      2.00000
      9       1.7784      2.00000
     10       1.7784      2.00000
     11       2.6501      2.00000
     12       2.7106      2.00000
     13       2.7106      2.00000
     14       3.2001      2.00000
     15       3.3193      2.00000
     16       3.3193      2.00000
     17       3.3302      2.00000
     18       3.3302      2.00000
     19       3.7182      2.00052
     20       3.9606      2.54361
     21       4.7164     -0.13743
     22       4.7164      0.00000
     23      12.1858      0.00000
     24      12.1858      0.00000

 k-point   5 :       0.1429    0.1429    0.0000
  band No.  band energies     occupation 
      1      -1.9018      2.00000
      2      -0.3241      2.00000
      3      -0.3188      2.00000
      4      -0.3188      2.00000
      5      -0.0948      2.00000
      6      -0.0948      2.00000
      7      -0.0180      2.00000
      8       1.6337      2.00000
      9       1.9499      2.00000
     10       1.9887      2.00000
     11       3.1560      2.00000
     12       3.3513      2.00000
     13       3.6744      2.00000
     14       3.7202      2.00000
     15       3.7202      2.00000
     16       4.0784      2.00805
     17       4.2639      1.99707
     18       4.2639      2.00327
     19       4.5065      0.70893
     20       4.5065      0.07828
     21       4.5757     -0.00374
     22       7.5707      0.00000
     23       7.5707      0.00000
     24       9.3397      0.00000

 k-point   6 :       0.2857    0.1429    0.0000
  band No.  band energies     occupation 
      1      -1.2620      2.00000
      2      -0.0498      2.00000
      3      -0.0053      2.00000
      4       0.0812      2.00000
      5       0.1485      2.00000
      6       0.2895      2.00000
      7       0.4017      2.00000
      8       1.3599      2.00000
      9       2.1790      2.00000
     10       2.2254      2.00000
     11       2.6067      2.00000
     12       2.7469      2.00000
     13       2.9408      2.00000
     14       3.0864      2.00000
     15       3.5341      2.00000
     16       3.6803      2.00000
     17       3.8227      2.00000
     18       3.9784      2.00240
     19       4.1034      2.21086
     20       4.5030      0.45197
     21       4.5061      0.14911
     22       5.7455      0.00000
     23       9.0323      0.00000
     24      10.8344      0.00000

 k-point   7 :       0.4286    0.1429    0.0000
  band No.  band energies     occupation 
      1      -0.4057      2.00000
      2       0.0974      2.00000
      3       0.4360      2.00000
      4       0.4966      2.00000
      5       0.5162      2.00000
      6       0.9166      2.00000
      7       0.9263      2.00000
      8       0.9487      2.00000
      9       1.6204      2.00000
     10       1.7584      2.00000
     11       2.2096      2.00000
     12       2.4035      2.00000
     13       2.7076      2.00000
     14       3.0623      2.00000
     15       3.2835      2.00000
     16       3.3251      2.00000
     17       3.3469      2.00000
     18       3.6581      2.00000
     19       3.8668      2.00062
     20       4.4418      1.65546
     21       4.4955      0.08762
     22       4.4983      0.00000
     23      10.5464      0.00000
     24      12.0024      0.00000

 k-point   8 :       0.2857    0.2857    0.0000
  band No.  band energies     occupation 
      1      -0.7075      2.00000
      2       0.1874      2.00000
      3       0.3889      2.00000
      4       0.3889      2.00000
      5       0.4821      2.00000
      6       0.4821      2.00000
      7       0.8027      2.00000
      8       1.2991      2.00000
      9       2.0769      2.00000
     10       2.0769      2.00000
     11       2.1434      2.00000
     12       2.3219      2.00000
     13       2.3566      2.00000
     14       2.8423      2.00000
     15       3.4043      2.00000
     16       3.7267      2.00000
     17       3.7267      2.00000
     18       3.8737      2.00000
     19       3.9703      2.07145
     20       3.9703      2.41680
     21       4.1806      2.48309
     22       7.0693      0.00000
     23       7.0693      0.00000
     24      11.4831      0.00000

 k-point   9 :       0.4286    0.2857    0.0000
  band No.  band energies     occupation 
      1       0.0348      2.00000
      2       0.5547      2.00000
      3       0.5787      2.00000
      4       0.7639      2.00000
      5       0.8765      2.00000
      6       1.0104      2.00000
      7       1.0703      2.00000
      8       1.1448      2.00000
      9       1.2868      2.00000
     10       1.6708      2.00000
     11       1.7105      2.00000
     12       1.9392      2.00000
     13       2.7451      2.00000
     14       2.9067      2.00000
     15       3.1218      2.00000
     16       3.2674      2.00000
     17       3.3260      2.00000
     18       3.3480      2.00000
     19       3.9722      2.00045
     20       4.0181      2.05986
     21       4.5272      0.06544
     22       5.5245      0.00000
     23       8.4196      0.00000
     24       9.8370      0.00000

 k-point  10 :       0.4286    0.4286    0.0000
  band No.  band energies     occupation 
      1       0.5346      2.00000
      2       0.7452      2.00000
      3       0.9265      2.00000
      4       0.9265      2.00000
      5       1.1145      2.00000
      6       1.1145      2.00000
      7       1.1505      2.00000
      8       1.4045      2.00000
      9       1.4045      2.00000
     10       1.4501      2.00000
     11       1.4550      2.00000
     12       1.8172      2.00000
     13       2.6724      2.00000
     14       2.8564      2.00000
     15       2.9378      2.00000
     16       2.9378      2.00000
     17       2.9461      2.00000
     18       3.3863      2.00000
     19       3.3863      2.00000
     20       3.5992      2.00000
     21       5.4770     -0.14911
     22       6.7210      0.00000
     23       6.7210      0.00000
     24       8.1015      0.00000

 k-point  11 :       0.1429    0.1429    0.1429
  band No.  band energies     occupation 
      1      -1.6894      2.00000
      2      -0.2254      2.00000
      3      -0.2254      2.00000
      4      -0.2254      2.00000
      5       0.0737      2.00000
      6       0.0737      2.00000
      7       0.0737      2.00000
      8       1.6216      2.00000
      9       2.0044      2.00000
     10       2.0044      2.00000
     11       3.2500      2.00000
     12       3.2500      2.00000
     13       3.4321      2.00000
     14       3.4321      2.00000
     15       3.4321      2.00000
     16       3.8632      2.01189
     17       3.8632      2.02789
     18       3.8632      2.05500
     19       4.5780      0.27921
     20       4.5780      0.02250
     21       4.5780     -0.03211
     22       8.1654      0.00000
     23       8.1654      0.00000
     24       8.1654      0.00000

 k-point  12 :       0.2857    0.1429    0.1429
  band No.  band energies     occupation 
      1      -1.0984      2.00000
      2      -0.0009      2.00000
      3       0.0753      2.00000
      4       0.0753      2.00000
      5       0.3478      2.00000
      6       0.4913      2.00000
      7       0.4913      2.00000
      8       1.4301      2.00000
      9       2.1508      2.00000
     10       2.1791      2.00000
     11       2.5381      2.00000
     12       2.5381      2.00000
     13       2.8223      2.00000
     14       3.0903      2.00000
     15       3.4103      2.00000
     16       3.5026      2.00000
     17       3.5536      2.00000
     18       3.5536      2.00179
     19       4.4610      1.59285
     20       4.4833      0.71951
     21       4.4833      0.36316
     22       6.2117      0.00000
     23       9.4167      0.00000
     24       9.4167      0.00000

 k-point  13 :       0.4286    0.1429    0.1429
  band No.  band energies     occupation 
      1      -0.3254      2.00000
      2       0.1139      2.00000
      3       0.5343      2.00000
      4       0.5343      2.00000
      5       0.7317      2.00000
      6       0.8923      2.00000
      7       0.8923      2.00000
      8       1.0974      2.00000
      9       1.7377      2.00000
     10       1.7377      2.00000
     11       2.1007      2.00000
     12       2.1967      2.00000
     13       2.4871      2.00000
     14       2.9158      2.00000
     15       3.2096      2.00000
     16       3.2096      2.00000
     17       3.4651      2.00000
     18       3.8453      2.00000
     19       4.1939      2.01358
     20       4.4093      1.86645
     21       4.4093      1.42524
     22       4.5569      0.00000
     23      10.7618      0.00000
     24      10.7618      0.00000

 k-point  14 :       0.2857    0.2857    0.1429
  band No.  band energies     occupation 
      1      -0.6637      2.00000
      2       0.2060      2.00000
      3       0.2189      2.00000
      4       0.2189      2.00000
      5       0.7886      2.00000
      6       0.7886      2.00000
      7       0.8737      2.00000
      8       1.5330      2.00000
      9       2.1026      2.00000
     10       2.1026      2.00000
     11       2.1205      2.00000
     12       2.1854      2.00000
     13       2.2637      2.00000
     14       3.1326      2.00000
     15       3.1360      2.00000
     16       3.1761      2.00000
     17       3.1761      2.00000
     18       3.7795      2.00000
     19       4.3461      2.01515
     20       4.3669      1.97494
     21       4.3669      1.81179
     22       7.2801      0.00000
     23       7.2801      0.00000
     24      10.2086      0.00000

 k-point  15 :       0.4286    0.2857    0.1429
  band No.  band energies     occupation 
      1      -0.1341      2.00000
      2       0.2092      2.00000
      3       0.4931      2.00000
      4       0.5575      2.00000
      5       1.0266      2.00000
      6       1.0539      2.00000
      7       1.2435      2.00000
      8       1.4939      2.00000
      9       1.7598      2.00000
     10       1.7699      2.00000
     11       1.9303      2.00000
     12       1.9522      2.00000
     13       2.3561      2.00000
     14       2.7165      2.00000
     15       2.8739      2.00000
     16       2.9430      2.00000
     17       3.4369      2.00000
     18       4.0220      2.00000
     19       4.1853      2.00706
     20       4.1903      2.04906
     21       4.4183      1.14879
     22       5.5191      0.00000
     23       8.5057      0.00000
     24       9.7670      0.00000

 k-point  16 :       0.4286    0.4286    0.1429
  band No.  band energies     occupation 
      1       0.0935      2.00000
      2       0.3352      2.00000
      3       0.3352      2.00000
      4       0.4160      2.00000
      5       1.2843      2.00000
      6       1.4242      2.00000
      7       1.4242      2.00000
      8       1.6673      2.00000
      9       1.8941      2.00000
     10       1.8941      2.00000
     11       2.0327      2.00000
     12       2.1239      2.00000
     13       2.2933      2.00000
     14       2.5576      2.00000
     15       2.5660      2.00000
     16       2.5660      2.00000
     17       3.3987      2.00000
     18       3.8029      2.00000
     19       3.8029      2.00483
     20       3.8940      2.00496
     21       5.3685     -0.26275
     22       6.6759      0.00000
     23       6.6759      0.00000
     24       8.0535      0.00000

 k-point  17 :       0.2857    0.2857    0.2857
  band No.  band energies     occupation 
      1      -0.5294      2.00000
      2       0.1509      2.00000
      3       0.1510      2.00000
      4       0.1510      2.00000
      5       1.1417      2.00000
      6       1.1417      2.00000
      7       1.1417      2.00000
      8       2.0404      2.00000
      9       2.0404      2.00000
     10       2.1290      2.00000
     11       2.1807      2.00000
     12       2.1807      2.00000
     13       2.1807      2.00000
     14       2.6796      2.00000
     15       2.6796      2.00000
     16       2.6796      2.00000
     17       3.6250      2.00000
     18       3.6250      2.00000
     19       4.4894      1.55640
     20       4.4894      1.39816
     21       4.4894      0.51902
     22       7.8448      0.00000
     23       7.8448      0.00000
     24       7.8448      0.00000

 k-point  18 :       0.4286    0.2857    0.2857
  band No.  band energies     occupation 
      1      -0.3111      2.00000
      2      -0.0520      2.00000
      3       0.1681      2.00000
      4       0.1681      2.00000
      5       1.2420      2.00000
      6       1.2420      2.00000
      7       1.5575      2.00000
      8       1.8821      2.00000
      9       2.0741      2.00000
     10       2.2231      2.00000
     11       2.2979      2.00000
     12       2.3615      2.00000
     13       2.3615      2.00000
     14       2.3975      2.00000
     15       2.4929      2.00000
     16       2.4929      2.00000
     17       4.0860      2.00000
     18       4.1732      2.00000
     19       4.3583      2.00294
     20       4.3583      2.00476
     21       4.4020      0.97442
     22       5.7486      0.00000
     23       8.4373      0.00000
     24       8.4373      0.00000

 k-point  19 :       0.4286    0.4286    0.2857
  band No.  band energies     occupation 
      1      -0.3189      2.00000
      2      -0.1463      2.00000
      3      -0.1463      2.00000
      4      -0.0727      2.00000
      5       1.4617      2.00000
      6       1.5631      2.00000
      7       1.5631      2.00000
      8       1.8115      2.00000
      9       1.9538      2.00000
     10       2.1025      2.00000
     11       2.1025      2.00000
     12       2.1470      2.00000
     13       2.8785      2.00000
     14       2.8785      2.00000
     15       2.9182      2.00000
     16       3.1350      2.00000
     17       3.9292      2.00000
     18       4.2679      2.00000
     19       4.2679      2.01113
     20       4.2706      2.01162
     21       5.0405     -0.20943
     22       6.5135      0.00000
     23       6.5135      0.00000
     24       7.5805      0.00000

 k-point  20 :       0.4286    0.4286    0.4286
  band No.  band energies     occupation 
      1      -0.4853      2.00000
      2      -0.3963      2.00000
      3      -0.3963      2.00000
      4      -0.3963      2.00000
      5       1.6792      2.00000
      6       1.6792      2.00000
      7       1.6792      2.00000
      8       1.8078      2.00000
      9       1.8078      2.00000
     10       1.8768      2.00000
     11       1.8768      2.00000
     12       1.8768      2.00000
     13       3.7089      2.00000
     14       3.7089      2.00000
     15       3.7089      2.00000
     16       4.3095      2.00000
     17       4.3095      2.00000
     18       4.4343      2.00000
     19       4.4343      1.98602
     20       4.4343      1.98597
     21       4.7746     -0.00675
     22       6.2680      0.00000
     23       6.2680      0.00000
     24       6.2680      0.00000


--------------------------------------------------------------------------------------------------------


 soft charge-density along one line, spin component           1
         0         1         2         3         4         5         6         7         8         9
 total charge-density along one line
 
 pseudopotential strength for first ion, spin component:           1
 -9.503   0.000   0.000   0.000   0.000  -0.196   0.000   0.000
  0.000  -9.503   0.000   0.000   0.000   0.000  -0.196   0.000
  0.000   0.000  -9.467   0.000   0.000   0.000   0.000  -0.202
  0.000   0.000   0.000  -9.503   0.000   0.000   0.000   0.000
  0.000   0.000   0.000   0.000  -9.467   0.000   0.000   0.000
 -0.196   0.000   0.000   0.000   0.000   0.371   0.000   0.000
  0.000  -0.196   0.000   0.000   0.000   0.000   0.371   0.000
  0.000   0.000  -0.202   0.000   0.000   0.000   0.000   0.372
  0.000   0.000   0.000  -0.196   0.000   0.000   0.000   0.000
  0.000   0.000   0.000   0.000  -0.202   0.000   0.000   0.000
  0.000   0.000   0.000   0.000   0.000   0.000   0.000   0.000
  0.000   0.000   0.000   0.000   0.000   0.000   0.000   0.000
  0.000   0.000   0.000   0.000   0.000   0.000   0.000   0.000
  0.000   0.000   0.000   0.000   0.000   0.000   0.000   0.000
  0.000   0.000   0.000   0.000   0.000   0.000   0.000   0.000
  0.000   0.000   0.000   0.000   0.000   0.000   0.000   0.000
  0.000   0.000   0.000   0.000   0.000   0.000   0.000   0.000
  0.000   0.000   0.000   0.000   0.000   0.000   0.000   0.000
 total augmentation occupancy for first ion, spin component:           1
  1.733   0.000   0.000   0.000   0.000   0.125   0.000   0.000   0.000   0.000   0.000   0.000   0.000   0.000   0.000   0.000
  0.000   1.733   0.000   0.000   0.000   0.000   0.125   0.000   0.000   0.000   0.000   0.000   0.000   0.000   0.000   0.000
  0.000   0.000   1.867   0.000   0.000   0.000   0.000   0.036   0.000   0.000   0.000   0.000   0.000   0.000   0.000   0.000
  0.000   0.000   0.000   1.733   0.000   0.000   0.000   0.000   0.125   0.000   0.000   0.000   0.000   0.000   0.000   0.000
  0.000   0.000   0.000   0.000   1.867   0.000   0.000   0.000   0.000   0.036   0.000   0.000   0.000   0.000   0.000   0.000
  0.125   0.000   0.000   0.000   0.000   0.149   0.000   0.000   0.000   0.000   0.000   0.000   0.000   0.000   0.000   0.000
  0.000   0.125   0.000   0.000   0.000   0.000   0.149   0.000   0.000   0.000   0.000   0.000   0.000   0.000   0.000   0.000
  0.000   0.000   0.036   0.000   0.000   0.000   0.000   0.140   0.000   0.000   0.000   0.000   0.000   0.000   0.000   0.000
  0.000   0.000   0.000   0.125   0.000   0.000   0.000   0.000   0.149   0.000   0.000   0.000   0.000   0.000   0.000   0.000
  0.000   0.000   0.000   0.000   0.036   0.000   0.000   0.000   0.000   0.140   0.000   0.000   0.000   0.000   0.000   0.000
  0.000   0.000   0.000   0.000   0.000   0.000   0.000   0.000   0.000   0.000   1.026  -0.377   0.000   0.000   0.000   0.000
  0.000   0.000   0.000   0.000   0.000   0.000   0.000   0.000   0.000   0.000  -0.377   0.152   0.000   0.000   0.000   0.000
  0.000   0.000   0.000   0.000   0.000   0.000   0.000   0.000   0.000   0.000   0.000   0.000   0.129   0.000   0.000  -0.003
  0.000   0.000   0.000   0.000   0.000   0.000   0.000   0.000   0.000   0.000   0.000   0.000   0.000   0.129   0.000   0.000
  0.000   0.000   0.000   0.000   0.000   0.000   0.000   0.000   0.000   0.000   0.000   0.000   0.000   0.000   0.129   0.000
  0.000   0.000   0.000   0.000   0.000   0.000   0.000   0.000   0.000   0.000   0.000   0.000  -0.003   0.000   0.000   0.000
  0.000   0.000   0.000   0.000   0.000   0.000   0.000   0.000   0.000   0.000   0.000   0.000   0.000  -0.003   0.000   0.000
  0.000   0.000   0.000   0.000   0.000   0.000   0.000   0.000   0.000   0.000   0.000   0.000   0.000   0.000  -0.003   0.000


------------------------ aborting loop because EDIFF is reached ----------------------------------------


    CHARGE:  cpu time    0.11: real time    0.11
    FORLOC:  cpu time    0.00: real time    0.00
    FORNL :  cpu time    1.06: real time    1.06
    STRESS:  cpu time    0.95: real time    0.95
    FORCOR:  cpu time    0.08: real time    0.08
    FORHAR:  cpu time    0.02: real time    0.02
    MIXING:  cpu time    0.00: real time    0.00

  FORCE on cell =-STRESS in cart. coord.  units (eV):
  Direction    XX          YY          ZZ          XY          YZ          ZX
  --------------------------------------------------------------------------------------
  Alpha Z   353.18495   353.18495   353.18495
  Ewald   -1113.99185 -1113.99185 -1113.99185     0.00000     0.00000     0.00000
  Hartree   158.54242   158.54242   158.54242     0.00000     0.00000     0.00000
  E(xc)    -209.69739  -209.69739  -209.69739     0.00000     0.00000     0.00000
  Local     307.36762   307.36762   307.36762     0.00000     0.00000     0.00000
  n-local  -211.44206  -213.97163  -208.11376     4.51055     3.34226     2.94200
  augment   172.07426   172.07424   172.07426    -0.00008    -0.00008    -0.00008
  Kinetic   552.01589   539.93279   539.15902     2.63846    -1.43691     0.36611
  Fock        0.00000     0.00000     0.00000     0.00000     0.00000     0.00000
  -------------------------------------------------------------------------------------
  Total       0.00675     0.00675     0.00675     0.00000     0.00000     0.00000
  in kB       0.17525     0.17525     0.17525     0.00000     0.00000     0.00000
  external pressure =        0.18 kB  Pullay stress =        0.00 kB


 VOLUME and BASIS-vectors are now :
 -----------------------------------------------------------------------------
  energy-cutoff  :      415.00
  volume of cell :       61.68
      direct lattice vectors                 reciprocal lattice vectors
     3.951020398  0.000000000  0.000000000     0.253099174  0.000000000  0.000000000
     0.000000000  3.951020398  0.000000000     0.000000000  0.253099174  0.000000000
     0.000000000  0.000000000  3.951020398     0.000000000  0.000000000  0.253099174

  length of vectors
     3.951020398  3.951020398  3.951020398     0.253099174  0.253099174  0.253099174


 FORCES acting on ions
    electron-ion (+dipol)            ewald-force                    non-local-force                 convergence-correction
 -----------------------------------------------------------------------------------------------
   0.179E-13 0.171E-13 0.223E-13   -.246E-14 -.169E-14 -.687E-14   0.678E-20 0.000E+00 0.000E+00   0.148E-13 0.731E-14 -.493E-13
   -.686E-13 -.444E-13 -.327E-12   0.127E-14 0.330E-14 -.688E-14   0.762E-20 0.000E+00 0.000E+00   0.139E-13 0.185E-13 -.480E-13
   -.650E-13 0.195E-13 0.392E-12   0.764E-14 -.341E-14 0.771E-14   -.119E-19 -.203E-19 0.000E+00   0.107E-13 0.665E-14 0.285E-13
   0.177E-13 -.610E-13 -.599E-13   -.421E-14 0.159E-14 0.770E-14   -.390E-19 -.203E-19 0.000E+00   0.991E-14 0.102E-13 0.297E-13
 -----------------------------------------------------------------------------------------------
   -.981E-13 -.689E-13 0.270E-13   0.225E-14 -.214E-15 0.167E-14   -.364E-19 -.407E-19 0.000E+00   0.493E-13 0.427E-13 -.390E-13
 
 
 POSITION                                       TOTAL-FORCE (eV/Angst)
 -----------------------------------------------------------------------------------
      0.00000      0.00000      0.00000         0.000000      0.000000      0.000000
      1.97551      1.97551      0.00000         0.000000      0.000000      0.000000
      1.97551      0.00000      1.97551         0.000000      0.000000      0.000000
      0.00000      1.97551      1.97551         0.000000      0.000000      0.000000
 -----------------------------------------------------------------------------------
    total drift:                                0.000000      0.000000      0.000000


--------------------------------------------------------------------------------------------------------



  FREE ENERGIE OF THE ION-ELECTRON SYSTEM (eV)
  ---------------------------------------------------
  free  energy   TOTEN  =       -20.704958 eV

  energy  without entropy=      -20.704958  energy(sigma->0) =      -20.704958
 
 d Force = 0.0000000E+00[ 0.000E+00, 0.000E+00]  d Energy = 0.1368787E-03-0.137E-03
 d Force = 0.0000000E+00[ 0.000E+00, 0.000E+00]  d Ewald  =-0.2534448E+01 0.253E+01


--------------------------------------------------------------------------------------------------------


    POTLOK:  cpu time    0.11: real time    0.11


--------------------------------------------------------------------------------------------------------




--------------------------------------------------------------------------------------------------------


  
 reached required accuracy - stopping structural energy minimisation
 writing wavefunctions
     LOOP+:  cpu time   17.25: real time   17.25
    4ORBIT:  cpu time    0.00: real time    0.00
 BZINTS: Fermi energy:  4.445232; 40.000000 electrons
         Band energy:  80.781757;  BLOECHL correction: -0.086989

 total amount of memory used by VASP on root node    41183. kBytes
========================================================================

   base      :      30000. kBytes
   nonl-proj :       3373. kBytes
   fftplans  :       1158. kBytes
   grid      :       1913. kBytes
   one-center:         62. kBytes
   wavefun   :       4677. kBytes
 
  
  
 General timing and accounting informations for this job:
 ========================================================
  
                  Total CPU time used (sec):       89.418
                            User time (sec):       88.582
                          System time (sec):        0.836
                         Elapsed time (sec):       90.430
  
                   Maximum memory used (kb):           0.
                   Average memory used (kb):           0.
  
                          Minor page faults:        62150
                          Major page faults:            3
                 Voluntary context switches:          650
