Pd Suf2                                 
   1.00000000000000     
     3.9510203979999998    0.0000000000000000    0.0000000000000000
     0.0000000000000000    2.7937933152999999    0.0000000000000000
     0.0000000000000000    0.0000000000000000   18.3813799458900000
   Pd
     6
Selective dynamics
Direct
  0.0000000000000000  0.0000000000000000  0.0048085658281584   T   T   T
  0.0000000000000000  0.0000000000000000  0.1523462980955692   T   T   T
  0.0000000000000000  0.0000000000000000  0.3064267090474285   T   T   T
  0.5000000000000000  0.5000000000000000  0.0735492943125710   T   T   T
  0.5000000000000000  0.5000000000000000  0.2276297052744277   T   T   T
  0.5000000000000000  0.5000000000000000  0.3751674375418383   T   T   T
 
  0.00000000E+00  0.00000000E+00  0.00000000E+00
  0.00000000E+00  0.00000000E+00  0.00000000E+00
  0.00000000E+00  0.00000000E+00  0.00000000E+00
  0.00000000E+00  0.00000000E+00  0.00000000E+00
  0.00000000E+00  0.00000000E+00  0.00000000E+00
  0.00000000E+00  0.00000000E+00  0.00000000E+00
