Cu Bulk                                 
 1.00000000000
 3.63135485668 0.00000000000 0.00000000000
 0.00000000000 3.63135485668 0.00000000000
 0.00000000000 0.00000000000 20.89406457005
 12 
Selective dynamics
Direct
0.00000000000 0.00000000000 0.00000000000  T  T  T
0.00000000000 0.00000000000 0.17379839353  T  T  T
0.00000000000 0.00000000000 0.34759678707  T  T  T
0.50000000000 0.50000000000 0.00000000000  T  T  T
0.50000000000 0.50000000000 0.17379839353  T  T  T
0.50000000000 0.50000000000 0.34759678707  T  T  T
0.50000000000 0.00000000000 0.08689919677  T  T  T
0.50000000000 0.00000000000 0.26069759030  T  T  T
0.50000000000 0.00000000000 0.43449598384  T  T  T
0.00000000000 0.50000000000 0.08689919677  T  T  T
0.00000000000 0.50000000000 0.26069759030  T  T  T
0.00000000000 0.50000000000 0.43449598384  T  T  T
