Pd Suf2                                 
 1.00000000000
 3.95102039800 0.00000000000 0.00000000000
 0.00000000000 2.79379331530 0.00000000000
 0.00000000000 0.00000000000 18.38137994589
 6 
Selective dynamics
Direct
0.00000000000 0.00000000000 0.00000000000  T  T  T
0.00000000000 0.00000000000 0.15199040135  T  T  T
0.00000000000 0.00000000000 0.30398080269  T  T  T
0.50000000000 0.50000000000 0.07599520067  T  T  T
0.50000000000 0.50000000000 0.22798560202  T  T  T
0.50000000000 0.50000000000 0.37997600337  T  T  T
