Pd Bulk                                 
   3.89332993700000     
     1.0148177683734987    0.0000000000000000    0.0000000000000000
     0.0000000000000000    1.0148177683734987    0.0000000000000000
     0.0000000000000000    0.0000000000000000    1.0148177683734987
   Pd
     4
Selective dynamics
Direct
  0.0000000000000000  0.0000000000000000  0.0000000000000000   T   T   T
  0.5000000000000000  0.5000000000000000  0.0000000000000000   T   T   T
  0.5000000000000000  0.0000000000000000  0.5000000000000000   T   T   T
  0.0000000000000000  0.5000000000000000  0.5000000000000000   T   T   T
 
  0.00000000E+00  0.00000000E+00  0.00000000E+00
  0.00000000E+00  0.00000000E+00  0.00000000E+00
  0.00000000E+00  0.00000000E+00  0.00000000E+00
  0.00000000E+00  0.00000000E+00  0.00000000E+00
