 vasp.5.3.3 18Dez12 (build Jun 19 2013 09:41:16) complex                        
  
 executed on             LinuxIFC date 2017.04.24  21:48:59
 running on    2 total cores
 distrk:  each k-point on    2 cores,    1 groups
 distr:  one band on NCORES_PER_BAND=   1 cores,    2 groups


--------------------------------------------------------------------------------------------------------


 INCAR:
 POTCAR:   PAW_PBE Pd 05Jan2001                   
 POTCAR:   PAW_PBE Pd 05Jan2001                   
   VRHFIN =Pd : s1 d9                                                           
   LEXCH  = PE                                                                  
   EATOM  =   809.7532 eV,   59.5152 Ry                                         
                                                                                
   TITEL  = PAW_PBE Pd 05Jan2001                                                
   LULTRA =        F    use ultrasoft PP ?                                      
   IUNSCR =        1    unscreen: 0-lin 1-nonlin 2-no                           
   RPACOR =    2.000    partial core radius                                     
   POMASS =  106.420; ZVAL   =   10.000    mass and valenz                      
   RCORE  =    2.400    outmost cutoff radius                                   
   RWIGS  =    2.710; RWIGS  =    1.434    wigner-seitz radius (au A)           
   ENMAX  =  250.925; ENMIN  =  188.194 eV                                      
   RCLOC  =    1.862    cutoff for local pot                                    
   LCOR   =        T    correct aug charges                                     
   LPAW   =        T    paw PP                                                  
   EAUG   =  416.230                                                            
   DEXC   =    -.079                                                            
   RMAX   =    2.911    core radius for proj-oper                               
   RAUG   =    1.300    factor for augmentation sphere                          
   RDEP   =    2.405    radius for radial grids                                 
   QCUT   =   -4.294; QGAM   =    8.589    optimization parameters              
                                                                                
   Description                                                                  
     l     E      TYP  RCUT    TYP  RCUT                                        
     2   .000     23  2.400                                                     
     2   .000     23  2.400                                                     
     0   .000     23  2.400                                                     
     0   .000     23  2.400                                                     
     1  -.200     23  2.400                                                     
     1   .000     23  2.400                                                     
     3   .000      7   .000                                                     
  local pseudopotential read in
  partial core-charges read in
  atomic valenz-charges read in
  non local Contribution for L=           2  read in
    real space projection operators read in
  non local Contribution for L=           2  read in
    real space projection operators read in
  non local Contribution for L=           0  read in
    real space projection operators read in
  non local Contribution for L=           0  read in
    real space projection operators read in
  non local Contribution for L=           1  read in
    real space projection operators read in
  non local Contribution for L=           1  read in
    real space projection operators read in
    PAW grid and wavefunctions read in
 
   number of l-projection  operators is LMAX  =           6
   number of lm-projection operators is LMMAX =          18
 
 PAW_PBE Pd 05Jan2001                   :
 energy of atom  1       EATOM= -809.7532
 kinetic energy error for atom=    0.0069 (will be added to EATOM!!)
 
 
 POSCAR: Pd Bulk                                 
  positions in direct lattice
  No initial velocities read in
 exchange correlation table for  LEXCH =        8
   RHO(1)=    0.500       N(1)  =     2000
   RHO(2)=  100.500       N(2)  =     4000
 


--------------------------------------------------------------------------------------------------------


 ion  position               nearest neighbor table
   1  0.000  0.000  0.000-   3 2.80   3 2.80   3 2.80
   2  0.000  0.000  0.289-   5 2.80   4 2.80   5 2.80   4 2.80   5 2.80   4 2.80
   3  0.333  0.333  0.096-   5 2.80   1 2.80   1 2.80   5 2.80   5 2.80   1 2.80
   4  0.333  0.333  0.385-   6 2.80   2 2.80   2 2.80   6 2.80   6 2.80   2 2.80
   5  0.667  0.667  0.193-   2 2.80   3 2.80   2 2.80   2 2.80   3 2.80   3 2.80
   6  0.667  0.667  0.482-   4 2.80   4 2.80   4 2.80
 
  LATTYP: Found a hexagonal cell.
 ALAT       =     2.7951855135
 C/A-ratio  =     8.4765595623
  
  Lattice vectors:
  
 A1 = (   1.3975927545,  -2.4207016643,   0.0000000000)
 A2 = (  -2.7951855129,   0.0000000000,   0.0000000000)
 A3 = (   0.0000000000,   0.0000000000, -23.6935564931)


Analysis of symmetry for initial positions (statically):
=====================================================================
 Subroutine PRICEL returns:
 Original cell was already a primitive cell.
 

 Routine SETGRP: Setting up the symmetry group for a 
 hexagonal supercell.


 Subroutine GETGRP returns: Found 12 space group operations
 (whereof  6 operations were pure point group operations)
 out of a pool of 24 trial point group operations.


The static configuration has the point symmetry C_3v.
 The point group associated with its full space group is D_3d.


Analysis of symmetry for dynamics (positions and initial velocities):
=====================================================================
 Subroutine PRICEL returns:
 Original cell was already a primitive cell.
 

 Routine SETGRP: Setting up the symmetry group for a 
 hexagonal supercell.


 Subroutine GETGRP returns: Found 12 space group operations
 (whereof  6 operations were pure point group operations)
 out of a pool of 24 trial point group operations.


The dynamic configuration has the point symmetry C_3v.
 The point group associated with its full space group is D_3d.


Analysis of constrained symmetry for selective dynamics:
=====================================================================
 Subroutine PRICEL returns:
 Original cell was already a primitive cell.
 

 Routine SETGRP: Setting up the symmetry group for a 
 hexagonal supercell.


 Subroutine GETGRP returns: Found 12 space group operations
 (whereof  6 operations were pure point group operations)
 out of a pool of 24 trial point group operations.


The constrained configuration has the point symmetry C_3v.
 The point group associated with its full space group is D_3d.


 irot  :   1
 --------------------------------------------------------------------
 isymop:   1   0   0
           0   1   0
           0   0   1

 gtrans:     0.0000000     0.0000000     0.0000000

 ptrans:     0.0000000     0.0000000     0.0000000
 rotmap:
 (   1->   1)  (   2->   2)  (   3->   3)  (   4->   4)  (   5->   5) 
 (   6->   6) 


 irot  :   2
 --------------------------------------------------------------------
 isymop:   0   1   0
          -1  -1   0
           0   0   1

 gtrans:     0.0000000     0.0000000     0.0000000

 ptrans:     0.0000000     0.0000000     0.0000000
 rotmap:
 (   1->   1)  (   2->   2)  (   3->   3)  (   4->   4)  (   5->   5) 
 (   6->   6) 


 irot  :   3
 --------------------------------------------------------------------
 isymop:  -1  -1   0
           1   0   0
           0   0   1

 gtrans:     0.0000000     0.0000000     0.0000000

 ptrans:     0.0000000     0.0000000     0.0000000
 rotmap:
 (   1->   1)  (   2->   2)  (   3->   3)  (   4->   4)  (   5->   5) 
 (   6->   6) 


 irot  :   4
 --------------------------------------------------------------------
 isymop:   0   1   0
           1   0   0
           0   0   1

 gtrans:     0.0000000     0.0000000     0.0000000

 ptrans:     0.0000000     0.0000000     0.0000000
 rotmap:
 (   1->   1)  (   2->   2)  (   3->   3)  (   4->   4)  (   5->   5) 
 (   6->   6) 


 irot  :   5
 --------------------------------------------------------------------
 isymop:  -1  -1   0
           0   1   0
           0   0   1

 gtrans:     0.0000000     0.0000000     0.0000000

 ptrans:     0.0000000     0.0000000     0.0000000
 rotmap:
 (   1->   1)  (   2->   2)  (   3->   3)  (   4->   4)  (   5->   5) 
 (   6->   6) 


 irot  :   6
 --------------------------------------------------------------------
 isymop:   1   0   0
          -1  -1   0
           0   0   1

 gtrans:     0.0000000     0.0000000     0.0000000

 ptrans:     0.0000000     0.0000000     0.0000000
 rotmap:
 (   1->   1)  (   2->   2)  (   3->   3)  (   4->   4)  (   5->   5) 
 (   6->   6) 


 irot  :   7
 --------------------------------------------------------------------
 isymop:  -1   0   0
           0  -1   0
           0   0  -1

 gtrans:    -0.3333333    -0.3333333    -0.5183797

 ptrans:     0.0000000     0.0000000     0.0000000
 rotmap:
 (   1->   6)  (   2->   5)  (   3->   4)  (   4->   3)  (   5->   2) 
 (   6->   1) 


 irot  :   8
 --------------------------------------------------------------------
 isymop:   0  -1   0
           1   1   0
           0   0  -1

 gtrans:    -0.3333333    -0.3333333    -0.5183797

 ptrans:     0.0000000     0.0000000     0.0000000
 rotmap:
 (   1->   6)  (   2->   5)  (   3->   4)  (   4->   3)  (   5->   2) 
 (   6->   1) 


 irot  :   9
 --------------------------------------------------------------------
 isymop:   1   1   0
          -1   0   0
           0   0  -1

 gtrans:    -0.3333333    -0.3333333    -0.5183797

 ptrans:     0.0000000     0.0000000     0.0000000
 rotmap:
 (   1->   6)  (   2->   5)  (   3->   4)  (   4->   3)  (   5->   2) 
 (   6->   1) 


 irot  :  10
 --------------------------------------------------------------------
 isymop:   0  -1   0
          -1   0   0
           0   0  -1

 gtrans:    -0.3333333    -0.3333333    -0.5183797

 ptrans:     0.0000000     0.0000000     0.0000000
 rotmap:
 (   1->   6)  (   2->   5)  (   3->   4)  (   4->   3)  (   5->   2) 
 (   6->   1) 


 irot  :  11
 --------------------------------------------------------------------
 isymop:   1   1   0
           0  -1   0
           0   0  -1

 gtrans:    -0.3333333    -0.3333333    -0.5183797

 ptrans:     0.0000000     0.0000000     0.0000000
 rotmap:
 (   1->   6)  (   2->   5)  (   3->   4)  (   4->   3)  (   5->   2) 
 (   6->   1) 


 irot  :  12
 --------------------------------------------------------------------
 isymop:  -1   0   0
           1   1   0
           0   0  -1

 gtrans:    -0.3333333    -0.3333333    -0.5183797

 ptrans:     0.0000000     0.0000000     0.0000000
 rotmap:
 (   1->   6)  (   2->   5)  (   3->   4)  (   4->   3)  (   5->   2) 
 (   6->   1) 
 
 
 KPOINTS: K-Points                                

Automatic generation of k-mesh.
Space group operators:
 irot       det(A)        alpha          n_x          n_y          n_z        tau_x        tau_y        tau_z
    1     1.000000     0.000000     1.000000     0.000000     0.000000     0.000000     0.000000     0.000000
    2     1.000000   120.000000     0.000000     0.000000     1.000000     0.000000     0.000000     0.000000
    3     1.000000   120.000000     0.000000     0.000000    -1.000000     0.000000     0.000000     0.000000
    4    -1.000000   180.000000     0.500000    -0.866025     0.000000     0.000000     0.000000     0.000000
    5    -1.000000   180.000000     1.000000     0.000000     0.000000     0.000000     0.000000     0.000000
    6    -1.000000   179.999999    -0.500000    -0.866025     0.000000     0.000000     0.000000     0.000000
    7    -1.000000     0.000000     1.000000     0.000000     0.000000    -0.333333    -0.333333    -0.518380
    8    -1.000000   120.000000     0.000000     0.000000     1.000000    -0.333333    -0.333333    -0.518380
    9    -1.000000   120.000000     0.000000     0.000000    -1.000000    -0.333333    -0.333333    -0.518380
   10     1.000000   180.000000     0.500000    -0.866025     0.000000    -0.333333    -0.333333    -0.518380
   11     1.000000   180.000000     1.000000     0.000000     0.000000    -0.333333    -0.333333    -0.518380
   12     1.000000   179.999999    -0.500000    -0.866025     0.000000    -0.333333    -0.333333    -0.518380
 
 Subroutine IBZKPT returns following result:
 ===========================================
 
 Found      8 irreducible k-points:
 
 Following reciprocal coordinates:
            Coordinates               Weight
  0.000000  0.000000  0.000000      1.000000
  0.142857  0.000000  0.000000      6.000000
  0.285714  0.000000  0.000000      6.000000
  0.428571  0.000000  0.000000      6.000000
  0.285714  0.142857  0.000000      6.000000
  0.428571  0.142857  0.000000     12.000000
 -0.428571  0.142857  0.000000      6.000000
 -0.428571  0.285714  0.000000      6.000000
 
 Following cartesian coordinates:
            Coordinates               Weight
  0.000000  0.000000  0.000000      1.000000
  0.051108 -0.029507  0.000000      6.000000
  0.102217 -0.059015  0.000000      6.000000
  0.153325 -0.088522  0.000000      6.000000
  0.102217  0.000000  0.000000      6.000000
  0.153325 -0.029507  0.000000     12.000000
 -0.153325  0.147537  0.000000      6.000000
 -0.153325  0.206552  0.000000      6.000000
 
 TETIRR: Found     28 inequivalent tetrahedra from      294


--------------------------------------------------------------------------------------------------------




 Dimension of arrays:
   k-points           NKPTS =      8   k-points in BZ     NKDIM =      8   number of bands    NBANDS=     36
   number of dos      NEDOS =    301   number of ions     NIONS =      6
   non local maximal  LDIM  =      6   non local SUM 2l+1 LMDIM =     18
   total plane-waves  NPLWV =  23520
   max r-space proj   IRMAX =      1   max aug-charges    IRDMAX=   7315
   dimension x,y,z NGX =    14 NGY =   14 NGZ =  120
   dimension x,y,z NGXF=    28 NGYF=   28 NGZF=  240
   support grid    NGXF=    28 NGYF=   28 NGZF=  240
   ions per type =               6
 NGX,Y,Z   is equivalent  to a cutoff of   8.33,  8.33,  8.42 a.u.
 NGXF,Y,Z  is equivalent  to a cutoff of  16.65, 16.65, 16.84 a.u.


 I would recommend the setting:
   dimension x,y,z NGX =    14 NGY =   14 NGZ =  118
 SYSTEM =  unknown system                          
 POSCAR =  Pd Bulk                                 

 Startparameter for this run:
   NWRITE =      2    write-flag & timer
   PREC   = normal    normal or accurate (medium, high low for compatibility)
   ISTART =      0    job   : 0-new  1-cont  2-samecut
   ICHARG =      2    charge: 1-file 2-atom 10-const
   ISPIN  =      1    spin polarized calculation?
   LNONCOLLINEAR =      F non collinear calculations
   LSORBIT =      F    spin-orbit coupling
   INIWAV =      1    electr: 0-lowe 1-rand  2-diag
   LASPH  =      F    aspherical Exc in radial PAW
   METAGGA=      F    non-selfconsistent MetaGGA calc.

 Electronic Relaxation 1
   ENCUT  =  415.0 eV  30.50 Ry    5.52 a.u.   4.64  4.64 39.36*2*pi/ulx,y,z
   ENINI  =  415.0     initial cutoff
   ENAUG  =  416.2 eV  augmentation charge cutoff
   NELM   =    101;   NELMIN=  2; NELMDL= -5     # of ELM steps 
   EDIFF  = 0.1E-05   stopping-criterion for ELM
   LREAL  =      F    real-space projection
   NLSPLINE    = F    spline interpolate recip. space projectors
   LCOMPAT=      F    compatible to vasp.4.4
   GGA_COMPAT  = T    GGA compatible to vasp.4.4-vasp.4.6
   LMAXPAW     = -100 max onsite density
   LMAXMIX     =    2 max onsite mixed and CHGCAR
   VOSKOWN=      0    Vosko Wilk Nusair interpolation
   ROPT   =    0.00000
 Ionic relaxation
   EDIFFG = -.1E-01   stopping-criterion for IOM
   NSW    =    101    number of steps for IOM
   NBLOCK =      1;   KBLOCK =    101    inner block; outer block 
   IBRION =      2    ionic relax: 0-MD 1-quasi-New 2-CG
   NFREE  =      1    steps in history (QN), initial steepest desc. (CG)
   ISIF   =      2    stress and relaxation
   IWAVPR =     11    prediction:  0-non 1-charg 2-wave 3-comb
   ISYM   =      2    0-nonsym 1-usesym 2-fastsym
   LCORR  =      T    Harris-Foulkes like correction to forces

   POTIM  = 0.0500    time-step for ionic-motion
   TEIN   =    0.0    initial temperature
   TEBEG  =    0.0;   TEEND  =   0.0 temperature during run
   SMASS  =  -3.00    Nose mass-parameter (am)
   estimated Nose-frequenzy (Omega)   =  0.10E-29 period in steps =****** mass=  -0.179E-27a.u.
   SCALEE = 1.0000    scale energy and forces
   NPACO  =    256;   APACO  = 16.0  distance and # of slots for P.C.
   PSTRESS=    0.0 pullay stress

  Mass of Ions in am
   POMASS = 106.42
  Ionic Valenz
   ZVAL   =  10.00
  Atomic Wigner-Seitz radii
   RWIGS  =  -1.00
  virtual crystal weights 
   VCA    =   1.00
   NELECT =      60.0000    total number of electrons
   NUPDOWN=      -1.0000    fix difference up-down

 DOS related values:
   EMIN   =  10.00;   EMAX   =-10.00  energy-range for DOS
   EFERMI =   0.00
   ISMEAR =    -5;   SIGMA  =   0.20  broadening in eV -4-tet -1-fermi 0-gaus

 Electronic relaxation 2 (details)
   IALGO  =     38    algorithm
   LDIAG  =      T    sub-space diagonalisation (order eigenvalues)
   LSUBROT=      T    optimize rotation matrix (better conditioning)
   TURBO    =      0    0=normal 1=particle mesh
   IRESTART =      0    0=no restart 2=restart with 2 vectors
   NREBOOT  =      0    no. of reboots
   NMIN     =      0    reboot dimension
   EREF     =   0.00    reference energy to select bands
   IMIX   =      4    mixing-type and parameters
     AMIX     =   0.40;   BMIX     =  1.00
     AMIX_MAG =   1.60;   BMIX_MAG =  1.00
     AMIN     =   0.10
     WC   =   100.;   INIMIX=   1;  MIXPRE=   1;  MAXMIX= -45

 Intra band minimization:
   WEIMIN = 0.0010     energy-eigenvalue tresh-hold
   EBREAK =  0.69E-08  absolut break condition
   DEPER  =   0.30     relativ break condition  

   TIME   =   0.40     timestep for ELM

  volume/ion in A,a.u.               =      26.72       180.31
  Fermi-wavevector in a.u.,A,eV,Ry     =   1.179771  2.229445 18.937412  1.391861
  Thomas-Fermi vector in A             =   2.316076
 
 Write flags
   LWAVE  =      T    write WAVECAR
   LCHARG =      T    write CHGCAR
   LVTOT  =      F    write LOCPOT, total local potential
   LVHAR  =      F    write LOCPOT, Hartree potential only
   LELF   =      F    write electronic localiz. function (ELF)
   LORBIT =      0    0 simple, 1 ext, 2 COOP (PROOUT)


 Dipole corrections
   LMONO  =      F    monopole corrections only (constant potential shift)
   LDIPOL =      F    correct potential (dipole corrections)
   IDIPOL =      0    1-x, 2-y, 3-z, 4-all directions 
   EPSILON=  1.0000000 bulk dielectric constant

 Exchange correlation treatment:
   GGA     =    PE    GGA type
   LEXCH   =     8    internal setting for exchange type
   VOSKOWN=      0    Vosko Wilk Nusair interpolation
   LHFCALC =     F    Hartree Fock is set to
   LHFONE  =     F    Hartree Fock one center treatment
   AEXX    =    0.0000 exact exchange contribution

 Linear response parameters
   LEPSILON=     F    determine dielectric tensor
   LRPA    =     F    only Hartree local field effects (RPA)
   LNABLA  =     F    use nabla operator in PAW spheres
   LVEL    =     F    velocity operator in full k-point grid
   LINTERFAST=   F  fast interpolation
   KINTER  =     0    interpolate to denser k-point grid
   CSHIFT  =0.1000    complex shift for real part using Kramers Kronig
   OMEGAMAX=  -1.0    maximum frequency
   DEG_THRESHOLD= 0.2000000E-02 threshold for treating states as degnerate
   RTIME   =    0.100 relaxation time in fs

 Orbital magnetization related:
   ORBITALMAG=     F  switch on orbital magnetization
   LCHIMAG   =     F  perturbation theory with respect to B field
   DQ        =  0.001000  dq finite difference perturbation B field



--------------------------------------------------------------------------------------------------------


 conjugate gradient relaxation of ions
   using selective dynamics as specified on POSCAR
 charge density and potential will be updated during run
 non-spin polarized calculation
 Variant of blocked Davidson
 Davidson routine will perform the subspace rotation
 perform sub-space diagonalisation
    after iterative eigenvector-optimisation
 modified Broyden-mixing scheme, WC =      100.0
 initial mixing is a Kerker type mixing with AMIX =  0.4000 and BMIX =      1.0000
 Hartree-type preconditioning will be used
 using additional bands            6
 reciprocal scheme for non local part
 use partial core corrections
 calculate Harris-corrections to forces 
   (improved forces if not selfconsistent)
 use gradient corrections 
 use of overlap-Matrix (Vanderbilt PP)
 Fermi weights with tetrahedron method with Bloechl corrections


--------------------------------------------------------------------------------------------------------


  energy-cutoff  :      415.00
  volume of cell :      160.32
      direct lattice vectors                 reciprocal lattice vectors
     2.795185513  0.000000000  0.000000000     0.357758008 -0.206551682  0.000000000
     1.397592758  2.420701664  0.000000000     0.000000000  0.413103364  0.000000000
     0.000000000  0.000000000 23.693556493     0.000000000  0.000000000  0.042205568

  length of vectors
     2.795185513  2.795185515 23.693556493     0.413103364  0.413103364  0.042205568


 
 k-points in units of 2pi/SCALE and weight: K-Points                                
   0.00000000  0.00000000  0.00000000       0.020
   0.05110829 -0.02950738  0.00000000       0.122
   0.10221657 -0.05901477  0.00000000       0.122
   0.15332486 -0.08852215  0.00000000       0.122
   0.10221657  0.00000000  0.00000000       0.122
   0.15332486 -0.02950738  0.00000000       0.245
  -0.15332486  0.14753692  0.00000000       0.122
  -0.15332486  0.20655168  0.00000000       0.122
 
 k-points in reciprocal lattice and weights: K-Points                                
   0.00000000  0.00000000  0.00000000       0.020
   0.14285714  0.00000000  0.00000000       0.122
   0.28571429  0.00000000  0.00000000       0.122
   0.42857143  0.00000000  0.00000000       0.122
   0.28571429  0.14285714  0.00000000       0.122
   0.42857143  0.14285714  0.00000000       0.245
  -0.42857143  0.14285714  0.00000000       0.122
  -0.42857143  0.28571429  0.00000000       0.122
 
 position of ions in fractional coordinates (direct lattice) 
   0.00000000  0.00000000  0.00000000
   0.00000000  0.00000000  0.28897216
   0.33333333  0.33333333  0.09632405
   0.33333333  0.33333333  0.38529622
   0.66666667  0.66666667  0.19264811
   0.66666667  0.66666667  0.48162027
 
 position of ions in cartesian coordinates  (Angst):
   0.00000000  0.00000000  0.00000000
   0.00000000  0.00000000  6.84677825
   1.39759276  0.80690055  2.28225942
   1.39759276  0.80690055  9.12903766
   2.79518551  1.61380111  4.56451883
   2.79518551  1.61380111 11.41129708
 


--------------------------------------------------------------------------------------------------------


 k-point  1 :   0.0000 0.0000 0.0000  plane waves:    3115
 k-point  2 :   0.1429 0.0000 0.0000  plane waves:    3096
 k-point  3 :   0.2857 0.0000 0.0000  plane waves:    3096
 k-point  4 :   0.4286 0.0000 0.0000  plane waves:    3070
 k-point  5 :   0.2857 0.1429 0.0000  plane waves:    3105
 k-point  6 :   0.4286 0.1429 0.0000  plane waves:    3074
 k-point  7 :  -0.4286 0.1429 0.0000  plane waves:    3068
 k-point  8 :  -0.4286 0.2857 0.0000  plane waves:    3033

 maximum and minimum number of plane-waves per node :      3115     3033

 maximum number of plane-waves:      3115
 maximum index in each direction: 
   IXMAX=    5   IYMAX=    4   IZMAX=   39
   IXMIN=   -5   IYMIN=   -4   IZMIN=  -39

 WARNING: aliasing errors must be expected set NGX to  22 to avoid them
 WARNING: aliasing errors must be expected set NGY to  18 to avoid them
 WARNING: aliasing errors must be expected set NGZ to 158 to avoid them
 aliasing errors are usually negligible using standard VASP settings
 and one can safely disregard these warnings

 serial   3D FFT for wavefunctions
 parallel 3D FFT for charge:
    minimum data exchange during FFTs selected (reduces bandwidth)


 total amount of memory used by VASP on root node    56174. kBytes
========================================================================

   base      :      30000. kBytes
   nonl-proj :       3888. kBytes
   fftplans  :       6486. kBytes
   grid      :       8279. kBytes
   one-center:         93. kBytes
   wavefun   :       7428. kBytes
 
 Broyden mixing: mesh for mixing (old mesh)
   NGX =  9   NGY =  9   NGZ = 79
  (NGX  = 28   NGY  = 28   NGZ  =240)
  gives a total of   6399 points

 initial charge density was supplied:
 charge density of overlapping atoms calculated
 number of electron      60.0000000 magnetization 
 keeping initial charge density in first step


--------------------------------------------------------------------------------------------------------


 Maximum index for augmentation-charges         3470 (set IRDMAX)


--------------------------------------------------------------------------------------------------------


 First call to EWALD:  gamma=   0.326
 Maximum number of real-space cells 6x 6x 1
 Maximum number of reciprocal cells 2x 2x10

 FEWALD executed in parallel
    FEWALD:  cpu time    0.00: real time    0.00


----------------------------------------- Iteration    1(   1)  ---------------------------------------


    POTLOK:  cpu time    0.11: real time    0.11
    SETDIJ:  cpu time    0.01: real time    0.01
     EDDAV:  cpu time    1.19: real time    1.20
 BZINTS: Fermi energy: 13.675497; 60.000000 electrons
         Band energy: 418.449737;  BLOECHL correction: -0.072279
       DOS:  cpu time    0.00: real time    0.01
    --------------------------------------------
      LOOP:  cpu time    1.31: real time    1.34

 eigenvalue-minimisations  :   576
 total energy-change (2. order) : 0.5060610E+03  (-0.2477133E+04)
 number of electron      60.0000000 magnetization 
 augmentation part       60.0000000 magnetization 

 Free energy of the ion-electron system (eV)
  ---------------------------------------------------
  alpha Z        PSCENC =       305.72458370
  Ewald energy   TEWEN  =     12568.34383291
  -1/2 Hartree   DENC   =    -17841.60391729
  -exchange  EXHF       =         0.00000000
  -V(xc)+E(xc)   XCENC  =      -176.66212509
  PAW double counting   =      4062.15167305    -3688.82029019
  entropy T*S    EENTRO =         0.00000000
  eigenvalues    EBANDS =       418.44973736
  atomic energy  EATOM  =      4858.47751158
  ---------------------------------------------------
  free energy    TOTEN  =       506.06100604 eV

  energy without entropy =      506.06100604  energy(sigma->0) =      506.06100604


--------------------------------------------------------------------------------------------------------




----------------------------------------- Iteration    1(   2)  ---------------------------------------


     EDDAV:  cpu time    1.19: real time    1.20
 BZINTS: Fermi energy:  1.814213; 60.000000 electrons
         Band energy: -87.575802;  BLOECHL correction: -0.071225
       DOS:  cpu time    0.00: real time    0.00
    --------------------------------------------
      LOOP:  cpu time    1.20: real time    1.21

 eigenvalue-minimisations  :   592
 total energy-change (2. order) :-0.5060255E+03  (-0.4832139E+03)
 number of electron      60.0000000 magnetization 
 augmentation part       60.0000000 magnetization 

 Free energy of the ion-electron system (eV)
  ---------------------------------------------------
  alpha Z        PSCENC =       305.72458370
  Ewald energy   TEWEN  =     12568.34383291
  -1/2 Hartree   DENC   =    -17841.60391729
  -exchange  EXHF       =         0.00000000
  -V(xc)+E(xc)   XCENC  =      -176.66212509
  PAW double counting   =      4062.15167305    -3688.82029019
  entropy T*S    EENTRO =         0.00000000
  eigenvalues    EBANDS =       -87.57580217
  atomic energy  EATOM  =      4858.47751158
  ---------------------------------------------------
  free energy    TOTEN  =         0.03546650 eV

  energy without entropy =        0.03546650  energy(sigma->0) =        0.03546650


--------------------------------------------------------------------------------------------------------




----------------------------------------- Iteration    1(   3)  ---------------------------------------


     EDDAV:  cpu time    1.30: real time    1.31
 BZINTS: Fermi energy:  0.557644; 60.000000 electrons
         Band energy:-117.526856;  BLOECHL correction: -0.231122
       DOS:  cpu time    0.00: real time    0.00
    --------------------------------------------
      LOOP:  cpu time    1.31: real time    1.32

 eigenvalue-minimisations  :   660
 total energy-change (2. order) :-0.2995105E+02  (-0.2710498E+02)
 number of electron      60.0000000 magnetization 
 augmentation part       60.0000000 magnetization 

 Free energy of the ion-electron system (eV)
  ---------------------------------------------------
  alpha Z        PSCENC =       305.72458370
  Ewald energy   TEWEN  =     12568.34383291
  -1/2 Hartree   DENC   =    -17841.60391729
  -exchange  EXHF       =         0.00000000
  -V(xc)+E(xc)   XCENC  =      -176.66212509
  PAW double counting   =      4062.15167305    -3688.82029019
  entropy T*S    EENTRO =         0.00000000
  eigenvalues    EBANDS =      -117.52685589
  atomic energy  EATOM  =      4858.47751158
  ---------------------------------------------------
  free energy    TOTEN  =       -29.91558721 eV

  energy without entropy =      -29.91558721  energy(sigma->0) =      -29.91558721


--------------------------------------------------------------------------------------------------------




----------------------------------------- Iteration    1(   4)  ---------------------------------------


     EDDAV:  cpu time    1.28: real time    1.29
 BZINTS: Fermi energy:  0.497799; 60.000000 electrons
         Band energy:-119.026833;  BLOECHL correction: -0.268757
       DOS:  cpu time    0.00: real time    0.00
    --------------------------------------------
      LOOP:  cpu time    1.28: real time    1.30

 eigenvalue-minimisations  :   648
 total energy-change (2. order) :-0.1499977E+01  (-0.1442614E+01)
 number of electron      60.0000000 magnetization 
 augmentation part       60.0000000 magnetization 

 Free energy of the ion-electron system (eV)
  ---------------------------------------------------
  alpha Z        PSCENC =       305.72458370
  Ewald energy   TEWEN  =     12568.34383291
  -1/2 Hartree   DENC   =    -17841.60391729
  -exchange  EXHF       =         0.00000000
  -V(xc)+E(xc)   XCENC  =      -176.66212509
  PAW double counting   =      4062.15167305    -3688.82029019
  entropy T*S    EENTRO =         0.00000000
  eigenvalues    EBANDS =      -119.02683279
  atomic energy  EATOM  =      4858.47751158
  ---------------------------------------------------
  free energy    TOTEN  =       -31.41556412 eV

  energy without entropy =      -31.41556412  energy(sigma->0) =      -31.41556412


--------------------------------------------------------------------------------------------------------




----------------------------------------- Iteration    1(   5)  ---------------------------------------


     EDDAV:  cpu time    1.39: real time    1.40
 BZINTS: Fermi energy:  0.496177; 60.000000 electrons
         Band energy:-119.080074;  BLOECHL correction: -0.269621
       DOS:  cpu time    0.00: real time    0.00
    CHARGE:  cpu time    0.09: real time    0.09
    MIXING:  cpu time    0.00: real time    0.00
    --------------------------------------------
      LOOP:  cpu time    1.49: real time    1.51

 eigenvalue-minimisations  :   728
 total energy-change (2. order) :-0.5324128E-01  (-0.5210531E-01)
 number of electron      60.0000010 magnetization 
 augmentation part       24.3788549 magnetization 

 Broyden mixing:
  rms(total) = 0.71691E+00    rms(broyden)= 0.71682E+00
  rms(prec ) = 0.77375E+00
  weight for this iteration     100.00

 Free energy of the ion-electron system (eV)
  ---------------------------------------------------
  alpha Z        PSCENC =       305.72458370
  Ewald energy   TEWEN  =     12568.34383291
  -1/2 Hartree   DENC   =    -17841.60391729
  -exchange  EXHF       =         0.00000000
  -V(xc)+E(xc)   XCENC  =      -176.66212509
  PAW double counting   =      4062.15167305    -3688.82029019
  entropy T*S    EENTRO =         0.00000000
  eigenvalues    EBANDS =      -119.08007407
  atomic energy  EATOM  =      4858.47751158
  ---------------------------------------------------
  free energy    TOTEN  =       -31.46880540 eV

  energy without entropy =      -31.46880540  energy(sigma->0) =      -31.46880540


--------------------------------------------------------------------------------------------------------




----------------------------------------- Iteration    1(   6)  ---------------------------------------


    POTLOK:  cpu time    0.10: real time    0.10
    SETDIJ:  cpu time    0.01: real time    0.01
     EDDAV:  cpu time    1.26: real time    1.27
 BZINTS: Fermi energy:  0.130358; 60.000000 electrons
         Band energy:-132.807741;  BLOECHL correction: -0.246349
       DOS:  cpu time    0.00: real time    0.00
    CHARGE:  cpu time    0.09: real time    0.09
    MIXING:  cpu time    0.01: real time    0.00
    --------------------------------------------
      LOOP:  cpu time    1.48: real time    1.50

 eigenvalue-minimisations  :   640
 total energy-change (2. order) : 0.1111410E+01  (-0.6742620E+00)
 number of electron      60.0000011 magnetization 
 augmentation part       25.3228830 magnetization 

 Broyden mixing:
  rms(total) = 0.45023E+00    rms(broyden)= 0.45018E+00
  rms(prec ) = 0.64379E+00
  weight for this iteration     100.00

 eigenvalues of (default mixing * dielectric matrix)
  average eigenvalue GAMMA=   0.8046
  0.8046

 Free energy of the ion-electron system (eV)
  ---------------------------------------------------
  alpha Z        PSCENC =       305.72458370
  Ewald energy   TEWEN  =     12568.34383291
  -1/2 Hartree   DENC   =    -17820.65868685
  -exchange  EXHF       =         0.00000000
  -V(xc)+E(xc)   XCENC  =      -177.85332222
  PAW double counting   =      4044.99697220    -3676.58054610
  entropy T*S    EENTRO =         0.00000000
  eigenvalues    EBANDS =      -132.80774083
  atomic energy  EATOM  =      4858.47751158
  ---------------------------------------------------
  free energy    TOTEN  =       -30.35739561 eV

  energy without entropy =      -30.35739561  energy(sigma->0) =      -30.35739561


--------------------------------------------------------------------------------------------------------




----------------------------------------- Iteration    1(   7)  ---------------------------------------


    POTLOK:  cpu time    0.10: real time    0.10
    SETDIJ:  cpu time    0.01: real time    0.01
     EDDAV:  cpu time    1.61: real time    1.62
 BZINTS: Fermi energy:  0.221894; 60.000000 electrons
         Band energy:-166.459614;  BLOECHL correction: -0.173588
       DOS:  cpu time    0.00: real time    0.00
    CHARGE:  cpu time    0.08: real time    0.09
    MIXING:  cpu time    0.00: real time    0.00
    --------------------------------------------
      LOOP:  cpu time    1.82: real time    1.84

 eigenvalue-minimisations  :   872
 total energy-change (2. order) :-0.3099781E+01  (-0.1836902E+01)
 number of electron      60.0000004 magnetization 
 augmentation part       25.2638182 magnetization 

 Broyden mixing:
  rms(total) = 0.12894E+01    rms(broyden)= 0.12893E+01
  rms(prec ) = 0.20047E+01
  weight for this iteration     100.00

 eigenvalues of (default mixing * dielectric matrix)
  average eigenvalue GAMMA=   0.6268
  1.1046  0.1490

 Free energy of the ion-electron system (eV)
  ---------------------------------------------------
  alpha Z        PSCENC =       305.72458370
  Ewald energy   TEWEN  =     12568.34383291
  -1/2 Hartree   DENC   =    -17788.98814667
  -exchange  EXHF       =         0.00000000
  -V(xc)+E(xc)   XCENC  =      -177.88474640
  PAW double counting   =      4068.39183254    -3701.06243074
  entropy T*S    EENTRO =         0.00000000
  eigenvalues    EBANDS =      -166.45961362
  atomic energy  EATOM  =      4858.47751158
  ---------------------------------------------------
  free energy    TOTEN  =       -33.45717671 eV

  energy without entropy =      -33.45717671  energy(sigma->0) =      -33.45717671


--------------------------------------------------------------------------------------------------------




----------------------------------------- Iteration    1(   8)  ---------------------------------------


    POTLOK:  cpu time    0.10: real time    0.10
    SETDIJ:  cpu time    0.01: real time    0.01
     EDDAV:  cpu time    1.80: real time    1.81
 BZINTS: Fermi energy:  0.061796; 60.000000 electrons
         Band energy:-133.514258;  BLOECHL correction: -0.287019
       DOS:  cpu time    0.00: real time    0.00
    CHARGE:  cpu time    0.09: real time    0.09
    MIXING:  cpu time    0.00: real time    0.01
    --------------------------------------------
      LOOP:  cpu time    2.00: real time    2.03

 eigenvalue-minimisations  :   992
 total energy-change (2. order) : 0.3300262E+01  (-0.8004046E+00)
 number of electron      60.0000009 magnetization 
 augmentation part       25.4261735 magnetization 

 Broyden mixing:
  rms(total) = 0.22557E+00    rms(broyden)= 0.22538E+00
  rms(prec ) = 0.29241E+00
  weight for this iteration     100.00

 eigenvalues of (default mixing * dielectric matrix)
  average eigenvalue GAMMA=   0.4763
  1.1076  0.1743  0.1471

 Free energy of the ion-electron system (eV)
  ---------------------------------------------------
  alpha Z        PSCENC =       305.72458370
  Ewald energy   TEWEN  =     12568.34383291
  -1/2 Hartree   DENC   =    -17817.24024664
  -exchange  EXHF       =         0.00000000
  -V(xc)+E(xc)   XCENC  =      -177.98759313
  PAW double counting   =      4090.32303325    -3724.28377760
  entropy T*S    EENTRO =         0.00000000
  eigenvalues    EBANDS =      -133.51425839
  atomic energy  EATOM  =      4858.47751158
  ---------------------------------------------------
  free energy    TOTEN  =       -30.15691431 eV

  energy without entropy =      -30.15691431  energy(sigma->0) =      -30.15691431


--------------------------------------------------------------------------------------------------------




----------------------------------------- Iteration    1(   9)  ---------------------------------------


    POTLOK:  cpu time    0.10: real time    0.10
    SETDIJ:  cpu time    0.01: real time    0.01
     EDDAV:  cpu time    1.42: real time    1.43
 BZINTS: Fermi energy:  0.048254; 60.000000 electrons
         Band energy:-132.689607;  BLOECHL correction: -0.272457
       DOS:  cpu time    0.00: real time    0.00
    CHARGE:  cpu time    0.09: real time    0.09
    MIXING:  cpu time    0.01: real time    0.01
    --------------------------------------------
      LOOP:  cpu time    1.63: real time    1.64

 eigenvalue-minimisations  :   740
 total energy-change (2. order) : 0.3433639E-01  (-0.4003758E-01)
 number of electron      60.0000009 magnetization 
 augmentation part       25.4359005 magnetization 

 Broyden mixing:
  rms(total) = 0.12940E+00    rms(broyden)= 0.12936E+00
  rms(prec ) = 0.14819E+00
  weight for this iteration     100.00

 eigenvalues of (default mixing * dielectric matrix)
  average eigenvalue GAMMA=   0.4609
  1.1177  0.3516  0.1527  0.2218

 Free energy of the ion-electron system (eV)
  ---------------------------------------------------
  alpha Z        PSCENC =       305.72458370
  Ewald energy   TEWEN  =     12568.34383291
  -1/2 Hartree   DENC   =    -17817.91588468
  -exchange  EXHF       =         0.00000000
  -V(xc)+E(xc)   XCENC  =      -177.98277453
  PAW double counting   =      4095.10317096    -3729.18341066
  entropy T*S    EENTRO =         0.00000000
  eigenvalues    EBANDS =      -132.68960720
  atomic energy  EATOM  =      4858.47751158
  ---------------------------------------------------
  free energy    TOTEN  =       -30.12257792 eV

  energy without entropy =      -30.12257792  energy(sigma->0) =      -30.12257792


--------------------------------------------------------------------------------------------------------




----------------------------------------- Iteration    1(  10)  ---------------------------------------


    POTLOK:  cpu time    0.10: real time    0.10
    SETDIJ:  cpu time    0.01: real time    0.01
     EDDAV:  cpu time    1.34: real time    1.34
 BZINTS: Fermi energy:  0.085023; 60.000000 electrons
         Band energy:-131.185449;  BLOECHL correction: -0.279998
       DOS:  cpu time    0.00: real time    0.00
    CHARGE:  cpu time    0.09: real time    0.09
    MIXING:  cpu time    0.01: real time    0.01
    --------------------------------------------
      LOOP:  cpu time    1.55: real time    1.56

 eigenvalue-minimisations  :   692
 total energy-change (2. order) :-0.1774443E-02  (-0.6922395E-02)
 number of electron      60.0000009 magnetization 
 augmentation part       25.4216574 magnetization 

 Broyden mixing:
  rms(total) = 0.12015E+00    rms(broyden)= 0.12014E+00
  rms(prec ) = 0.15528E+00
  weight for this iteration     100.00

 eigenvalues of (default mixing * dielectric matrix)
  average eigenvalue GAMMA=   0.9142
  2.3669  1.0045  0.8970  0.1512  0.1512

 Free energy of the ion-electron system (eV)
  ---------------------------------------------------
  alpha Z        PSCENC =       305.72458370
  Ewald energy   TEWEN  =     12568.34383291
  -1/2 Hartree   DENC   =    -17819.13624008
  -exchange  EXHF       =         0.00000000
  -V(xc)+E(xc)   XCENC  =      -177.97201034
  PAW double counting   =      4107.65506117    -3742.03164200
  entropy T*S    EENTRO =         0.00000000
  eigenvalues    EBANDS =      -131.18544930
  atomic energy  EATOM  =      4858.47751158
  ---------------------------------------------------
  free energy    TOTEN  =       -30.12435236 eV

  energy without entropy =      -30.12435236  energy(sigma->0) =      -30.12435236


--------------------------------------------------------------------------------------------------------




----------------------------------------- Iteration    1(  11)  ---------------------------------------


    POTLOK:  cpu time    0.10: real time    0.11
    SETDIJ:  cpu time    0.02: real time    0.01
     EDDAV:  cpu time    1.44: real time    1.45
 BZINTS: Fermi energy:  0.240369; 60.000000 electrons
         Band energy:-121.910173;  BLOECHL correction: -0.275068
       DOS:  cpu time    0.00: real time    0.00
    CHARGE:  cpu time    0.09: real time    0.09
    MIXING:  cpu time    0.01: real time    0.01
    --------------------------------------------
      LOOP:  cpu time    1.66: real time    1.68

 eigenvalue-minimisations  :   752
 total energy-change (2. order) : 0.1247185E-01  (-0.2413513E-01)
 number of electron      60.0000010 magnetization 
 augmentation part       25.3713263 magnetization 

 Broyden mixing:
  rms(total) = 0.11997E+00    rms(broyden)= 0.11991E+00
  rms(prec ) = 0.17484E+00
  weight for this iteration     100.00

 eigenvalues of (default mixing * dielectric matrix)
  average eigenvalue GAMMA=   0.8469
  2.5283  0.9496  0.7785  0.5248  0.1502  0.1502

 Free energy of the ion-electron system (eV)
  ---------------------------------------------------
  alpha Z        PSCENC =       305.72458370
  Ewald energy   TEWEN  =     12568.34383291
  -1/2 Hartree   DENC   =    -17827.17032391
  -exchange  EXHF       =         0.00000000
  -V(xc)+E(xc)   XCENC  =      -177.93827324
  PAW double counting   =      4156.00688305    -3791.64592123
  entropy T*S    EENTRO =         0.00000000
  eigenvalues    EBANDS =      -121.91017337
  atomic energy  EATOM  =      4858.47751158
  ---------------------------------------------------
  free energy    TOTEN  =       -30.11188052 eV

  energy without entropy =      -30.11188052  energy(sigma->0) =      -30.11188052


--------------------------------------------------------------------------------------------------------




----------------------------------------- Iteration    1(  12)  ---------------------------------------


    POTLOK:  cpu time    0.10: real time    0.10
    SETDIJ:  cpu time    0.01: real time    0.01
     EDDAV:  cpu time    1.36: real time    1.37
 BZINTS: Fermi energy:  0.221238; 60.000000 electrons
         Band energy:-122.796949;  BLOECHL correction: -0.276083
       DOS:  cpu time    0.00: real time    0.00
    CHARGE:  cpu time    0.09: real time    0.09
    MIXING:  cpu time    0.01: real time    0.01
    --------------------------------------------
      LOOP:  cpu time    1.58: real time    1.60

 eigenvalue-minimisations  :   696
 total energy-change (2. order) : 0.1039114E-01  (-0.5148761E-02)
 number of electron      60.0000009 magnetization 
 augmentation part       25.3822894 magnetization 

 Broyden mixing:
  rms(total) = 0.28389E-01    rms(broyden)= 0.28368E-01
  rms(prec ) = 0.35811E-01
  weight for this iteration     100.00

 eigenvalues of (default mixing * dielectric matrix)
  average eigenvalue GAMMA=   0.8663
  2.5021  0.8997  0.8997  0.7309  0.7309  0.1503  0.1503

 Free energy of the ion-electron system (eV)
  ---------------------------------------------------
  alpha Z        PSCENC =       305.72458370
  Ewald energy   TEWEN  =     12568.34383291
  -1/2 Hartree   DENC   =    -17826.15670214
  -exchange  EXHF       =         0.00000000
  -V(xc)+E(xc)   XCENC  =      -177.95610235
  PAW double counting   =      4156.18198051    -3791.91964431
  entropy T*S    EENTRO =         0.00000000
  eigenvalues    EBANDS =      -122.79694928
  atomic energy  EATOM  =      4858.47751158
  ---------------------------------------------------
  free energy    TOTEN  =       -30.10148938 eV

  energy without entropy =      -30.10148938  energy(sigma->0) =      -30.10148938


--------------------------------------------------------------------------------------------------------




----------------------------------------- Iteration    1(  13)  ---------------------------------------


    POTLOK:  cpu time    0.10: real time    0.10
    SETDIJ:  cpu time    0.01: real time    0.01
     EDDAV:  cpu time    1.33: real time    1.34
 BZINTS: Fermi energy:  0.227485; 60.000000 electrons
         Band energy:-122.255126;  BLOECHL correction: -0.276452
       DOS:  cpu time    0.00: real time    0.00
    CHARGE:  cpu time    0.09: real time    0.09
    MIXING:  cpu time    0.00: real time    0.01
    --------------------------------------------
      LOOP:  cpu time    1.54: real time    1.56

 eigenvalue-minimisations  :   676
 total energy-change (2. order) : 0.6942559E-03  (-0.2778702E-03)
 number of electron      60.0000009 magnetization 
 augmentation part       25.3986545 magnetization 

 Broyden mixing:
  rms(total) = 0.28239E-01    rms(broyden)= 0.28239E-01
  rms(prec ) = 0.40462E-01
  weight for this iteration     100.00

 eigenvalues of (default mixing * dielectric matrix)
  average eigenvalue GAMMA=   0.9738
  2.5132  1.3928  1.1257  1.1257  0.6662  0.6662  0.1503  0.1503

 Free energy of the ion-electron system (eV)
  ---------------------------------------------------
  alpha Z        PSCENC =       305.72458370
  Ewald energy   TEWEN  =     12568.34383291
  -1/2 Hartree   DENC   =    -17826.69767854
  -exchange  EXHF       =         0.00000000
  -V(xc)+E(xc)   XCENC  =      -177.96907291
  PAW double counting   =      4155.01213898    -3790.73698450
  entropy T*S    EENTRO =         0.00000000
  eigenvalues    EBANDS =      -122.25512634
  atomic energy  EATOM  =      4858.47751158
  ---------------------------------------------------
  free energy    TOTEN  =       -30.10079512 eV

  energy without entropy =      -30.10079512  energy(sigma->0) =      -30.10079512


--------------------------------------------------------------------------------------------------------




----------------------------------------- Iteration    1(  14)  ---------------------------------------


    POTLOK:  cpu time    0.10: real time    0.10
    SETDIJ:  cpu time    0.01: real time    0.01
     EDDAV:  cpu time    1.54: real time    1.55
 BZINTS: Fermi energy:  0.248276; 60.000000 electrons
         Band energy:-121.010363;  BLOECHL correction: -0.276943
       DOS:  cpu time    0.00: real time    0.00
    CHARGE:  cpu time    0.09: real time    0.09
    MIXING:  cpu time    0.01: real time    0.01
    --------------------------------------------
      LOOP:  cpu time    1.76: real time    1.78

 eigenvalue-minimisations  :   824
 total energy-change (2. order) : 0.6118742E-03  (-0.4917531E-03)
 number of electron      60.0000009 magnetization 
 augmentation part       25.4024153 magnetization 

 Broyden mixing:
  rms(total) = 0.37637E-02    rms(broyden)= 0.37229E-02
  rms(prec ) = 0.57741E-02
  weight for this iteration     100.00

 eigenvalues of (default mixing * dielectric matrix)
  average eigenvalue GAMMA=   1.0495
  2.5012  2.2084  1.0381  1.0381  1.0033  0.6780  0.6780  0.1503  0.1503

 Free energy of the ion-electron system (eV)
  ---------------------------------------------------
  alpha Z        PSCENC =       305.72458370
  Ewald energy   TEWEN  =     12568.34383291
  -1/2 Hartree   DENC   =    -17827.99567365
  -exchange  EXHF       =         0.00000000
  -V(xc)+E(xc)   XCENC  =      -177.96592051
  PAW double counting   =      4154.88349436    -3790.55764903
  entropy T*S    EENTRO =         0.00000000
  eigenvalues    EBANDS =      -121.01036261
  atomic energy  EATOM  =      4858.47751158
  ---------------------------------------------------
  free energy    TOTEN  =       -30.10018325 eV

  energy without entropy =      -30.10018325  energy(sigma->0) =      -30.10018325


--------------------------------------------------------------------------------------------------------




----------------------------------------- Iteration    1(  15)  ---------------------------------------


    POTLOK:  cpu time    0.10: real time    0.10
    SETDIJ:  cpu time    0.01: real time    0.01
     EDDAV:  cpu time    1.27: real time    1.28
 BZINTS: Fermi energy:  0.269967; 60.000000 electrons
         Band energy:-119.704982;  BLOECHL correction: -0.277001
       DOS:  cpu time    0.00: real time    0.00
    CHARGE:  cpu time    0.09: real time    0.09
    MIXING:  cpu time    0.01: real time    0.01
    --------------------------------------------
      LOOP:  cpu time    1.48: real time    1.50

 eigenvalue-minimisations  :   636
 total energy-change (2. order) : 0.1609007E-03  (-0.3383472E-04)
 number of electron      60.0000009 magnetization 
 augmentation part       25.4030822 magnetization 

 Broyden mixing:
  rms(total) = 0.54566E-02    rms(broyden)= 0.54554E-02
  rms(prec ) = 0.80170E-02
  weight for this iteration     100.00

 eigenvalues of (default mixing * dielectric matrix)
  average eigenvalue GAMMA=   1.1494
  2.4912  2.4912  1.7897  1.0947  1.0947  0.8634  0.6843  0.6843  0.1503  0.1503

 Free energy of the ion-electron system (eV)
  ---------------------------------------------------
  alpha Z        PSCENC =       305.72458370
  Ewald energy   TEWEN  =     12568.34383291
  -1/2 Hartree   DENC   =    -17829.33872174
  -exchange  EXHF       =         0.00000000
  -V(xc)+E(xc)   XCENC  =      -177.96021602
  PAW double counting   =      4154.64746142    -3790.28949254
  entropy T*S    EENTRO =         0.00000000
  eigenvalues    EBANDS =      -119.70498165
  atomic energy  EATOM  =      4858.47751158
  ---------------------------------------------------
  free energy    TOTEN  =       -30.10002235 eV

  energy without entropy =      -30.10002235  energy(sigma->0) =      -30.10002235


--------------------------------------------------------------------------------------------------------




----------------------------------------- Iteration    1(  16)  ---------------------------------------


    POTLOK:  cpu time    0.10: real time    0.11
    SETDIJ:  cpu time    0.02: real time    0.01
     EDDAV:  cpu time    1.49: real time    1.50
 BZINTS: Fermi energy:  0.295173; 60.000000 electrons
         Band energy:-118.223549;  BLOECHL correction: -0.276862
       DOS:  cpu time    0.00: real time    0.00
    CHARGE:  cpu time    0.09: real time    0.09
    MIXING:  cpu time    0.01: real time    0.01
    --------------------------------------------
      LOOP:  cpu time    1.71: real time    1.73

 eigenvalue-minimisations  :   792
 total energy-change (2. order) : 0.1187513E-03  (-0.5480413E-04)
 number of electron      60.0000009 magnetization 
 augmentation part       25.3994404 magnetization 

 Broyden mixing:
  rms(total) = 0.42608E-02    rms(broyden)= 0.42595E-02
  rms(prec ) = 0.63513E-02
  weight for this iteration     100.00

 eigenvalues of (default mixing * dielectric matrix)
  average eigenvalue GAMMA=   1.2697
  3.7736  2.4965  1.3975  1.3975  1.1914  1.1914  0.8576  0.6803  0.6803  0.1503
  0.1503

 Free energy of the ion-electron system (eV)
  ---------------------------------------------------
  alpha Z        PSCENC =       305.72458370
  Ewald energy   TEWEN  =     12568.34383291
  -1/2 Hartree   DENC   =    -17830.82750823
  -exchange  EXHF       =         0.00000000
  -V(xc)+E(xc)   XCENC  =      -177.95335880
  PAW double counting   =      4154.53343964    -3790.17485564
  entropy T*S    EENTRO =         0.00000000
  eigenvalues    EBANDS =      -118.22354876
  atomic energy  EATOM  =      4858.47751158
  ---------------------------------------------------
  free energy    TOTEN  =       -30.09990360 eV

  energy without entropy =      -30.09990360  energy(sigma->0) =      -30.09990360


--------------------------------------------------------------------------------------------------------




----------------------------------------- Iteration    1(  17)  ---------------------------------------


    POTLOK:  cpu time    0.10: real time    0.11
    SETDIJ:  cpu time    0.01: real time    0.01
     EDDAV:  cpu time    1.38: real time    1.39
 BZINTS: Fermi energy:  0.307800; 60.000000 electrons
         Band energy:-117.438185;  BLOECHL correction: -0.276984
       DOS:  cpu time    0.00: real time    0.00
    CHARGE:  cpu time    0.09: real time    0.09
    MIXING:  cpu time    0.01: real time    0.01
    --------------------------------------------
      LOOP:  cpu time    1.60: real time    1.62

 eigenvalue-minimisations  :   716
 total energy-change (2. order) :-0.2457154E-04  (-0.3883253E-04)
 number of electron      60.0000009 magnetization 
 augmentation part       25.4013208 magnetization 

 Broyden mixing:
  rms(total) = 0.43899E-02    rms(broyden)= 0.43887E-02
  rms(prec ) = 0.62417E-02
  weight for this iteration     100.00

 eigenvalues of (default mixing * dielectric matrix)
  average eigenvalue GAMMA=   1.3227
  4.2452  2.7615  1.6394  1.6394  0.1503  0.1503  1.1158  1.1158  0.9438  0.6794
  0.6794  0.7525

 Free energy of the ion-electron system (eV)
  ---------------------------------------------------
  alpha Z        PSCENC =       305.72458370
  Ewald energy   TEWEN  =     12568.34383291
  -1/2 Hartree   DENC   =    -17831.60779052
  -exchange  EXHF       =         0.00000000
  -V(xc)+E(xc)   XCENC  =      -177.95353307
  PAW double counting   =      4153.96245335    -3789.60880132
  entropy T*S    EENTRO =         0.00000000
  eigenvalues    EBANDS =      -117.43818480
  atomic energy  EATOM  =      4858.47751158
  ---------------------------------------------------
  free energy    TOTEN  =       -30.09992817 eV

  energy without entropy =      -30.09992817  energy(sigma->0) =      -30.09992817


--------------------------------------------------------------------------------------------------------




----------------------------------------- Iteration    1(  18)  ---------------------------------------


    POTLOK:  cpu time    0.10: real time    0.10
    SETDIJ:  cpu time    0.02: real time    0.01
     EDDAV:  cpu time    1.34: real time    1.35
 BZINTS: Fermi energy:  0.315710; 60.000000 electrons
         Band energy:-116.970733;  BLOECHL correction: -0.276905
       DOS:  cpu time    0.00: real time    0.00
    CHARGE:  cpu time    0.09: real time    0.09
    MIXING:  cpu time    0.01: real time    0.01
    --------------------------------------------
      LOOP:  cpu time    1.56: real time    1.58

 eigenvalue-minimisations  :   680
 total energy-change (2. order) :-0.2714182E-04  (-0.9317234E-05)
 number of electron      60.0000009 magnetization 
 augmentation part       25.4005994 magnetization 

 Broyden mixing:
  rms(total) = 0.75659E-03    rms(broyden)= 0.75528E-03
  rms(prec ) = 0.10314E-02
  weight for this iteration     100.00

 eigenvalues of (default mixing * dielectric matrix)
  average eigenvalue GAMMA=   1.4660
  5.5859  2.5627  2.5627  1.3556  1.3556  0.1503  0.1503  1.1342  1.1342  0.9483
  0.6794  0.6794  0.7592

 Free energy of the ion-electron system (eV)
  ---------------------------------------------------
  alpha Z        PSCENC =       305.72458370
  Ewald energy   TEWEN  =     12568.34383291
  -1/2 Hartree   DENC   =    -17832.07127731
  -exchange  EXHF       =         0.00000000
  -V(xc)+E(xc)   XCENC  =      -177.95220981
  PAW double counting   =      4153.87994113    -3789.53160467
  entropy T*S    EENTRO =         0.00000000
  eigenvalues    EBANDS =      -116.97073284
  atomic energy  EATOM  =      4858.47751158
  ---------------------------------------------------
  free energy    TOTEN  =       -30.09995531 eV

  energy without entropy =      -30.09995531  energy(sigma->0) =      -30.09995531


--------------------------------------------------------------------------------------------------------




----------------------------------------- Iteration    1(  19)  ---------------------------------------


    POTLOK:  cpu time    0.11: real time    0.11
    SETDIJ:  cpu time    0.01: real time    0.01
     EDDAV:  cpu time    1.30: real time    1.31
 BZINTS: Fermi energy:  0.322344; 60.000000 electrons
         Band energy:-116.585091;  BLOECHL correction: -0.276846
       DOS:  cpu time    0.00: real time    0.00
    CHARGE:  cpu time    0.09: real time    0.09
    MIXING:  cpu time    0.01: real time    0.01
    --------------------------------------------
      LOOP:  cpu time    1.53: real time    1.55

 eigenvalue-minimisations  :   664
 total energy-change (2. order) :-0.1198228E-03  (-0.7104332E-05)
 number of electron      60.0000009 magnetization 
 augmentation part       25.3990197 magnetization 

 Broyden mixing:
  rms(total) = 0.28612E-02    rms(broyden)= 0.28607E-02
  rms(prec ) = 0.39377E-02
  weight for this iteration     100.00

 eigenvalues of (default mixing * dielectric matrix)
  average eigenvalue GAMMA=   1.5504
  6.1354  3.3502  2.4572  1.8946  0.1503  0.1503  1.1373  1.1373  1.2335  0.9570
  0.9570  0.6805  0.6805  0.7839

 Free energy of the ion-electron system (eV)
  ---------------------------------------------------
  alpha Z        PSCENC =       305.72458370
  Ewald energy   TEWEN  =     12568.34383291
  -1/2 Hartree   DENC   =    -17832.45206839
  -exchange  EXHF       =         0.00000000
  -V(xc)+E(xc)   XCENC  =      -177.95073431
  PAW double counting   =      4154.13039248    -3789.78850241
  entropy T*S    EENTRO =         0.00000000
  eigenvalues    EBANDS =      -116.58509069
  atomic energy  EATOM  =      4858.47751158
  ---------------------------------------------------
  free energy    TOTEN  =       -30.10007513 eV

  energy without entropy =      -30.10007513  energy(sigma->0) =      -30.10007513


--------------------------------------------------------------------------------------------------------




----------------------------------------- Iteration    1(  20)  ---------------------------------------


    POTLOK:  cpu time    0.10: real time    0.11
    SETDIJ:  cpu time    0.01: real time    0.01
     EDDAV:  cpu time    1.23: real time    1.33
 BZINTS: Fermi energy:  0.322156; 60.000000 electrons
         Band energy:-116.585237;  BLOECHL correction: -0.276899
       DOS:  cpu time    0.00: real time    0.00
    CHARGE:  cpu time    0.09: real time    0.09
    MIXING:  cpu time    0.01: real time    0.01
    --------------------------------------------
      LOOP:  cpu time    1.44: real time    1.56

 eigenvalue-minimisations  :   608
 total energy-change (2. order) :-0.7107942E-04  (-0.3892047E-05)
 number of electron      60.0000009 magnetization 
 augmentation part       25.4001585 magnetization 

 Broyden mixing:
  rms(total) = 0.42156E-03    rms(broyden)= 0.42064E-03
  rms(prec ) = 0.62897E-03
  weight for this iteration     100.00

 eigenvalues of (default mixing * dielectric matrix)
  average eigenvalue GAMMA=   1.6586
  7.6939  3.7254  2.5717  1.9587  0.1503  0.1503  1.1259  1.1259  1.2571  1.0039
  1.0039  0.6802  0.6802  0.9716  0.7800

 Free energy of the ion-electron system (eV)
  ---------------------------------------------------
  alpha Z        PSCENC =       305.72458370
  Ewald energy   TEWEN  =     12568.34383291
  -1/2 Hartree   DENC   =    -17832.45177887
  -exchange  EXHF       =         0.00000000
  -V(xc)+E(xc)   XCENC  =      -177.95214771
  PAW double counting   =      4154.04986201    -3789.70677265
  entropy T*S    EENTRO =         0.00000000
  eigenvalues    EBANDS =      -116.58523717
  atomic energy  EATOM  =      4858.47751158
  ---------------------------------------------------
  free energy    TOTEN  =       -30.10014621 eV

  energy without entropy =      -30.10014621  energy(sigma->0) =      -30.10014621


--------------------------------------------------------------------------------------------------------




----------------------------------------- Iteration    1(  21)  ---------------------------------------


    POTLOK:  cpu time    0.10: real time    0.11
    SETDIJ:  cpu time    0.01: real time    0.01
     EDDAV:  cpu time    0.94: real time    0.95
 BZINTS: Fermi energy:  0.322751; 60.000000 electrons
         Band energy:-116.548644;  BLOECHL correction: -0.276898
       DOS:  cpu time    0.00: real time    0.00
    CHARGE:  cpu time    0.09: real time    0.09
    MIXING:  cpu time    0.01: real time    0.01
    --------------------------------------------
      LOOP:  cpu time    1.17: real time    1.19

 eigenvalue-minimisations  :   416
 total energy-change (2. order) :-0.4000995E-04  (-0.3952558E-06)
 number of electron      60.0000009 magnetization 
 augmentation part       25.4003864 magnetization 

 Broyden mixing:
  rms(total) = 0.31220E-03    rms(broyden)= 0.31192E-03
  rms(prec ) = 0.41514E-03
  weight for this iteration     100.00

 eigenvalues of (default mixing * dielectric matrix)
  average eigenvalue GAMMA=   1.7283
  7.9144  4.3209  2.6389  2.0412  2.0412  0.1503  0.1503  1.1207  1.1207  1.2391
  0.6801  0.6801  0.9125  0.9125  0.9491  0.7802

 Free energy of the ion-electron system (eV)
  ---------------------------------------------------
  alpha Z        PSCENC =       305.72458370
  Ewald energy   TEWEN  =     12568.34383291
  -1/2 Hartree   DENC   =    -17832.48924971
  -exchange  EXHF       =         0.00000000
  -V(xc)+E(xc)   XCENC  =      -177.95228318
  PAW double counting   =      4154.06126854    -3789.71720643
  entropy T*S    EENTRO =         0.00000000
  eigenvalues    EBANDS =      -116.54864363
  atomic energy  EATOM  =      4858.47751158
  ---------------------------------------------------
  free energy    TOTEN  =       -30.10018622 eV

  energy without entropy =      -30.10018622  energy(sigma->0) =      -30.10018622


--------------------------------------------------------------------------------------------------------




----------------------------------------- Iteration    1(  22)  ---------------------------------------


    POTLOK:  cpu time    0.10: real time    0.10
    SETDIJ:  cpu time    0.01: real time    0.01
     EDDAV:  cpu time    0.86: real time    0.86
 BZINTS: Fermi energy:  0.323075; 60.000000 electrons
         Band energy:-116.530689;  BLOECHL correction: -0.276888
       DOS:  cpu time    0.00: real time    0.00
    CHARGE:  cpu time    0.09: real time    0.09
    MIXING:  cpu time    0.01: real time    0.01
    --------------------------------------------
      LOOP:  cpu time    1.08: real time    1.11

 eigenvalue-minimisations  :   364
 total energy-change (2. order) :-0.8578208E-05  (-0.1694593E-06)
 number of electron      60.0000009 magnetization 
 augmentation part       25.4002069 magnetization 

 Broyden mixing:
  rms(total) = 0.15114E-03    rms(broyden)= 0.15105E-03
  rms(prec ) = 0.20220E-03
  weight for this iteration     100.00

 eigenvalues of (default mixing * dielectric matrix)
  average eigenvalue GAMMA=   1.7076
  8.2658  4.2656  2.4956  2.4956  1.9491  0.1503  0.1503  1.1236  1.1236  1.1167
  1.1167  0.9009  0.9009  0.6802  0.6802  0.8340  0.7800

 Free energy of the ion-electron system (eV)
  ---------------------------------------------------
  alpha Z        PSCENC =       305.72458370
  Ewald energy   TEWEN  =     12568.34383291
  -1/2 Hartree   DENC   =    -17832.50811055
  -exchange  EXHF       =         0.00000000
  -V(xc)+E(xc)   XCENC  =      -177.95207604
  PAW double counting   =      4154.08519325    -3789.74044028
  entropy T*S    EENTRO =         0.00000000
  eigenvalues    EBANDS =      -116.53068938
  atomic energy  EATOM  =      4858.47751158
  ---------------------------------------------------
  free energy    TOTEN  =       -30.10019480 eV

  energy without entropy =      -30.10019480  energy(sigma->0) =      -30.10019480


--------------------------------------------------------------------------------------------------------




----------------------------------------- Iteration    1(  23)  ---------------------------------------


    POTLOK:  cpu time    0.10: real time    0.11
    SETDIJ:  cpu time    0.02: real time    0.01
     EDDAV:  cpu time    0.86: real time    0.86
 BZINTS: Fermi energy:  0.323058; 60.000000 electrons
         Band energy:-116.531620;  BLOECHL correction: -0.276891
       DOS:  cpu time    0.00: real time    0.00
    CHARGE:  cpu time    0.10: real time    0.10
    MIXING:  cpu time    0.01: real time    0.01
    --------------------------------------------
      LOOP:  cpu time    1.09: real time    1.11

 eigenvalue-minimisations  :   348
 total energy-change (2. order) :-0.4255774E-05  (-0.1899117E-07)
 number of electron      60.0000009 magnetization 
 augmentation part       25.4002171 magnetization 

 Broyden mixing:
  rms(total) = 0.37397E-04    rms(broyden)= 0.37367E-04
  rms(prec ) = 0.57681E-04
  weight for this iteration     100.00

 eigenvalues of (default mixing * dielectric matrix)
  average eigenvalue GAMMA=   1.7353
  8.4907  4.5189  2.7687  2.4423  1.9883  0.1503  0.1503  1.3629  1.3629  1.1160
  1.1160  0.6801  0.6801  0.9062  0.9062  0.9070  0.9070  0.7818

 Free energy of the ion-electron system (eV)
  ---------------------------------------------------
  alpha Z        PSCENC =       305.72458370
  Ewald energy   TEWEN  =     12568.34383291
  -1/2 Hartree   DENC   =    -17832.50774145
  -exchange  EXHF       =         0.00000000
  -V(xc)+E(xc)   XCENC  =      -177.95208920
  PAW double counting   =      4154.06805093    -3789.72272741
  entropy T*S    EENTRO =         0.00000000
  eigenvalues    EBANDS =      -116.53162012
  atomic energy  EATOM  =      4858.47751158
  ---------------------------------------------------
  free energy    TOTEN  =       -30.10019905 eV

  energy without entropy =      -30.10019905  energy(sigma->0) =      -30.10019905


--------------------------------------------------------------------------------------------------------




----------------------------------------- Iteration    1(  24)  ---------------------------------------


    POTLOK:  cpu time    0.10: real time    0.10
    SETDIJ:  cpu time    0.02: real time    0.01
     EDDAV:  cpu time    0.82: real time    0.82
 BZINTS: Fermi energy:  0.323041; 60.000000 electrons
         Band energy:-116.532503;  BLOECHL correction: -0.276893
       DOS:  cpu time    0.00: real time    0.00
    CHARGE:  cpu time    0.09: real time    0.09
    MIXING:  cpu time    0.01: real time    0.01
    --------------------------------------------
      LOOP:  cpu time    1.04: real time    1.07

 eigenvalue-minimisations  :   328
 total energy-change (2. order) :-0.1697607E-05  (-0.8415880E-08)
 number of electron      60.0000009 magnetization 
 augmentation part       25.4002309 magnetization 

 Broyden mixing:
  rms(total) = 0.13896E-04    rms(broyden)= 0.13878E-04
  rms(prec ) = 0.15352E-04
  weight for this iteration     100.00

 eigenvalues of (default mixing * dielectric matrix)
  average eigenvalue GAMMA=   1.7196
  8.5827  4.4945  2.9913  2.5478  1.9195  1.9195  0.1503  0.1503  1.1240  1.1240
  1.1020  1.1020  0.8619  0.8619  0.6800  0.6800  0.8233  0.7789  0.7789

 Free energy of the ion-electron system (eV)
  ---------------------------------------------------
  alpha Z        PSCENC =       305.72458370
  Ewald energy   TEWEN  =     12568.34383291
  -1/2 Hartree   DENC   =    -17832.50695440
  -exchange  EXHF       =         0.00000000
  -V(xc)+E(xc)   XCENC  =      -177.95210530
  PAW double counting   =      4154.07017723    -3789.72474360
  entropy T*S    EENTRO =         0.00000000
  eigenvalues    EBANDS =      -116.53250287
  atomic energy  EATOM  =      4858.47751158
  ---------------------------------------------------
  free energy    TOTEN  =       -30.10020075 eV

  energy without entropy =      -30.10020075  energy(sigma->0) =      -30.10020075


--------------------------------------------------------------------------------------------------------




----------------------------------------- Iteration    1(  25)  ---------------------------------------


    POTLOK:  cpu time    0.10: real time    0.10
    SETDIJ:  cpu time    0.01: real time    0.01
     EDDAV:  cpu time    0.81: real time    0.81
 BZINTS: Fermi energy:  0.323023; 60.000000 electrons
         Band energy:-116.533477;  BLOECHL correction: -0.276893
       DOS:  cpu time    0.00: real time    0.00
    --------------------------------------------
      LOOP:  cpu time    0.93: real time    0.95

 eigenvalue-minimisations  :   316
 total energy-change (2. order) :-0.1837989E-06  (-0.2068666E-08)
 number of electron      60.0000009 magnetization 
 augmentation part       25.4002309 magnetization 

 Free energy of the ion-electron system (eV)
  ---------------------------------------------------
  alpha Z        PSCENC =       305.72458370
  Ewald energy   TEWEN  =     12568.34383291
  -1/2 Hartree   DENC   =    -17832.50598256
  -exchange  EXHF       =         0.00000000
  -V(xc)+E(xc)   XCENC  =      -177.95211889
  PAW double counting   =      4154.06743479    -3789.72198520
  entropy T*S    EENTRO =         0.00000000
  eigenvalues    EBANDS =      -116.53347726
  atomic energy  EATOM  =      4858.47751158
  ---------------------------------------------------
  free energy    TOTEN  =       -30.10020094 eV

  energy without entropy =      -30.10020094  energy(sigma->0) =      -30.10020094


--------------------------------------------------------------------------------------------------------




 average (electrostatic) potential at core
  the test charge radii are     1.1199
  (the norm of the test charge is              1.0000)
       1 -50.8771       2 -51.2052       3 -51.1781       4 -51.1784       5 -51.2051
       6 -50.8775
 
 
 
 E-fermi :   0.3230     XC(G=0):  -8.1520     alpha+bet : -6.5480


 k-point   1 :       0.0000    0.0000    0.0000
  band No.  band energies     occupation 
      1      -6.2418      2.00000
      2      -5.6424      2.00000
      3      -4.9158      2.00000
      4      -4.5837      2.00000
      5      -4.3525      2.00000
      6      -4.3497      2.00000
      7      -2.3781      2.00000
      8      -2.3532      2.00000
      9      -2.2683      2.00000
     10      -2.2683      2.00000
     11      -2.2111      2.00000
     12      -2.2111      2.00000
     13      -2.1413      2.00000
     14      -2.1230      2.00000
     15      -2.1230      2.00000
     16      -2.0466      2.00000
     17      -2.0466      2.00000
     18      -1.8963      2.00000
     19      -1.8963      2.00000
     20      -1.8614      2.00000
     21      -1.8614      2.00000
     22      -1.5550      2.00000
     23      -0.8102      2.00000
     24      -0.8102      2.00000
     25      -0.7674      2.00000
     26      -0.7674      2.00000
     27      -0.5712      2.00000
     28      -0.5712      2.00000
     29      -0.3030      2.00000
     30      -0.2319      2.00000
     31      -0.2319      2.00000
     32       0.1134      2.00000
     33       0.1134      2.00000
     34       0.2834      2.00000
     35       0.2834      0.05539
     36       1.2595      0.00000

 k-point   2 :       0.1429    0.0000    0.0000
  band No.  band energies     occupation 
      1      -5.6447      2.00000
      2      -5.0769      2.00000
      3      -4.3809      2.00000
      4      -4.1424      2.00000
      5      -3.9012      2.00000
      6      -3.8425      2.00000
      7      -2.8217      2.00000
      8      -2.6463      2.00000
      9      -2.5788      2.00000
     10      -2.4709      2.00000
     11      -2.3843      2.00000
     12      -2.1895      2.00000
     13      -2.0318      2.00000
     14      -1.9951      2.00000
     15      -1.9784      2.00000
     16      -1.9073      2.00000
     17      -1.8897      2.00000
     18      -1.8060      2.00000
     19      -1.7439      2.00000
     20      -1.7304      2.00000
     21      -1.5559      2.00000
     22      -1.5405      2.00000
     23      -1.4992      2.00000
     24      -1.1079      2.00000
     25      -1.0665      2.00000
     26      -0.9089      2.00000
     27      -0.7679      2.00000
     28      -0.7288      2.00000
     29      -0.5340      2.00000
     30      -0.4272      2.00000
     31      -0.2244      2.00000
     32       0.1260      2.00000
     33       0.2383      2.00790
     34       0.3120      0.84626
     35       1.2973     -0.00770
     36       2.6128      0.00000

 k-point   3 :       0.2857    0.0000    0.0000
  band No.  band energies     occupation 
      1      -4.4956      2.00000
      2      -4.1892      2.00000
      3      -4.0321      2.00000
      4      -3.8686      2.00000
      5      -3.6759      2.00000
      6      -3.5426      2.00000
      7      -3.3484      2.00000
      8      -3.2656      2.00000
      9      -2.9089      2.00000
     10      -2.5224      2.00000
     11      -2.4633      2.00000
     12      -2.1575      2.00000
     13      -2.0774      2.00000
     14      -1.9783      2.00000
     15      -1.9469      2.00000
     16      -1.7001      2.00000
     17      -1.6015      2.00000
     18      -1.3933      2.00000
     19      -1.2237      2.00000
     20      -1.1993      2.00000
     21      -1.0673      2.00000
     22      -0.9384      2.00000
     23      -0.7482      2.00000
     24      -0.7328      2.00000
     25      -0.6218      2.00000
     26      -0.5994      2.00000
     27      -0.4930      2.04561
     28      -0.4183      2.11921
     29      -0.2803      2.23115
     30      -0.1516      2.16880
     31       0.0800      1.28355
     32       0.1408      1.11123
     33       0.3638      0.58684
     34       1.3503     -0.00286
     35       2.8936      0.00000
     36       4.5716      0.00000

 k-point   4 :       0.4286    0.0000    0.0000
  band No.  band energies     occupation 
      1      -4.4684      2.00000
      2      -4.4243      2.00000
      3      -4.2240      2.00000
      4      -4.1694      2.00000
      5      -4.0580      2.00000
      6      -3.8346      2.00000
      7      -3.8115      2.00000
      8      -3.6932      2.00000
      9      -3.2007      2.00000
     10      -2.6648      2.00000
     11      -2.4013      2.00000
     12      -2.3103      2.00000
     13      -2.1598      2.00000
     14      -1.7562      2.00000
     15      -1.6996      2.00000
     16      -1.3943      2.00000
     17      -1.1962      2.00000
     18      -0.9289      2.00000
     19      -0.5825      2.00000
     20      -0.4685      2.00000
     21      -0.1033      2.00000
     22      -0.0678      2.00000
     23       0.1895      2.00000
     24       0.1991      2.00000
     25       0.2490      2.00000
     26       0.2741      2.00000
     27       0.3485      1.45343
     28       0.4140      0.72385
     29       0.4662      0.21718
     30       0.5158      0.12609
     31       1.1400     -0.02650
     32       1.8441     -0.02813
     33       2.2146      0.00000
     34       3.0412      0.00000
     35       4.4068      0.00000
     36       5.6906      0.00000

 k-point   5 :       0.2857    0.1429    0.0000
  band No.  band energies     occupation 
      1      -4.6529      2.00000
      2      -4.2479      2.00000
      3      -3.7341      2.00000
      4      -3.5114      2.00000
      5      -3.4044      2.00000
      6      -3.2792      2.00000
      7      -3.1405      2.00000
      8      -3.1029      2.00000
      9      -2.9408      2.00000
     10      -2.8386      2.00000
     11      -2.5811      2.00000
     12      -2.5036      2.00000
     13      -2.3998      2.00000
     14      -2.2822      2.00000
     15      -2.1119      2.00000
     16      -2.0218      2.00000
     17      -1.9403      2.00000
     18      -1.7236      2.00000
     19      -1.5552      2.00000
     20      -1.3814      2.00000
     21      -1.2569      2.00000
     22      -1.1250      2.00000
     23      -1.1229      2.00000
     24      -0.8672      2.00000
     25      -0.7811      2.00000
     26      -0.5779      2.00000
     27      -0.5154      2.00000
     28      -0.4551      2.00000
     29      -0.2583      2.00000
     30      -0.2277      2.13908
     31      -0.0481      1.63554
     32       0.1349      1.41900
     33       0.1587      1.34569
     34       1.1550     -0.15038
     35       2.5100      0.00000
     36       4.0729      0.00000

 k-point   6 :       0.4286    0.1429    0.0000
  band No.  band energies     occupation 
      1      -4.0456      2.00000
      2      -4.0096      2.00000
      3      -3.8203      2.00000
      4      -3.6869      2.00000
      5      -3.6566      2.00000
      6      -3.5103      2.00000
      7      -3.3983      2.00000
      8      -3.1452      2.00000
      9      -3.0514      2.00000
     10      -2.7962      2.00000
     11      -2.4377      2.00000
     12      -2.4158      2.00000
     13      -2.2776      2.00000
     14      -2.0036      2.00000
     15      -1.9492      2.00000
     16      -1.8614      2.00000
     17      -1.5772      2.00000
     18      -1.4620      2.00000
     19      -1.3442      2.00000
     20      -1.2046      2.00000
     21      -0.9986      2.00000
     22      -0.7666      2.00000
     23      -0.7319      2.00000
     24      -0.5434      2.00000
     25      -0.2753      2.00000
     26      -0.2510      2.00000
     27       0.1920      2.00828
     28       0.2108      1.99199
     29       0.3098      1.52774
     30       0.4430      0.48511
     31       1.3170     -0.11611
     32       1.4931     -0.13913
     33       1.9085     -0.12180
     34       2.9477      0.00000
     35       4.4221      0.00000
     36       6.0973      0.00000

 k-point   7 :      -0.4286    0.1429    0.0000
  band No.  band energies     occupation 
      1      -4.2743      2.00000
      2      -4.1278      2.00000
      3      -4.0084      2.00000
      4      -3.8999      2.00000
      5      -3.7411      2.00000
      6      -3.6927      2.00000
      7      -3.5209      2.00000
      8      -3.3569      2.00000
      9      -3.1408      2.00000
     10      -2.8351      2.00000
     11      -2.6805      2.00000
     12      -2.1955      2.00000
     13      -2.1606      2.00000
     14      -2.0171      2.00000
     15      -1.8162      2.00000
     16      -1.6493      2.00000
     17      -1.3293      2.00000
     18      -1.0990      2.00000
     19      -1.0446      2.00000
     20      -0.6446      2.00000
     21      -0.5580      2.00000
     22      -0.4989      2.00000
     23      -0.2180      2.00000
     24      -0.0597      2.00000
     25       0.0942      2.00000
     26       0.1053      2.00000
     27       0.1821      2.14231
     28       0.2132      1.96871
     29       0.3759      0.02249
     30       0.4825      0.00000
     31       3.4715      0.00000
     32       3.9946      0.00000
     33       4.4483      0.00000
     34       4.7821      0.00000
     35       5.0542      0.00000
     36       5.2033      0.00000

 k-point   8 :      -0.4286    0.2857    0.0000
  band No.  band energies     occupation 
      1      -3.7702      2.00000
      2      -3.7696      2.00000
      3      -3.5614      2.00000
      4      -3.3975      2.00000
      5      -3.3080      2.00000
      6      -3.1703      2.00000
      7      -3.1520      2.00000
      8      -3.0223      2.00000
      9      -3.0155      2.00000
     10      -2.7646      2.00000
     11      -2.7475      2.00000
     12      -2.4380      2.00000
     13      -2.3866      2.00000
     14      -2.1807      2.00000
     15      -2.0153      2.00000
     16      -1.7958      2.00000
     17      -1.7463      2.00000
     18      -1.6202      2.00000
     19      -1.5901      2.00000
     20      -1.1733      2.00000
     21      -1.0843      2.00000
     22      -0.8912      2.00000
     23      -0.7420      2.00000
     24      -0.6843      2.00000
     25      -0.3434      2.00000
     26      -0.0856      2.00000
     27       0.1658      2.00000
     28       0.2413      2.00000
     29       0.2775      2.00695
     30       0.4317      0.00000
     31       4.1171      0.00000
     32       4.4974      0.00000
     33       5.1304      0.00000
     34       6.0572      0.00000
     35       7.1876      0.00000
     36       7.8620      0.00000


--------------------------------------------------------------------------------------------------------


 soft charge-density along one line, spin component           1
         0         1         2         3         4         5         6         7         8         9
 total charge-density along one line
 
 pseudopotential strength for first ion, spin component:           1
-11.401   0.000   0.000   0.000   0.000   0.000  -0.011   0.000   0.000   0.000   0.110   0.000   0.000   0.000   0.000   0.000
  0.000   0.000 -11.289   0.000   0.000   0.000   0.000   0.000  -0.011   0.000   0.000   0.000   0.092   0.000   0.000   0.000
  0.000   0.000   0.000   0.000 -11.271   0.000   0.000   0.000   0.000   0.000   0.000   0.000   0.000   0.000   0.089   0.000
 -0.011   0.000   0.000   0.000   0.000   0.000 -11.289   0.000   0.000   0.000   0.002   0.000   0.000   0.000   0.000   0.000
  0.000   0.000  -0.011   0.000   0.000   0.000   0.000   0.000 -11.401   0.000   0.000   0.000   0.002   0.000   0.000   0.000
  0.110   0.000   0.000   0.000   0.000   0.000   0.002   0.000   0.000   0.000   0.323   0.000   0.000   0.000   0.000   0.000
  0.000   0.000   0.092   0.000   0.000   0.000   0.000   0.000   0.002   0.000   0.000   0.000   0.326   0.000   0.000   0.000
  0.000   0.000   0.000   0.000   0.089   0.000   0.000   0.000   0.000   0.000   0.000   0.000   0.000   0.000   0.327   0.000
  0.002   0.000   0.000   0.000   0.000   0.000   0.092   0.000   0.000   0.000   0.000   0.000   0.000   0.000   0.000   0.000
  0.000   0.000   0.002   0.000   0.000   0.000   0.000   0.000   0.110   0.000   0.000   0.000   0.000   0.000   0.000   0.000
  0.000   0.000   0.000   0.000  -0.029   0.000   0.000   0.000   0.000   0.000   0.000   0.000   0.000   0.000   0.004   0.000
  0.000   0.000   0.000   0.000   0.002   0.000   0.000   0.000   0.000   0.000   0.000   0.000   0.000   0.000   0.000   0.000
  0.000   0.000  -0.011   0.000   0.000   0.000   0.000   0.000   0.000   0.000   0.000   0.000   0.002   0.000   0.000   0.000
  0.000   0.000   0.000   0.000  -0.012   0.000   0.000   0.000   0.000   0.000   0.000   0.000   0.000   0.000   0.002   0.000
  0.000   0.000   0.000   0.000   0.000   0.000  -0.011   0.000   0.000   0.000   0.000   0.000   0.000   0.000   0.000   0.000
  0.000   0.000   0.010   0.000   0.000   0.000   0.000   0.000   0.000   0.000   0.000   0.000  -0.002   0.000   0.000   0.000
  0.000   0.000   0.000   0.000   0.010   0.000   0.000   0.000   0.000   0.000   0.000   0.000   0.000   0.000  -0.002   0.000
  0.000   0.000   0.000   0.000   0.000   0.000   0.010   0.000   0.000   0.000   0.000   0.000   0.000   0.000   0.000   0.000
 total augmentation occupancy for first ion, spin component:           1
  1.724   0.000   0.000  -0.042   0.000   0.132   0.000   0.000   0.021   0.000   0.000   0.000   0.000   0.000   0.003   0.000
  0.000   1.854   0.000   0.000  -0.042   0.000   0.052   0.000   0.000   0.023   0.000   0.000  -0.015   0.000   0.000  -0.015
  0.000   0.000   1.833   0.000   0.000   0.000   0.000   0.078   0.000   0.000   0.016  -0.063   0.000   0.025   0.000   0.000
 -0.042   0.000   0.000   1.854   0.000   0.023   0.000   0.000   0.052   0.000   0.000   0.000   0.000   0.000  -0.015   0.000
  0.000  -0.042   0.000   0.000   1.724   0.000   0.021   0.000   0.000   0.132   0.000   0.000   0.003   0.000   0.000   0.001
  0.132   0.000   0.000   0.023   0.000   0.114   0.000   0.000   0.003   0.000   0.000   0.000   0.000   0.000   0.006   0.000
  0.000   0.052   0.000   0.000   0.021   0.000   0.090   0.000   0.000   0.003   0.000   0.000   0.033   0.000   0.000  -0.001
  0.000   0.000   0.078   0.000   0.000   0.000   0.000   0.118   0.000   0.000  -0.112   0.029   0.000   0.045   0.000   0.000
  0.021   0.000   0.000   0.052   0.000   0.003   0.000   0.000   0.090   0.000   0.000   0.000   0.000   0.000   0.033   0.000
  0.000   0.023   0.000   0.000   0.132   0.000   0.003   0.000   0.000   0.114   0.000   0.000   0.006   0.000   0.000   0.000
  0.000   0.000   0.016   0.000   0.000   0.000   0.000  -0.112   0.000   0.000   1.000  -0.327   0.000   0.073   0.000   0.000
  0.000   0.000  -0.063   0.000   0.000   0.000   0.000   0.029   0.000   0.000  -0.327   0.121   0.000  -0.040   0.000   0.000
  0.000  -0.015   0.000   0.000   0.003   0.000   0.033   0.000   0.000   0.006   0.000   0.000   0.110   0.000   0.000  -0.002
  0.000   0.000   0.025   0.000   0.000   0.000   0.000   0.045   0.000   0.000   0.073  -0.040   0.000   0.062   0.000   0.000
  0.003   0.000   0.000  -0.015   0.000   0.006   0.000   0.000   0.033   0.000   0.000   0.000   0.000   0.000   0.110   0.000
  0.000  -0.015   0.000   0.000   0.001   0.000  -0.001   0.000   0.000   0.000   0.000   0.000  -0.002   0.000   0.000   0.000
  0.000   0.000  -0.020   0.000   0.000   0.000   0.000  -0.001   0.000   0.000  -0.004   0.002   0.000  -0.001   0.000   0.000
  0.001   0.000   0.000  -0.015   0.000   0.000   0.000   0.000  -0.001   0.000   0.000   0.000   0.000   0.000  -0.002   0.000


------------------------ aborting loop because EDIFF is reached ----------------------------------------


    CHARGE:  cpu time    0.09: real time    0.09
    FORLOC:  cpu time    0.01: real time    0.01
    FORNL :  cpu time    0.45: real time    0.45
    STRESS:  cpu time    0.77: real time    0.78
    FORCOR:  cpu time    0.12: real time    0.12
    FORHAR:  cpu time    0.04: real time    0.04
    MIXING:  cpu time    0.01: real time    0.01

  FORCE on cell =-STRESS in cart. coord.  units (eV):
  Direction    XX          YY          ZZ          XY          YZ          ZX
  --------------------------------------------------------------------------------------
  Alpha Z   305.72458   305.72458   305.72458
  Ewald   15894.51589 15894.51589-19220.68801     0.00000     0.00000     0.00000
  Hartree 17346.77032 17346.77032-16861.00261     0.00000     0.00000     0.00000
  E(xc)    -313.68030  -313.68031  -314.84503     0.00001     0.00000     0.00000
  Local  -33984.31439-33984.31467 35330.89595     0.00024     0.00000     0.00000
  n-local  -332.70542  -308.72305  -323.35151     5.24060    -3.07821     1.50836
  augment   256.59471   256.59496   260.11345    -0.00022     0.00000     0.00000
  Kinetic   802.63392   823.38855   822.58941     5.32394     2.99182    -0.72246
  Fock        0.00000     0.00000     0.00000     0.00000     0.00000     0.00000
  -------------------------------------------------------------------------------------
  Total      -2.09221    -2.09221    -0.56377     0.00000     0.00000     0.00000
  in kB     -20.90898   -20.90898    -5.63415     0.00000     0.00000     0.00000
  external pressure =      -15.82 kB  Pullay stress =        0.00 kB


 VOLUME and BASIS-vectors are now :
 -----------------------------------------------------------------------------
  energy-cutoff  :      415.00
  volume of cell :      160.32
      direct lattice vectors                 reciprocal lattice vectors
     2.795185513  0.000000000  0.000000000     0.357758008 -0.206551682  0.000000000
     1.397592758  2.420701664  0.000000000     0.000000000  0.413103364  0.000000000
     0.000000000  0.000000000 23.693556493     0.000000000  0.000000000  0.042205568

  length of vectors
     2.795185513  2.795185515 23.693556493     0.413103364  0.413103364  0.042205568


 FORCES acting on ions
    electron-ion (+dipol)            ewald-force                    non-local-force                 convergence-correction
 -----------------------------------------------------------------------------------------------
   0.171E-06 0.128E-06 0.281E+04   0.259E-07 -.244E-07 -.281E+04   -.607E-17 -.867E-18 -.126E+01   0.598E-11 0.340E-11 -.252E-02
   0.204E-07 0.117E-07 -.564E+03   0.717E-14 -.151E-13 0.564E+03   0.867E-18 0.173E-17 -.433E-01   -.369E-11 -.206E-11 0.282E-02
   0.727E-06 0.419E-06 0.169E+04   0.430E-09 0.446E-09 -.169E+04   0.130E-17 0.434E-18 -.278E-01   -.351E-10 -.204E-10 -.555E-02
   0.707E-06 0.408E-06 -.169E+04   0.692E-09 0.202E-09 0.169E+04   -.108E-17 -.434E-18 0.278E-01   0.336E-10 0.195E-10 0.556E-02
   -.694E-06 -.401E-06 0.564E+03   -.562E-09 -.324E-09 -.564E+03   -.867E-18 -.173E-17 0.433E-01   0.434E-11 0.244E-11 -.281E-02
   -.166E-06 -.124E-06 -.281E+04   -.264E-07 0.241E-07 0.281E+04   0.607E-17 -.173E-17 0.126E+01   -.620E-11 -.355E-11 0.252E-02
 -----------------------------------------------------------------------------------------------
   0.766E-06 0.442E-06 -.152E-02   0.166E-12 -.707E-13 -.455E-12   0.217E-18 -.260E-17 -.222E-15   -.109E-11 -.637E-12 0.119E-04
 
 
 POSITION                                       TOTAL-FORCE (eV/Angst)
 -----------------------------------------------------------------------------------
      0.00000      0.00000      0.00000         0.000000      0.000000     -0.003457
      0.00000      0.00000      6.84678         0.000000      0.000000     -0.019808
      1.39759      0.80690      2.28226         0.000000      0.000000      0.053507
      1.39759      0.80690      9.12904         0.000000      0.000000     -0.053507
      2.79519      1.61380      4.56452         0.000000      0.000000      0.019808
      2.79519      1.61380     11.41130         0.000000      0.000000      0.003457
 -----------------------------------------------------------------------------------
    total drift:                                0.000001      0.000000     -0.001512


--------------------------------------------------------------------------------------------------------



  FREE ENERGIE OF THE ION-ELECTRON SYSTEM (eV)
  ---------------------------------------------------
  free  energy   TOTEN  =       -30.10020094 eV

  energy  without entropy=      -30.10020094  energy(sigma->0) =      -30.10020094
 


--------------------------------------------------------------------------------------------------------


    POTLOK:  cpu time    0.12: real time    0.12


--------------------------------------------------------------------------------------------------------




--------------------------------------------------------------------------------------------------------


    WAVPRE:  cpu time    0.03: real time    0.03
 FEWALD executed in parallel
    FEWALD:  cpu time    0.00: real time    0.00
    ORTHCH:  cpu time    0.11: real time    0.11
     LOOP+:  cpu time   38.25: real time   38.89


----------------------------------------- Iteration    2(   1)  ---------------------------------------


    POTLOK:  cpu time    0.10: real time    0.10
    SETDIJ:  cpu time    0.01: real time    0.01
     EDDAV:  cpu time    1.17: real time    1.18
 BZINTS: Fermi energy:  0.323031; 60.000000 electrons
         Band energy:-116.533422;  BLOECHL correction: -0.276914
       DOS:  cpu time    0.00: real time    0.00
    CHARGE:  cpu time    0.09: real time    0.09
    MIXING:  cpu time    0.00: real time    0.00
    --------------------------------------------
      LOOP:  cpu time    1.38: real time    1.39

 eigenvalue-minimisations  :   584
 total energy-change (2. order) :-0.3404835E-04  (-0.9183718E-04)
 number of electron      60.0000009 magnetization 
 augmentation part       25.4002075 magnetization 

 Broyden mixing:
  rms(total) = 0.35600E-03    rms(broyden)= 0.35555E-03
  rms(prec ) = 0.38165E-03
  weight for this iteration     100.00

 Free energy of the ion-electron system (eV)
  ---------------------------------------------------
  alpha Z        PSCENC =       305.72458370
  Ewald energy   TEWEN  =     12569.23203592
  -1/2 Hartree   DENC   =    -17833.39416983
  -exchange  EXHF       =         0.00000000
  -V(xc)+E(xc)   XCENC  =      -177.95214802
  PAW double counting   =      4154.06796788    -3789.72259438
  entropy T*S    EENTRO =         0.00000000
  eigenvalues    EBANDS =      -116.53342165
  atomic energy  EATOM  =      4858.47751158
  ---------------------------------------------------
  free energy    TOTEN  =       -30.10023480 eV

  energy without entropy =      -30.10023480  energy(sigma->0) =      -30.10023480


--------------------------------------------------------------------------------------------------------




----------------------------------------- Iteration    2(   2)  ---------------------------------------


    POTLOK:  cpu time    0.11: real time    0.11
    SETDIJ:  cpu time    0.01: real time    0.01
     EDDAV:  cpu time    1.61: real time    1.62
 BZINTS: Fermi energy:  0.323093; 60.000000 electrons
         Band energy:-116.529273;  BLOECHL correction: -0.276907
       DOS:  cpu time    0.00: real time    0.00
    CHARGE:  cpu time    0.09: real time    0.09
    MIXING:  cpu time    0.00: real time    0.00
    --------------------------------------------
      LOOP:  cpu time    1.82: real time    1.85

 eigenvalue-minimisations  :   860
 total energy-change (2. order) : 0.4460703E-05  (-0.3002970E-05)
 number of electron      60.0000009 magnetization 
 augmentation part       25.4002119 magnetization 

 Broyden mixing:
  rms(total) = 0.75583E-03    rms(broyden)= 0.75572E-03
  rms(prec ) = 0.11149E-02
  weight for this iteration     100.00

 eigenvalues of (default mixing * dielectric matrix)
  average eigenvalue GAMMA=   0.2785
  0.2785

 Free energy of the ion-electron system (eV)
  ---------------------------------------------------
  alpha Z        PSCENC =       305.72458370
  Ewald energy   TEWEN  =     12569.23203592
  -1/2 Hartree   DENC   =    -17833.39828080
  -exchange  EXHF       =         0.00000000
  -V(xc)+E(xc)   XCENC  =      -177.95215046
  PAW double counting   =      4154.06593768    -3789.72059509
  entropy T*S    EENTRO =         0.00000000
  eigenvalues    EBANDS =      -116.52927287
  atomic energy  EATOM  =      4858.47751158
  ---------------------------------------------------
  free energy    TOTEN  =       -30.10023034 eV

  energy without entropy =      -30.10023034  energy(sigma->0) =      -30.10023034


--------------------------------------------------------------------------------------------------------




----------------------------------------- Iteration    2(   3)  ---------------------------------------


    POTLOK:  cpu time    0.10: real time    0.11
    SETDIJ:  cpu time    0.01: real time    0.01
     EDDAV:  cpu time    0.88: real time    0.89
 BZINTS: Fermi energy:  0.322835; 60.000000 electrons
         Band energy:-116.545271;  BLOECHL correction: -0.276920
       DOS:  cpu time    0.00: real time    0.00
    CHARGE:  cpu time    0.09: real time    0.09
    MIXING:  cpu time    0.00: real time    0.01
    --------------------------------------------
      LOOP:  cpu time    1.10: real time    1.12

 eigenvalue-minimisations  :   364
 total energy-change (2. order) :-0.1527372E-04  (-0.1341155E-05)
 number of electron      60.0000009 magnetization 
 augmentation part       25.4002776 magnetization 

 Broyden mixing:
  rms(total) = 0.97352E-03    rms(broyden)= 0.97321E-03
  rms(prec ) = 0.14085E-02
  weight for this iteration     100.00

 eigenvalues of (default mixing * dielectric matrix)
  average eigenvalue GAMMA=   0.2875
  0.4910  0.0840

 Free energy of the ion-electron system (eV)
  ---------------------------------------------------
  alpha Z        PSCENC =       305.72458370
  Ewald energy   TEWEN  =     12569.23203592
  -1/2 Hartree   DENC   =    -17833.38230232
  -exchange  EXHF       =         0.00000000
  -V(xc)+E(xc)   XCENC  =      -177.95214629
  PAW double counting   =      4154.06573954    -3789.72039694
  entropy T*S    EENTRO =         0.00000000
  eigenvalues    EBANDS =      -116.54527080
  atomic energy  EATOM  =      4858.47751158
  ---------------------------------------------------
  free energy    TOTEN  =       -30.10024561 eV

  energy without entropy =      -30.10024561  energy(sigma->0) =      -30.10024561


--------------------------------------------------------------------------------------------------------




----------------------------------------- Iteration    2(   4)  ---------------------------------------


    POTLOK:  cpu time    0.10: real time    0.10
    SETDIJ:  cpu time    0.01: real time    0.01
     EDDAV:  cpu time    0.84: real time    0.85
 BZINTS: Fermi energy:  0.323010; 60.000000 electrons
         Band energy:-116.534830;  BLOECHL correction: -0.276912
       DOS:  cpu time    0.00: real time    0.00
    CHARGE:  cpu time    0.09: real time    0.09
    MIXING:  cpu time    0.01: real time    0.01
    --------------------------------------------
      LOOP:  cpu time    1.06: real time    1.08

 eigenvalue-minimisations  :   348
 total energy-change (2. order) : 0.9079794E-05  (-0.5268007E-06)
 number of electron      60.0000009 magnetization 
 augmentation part       25.4002283 magnetization 

 Broyden mixing:
  rms(total) = 0.26463E-03    rms(broyden)= 0.26436E-03
  rms(prec ) = 0.30325E-03
  weight for this iteration     100.00

 eigenvalues of (default mixing * dielectric matrix)
  average eigenvalue GAMMA=   0.3151
  0.4319  0.4319  0.0813

 Free energy of the ion-electron system (eV)
  ---------------------------------------------------
  alpha Z        PSCENC =       305.72458370
  Ewald energy   TEWEN  =     12569.23203592
  -1/2 Hartree   DENC   =    -17833.39274432
  -exchange  EXHF       =         0.00000000
  -V(xc)+E(xc)   XCENC  =      -177.95214997
  PAW double counting   =      4154.06650982    -3789.72115277
  entropy T*S    EENTRO =         0.00000000
  eigenvalues    EBANDS =      -116.53483049
  atomic energy  EATOM  =      4858.47751158
  ---------------------------------------------------
  free energy    TOTEN  =       -30.10023653 eV

  energy without entropy =      -30.10023653  energy(sigma->0) =      -30.10023653


--------------------------------------------------------------------------------------------------------




----------------------------------------- Iteration    2(   5)  ---------------------------------------


    POTLOK:  cpu time    0.10: real time    0.11
    SETDIJ:  cpu time    0.01: real time    0.01
     EDDAV:  cpu time    0.80: real time    0.81
 BZINTS: Fermi energy:  0.322979; 60.000000 electrons
         Band energy:-116.536128;  BLOECHL correction: -0.276912
       DOS:  cpu time    0.00: real time    0.00
    CHARGE:  cpu time    0.09: real time    0.09
    MIXING:  cpu time    0.00: real time    0.01
    --------------------------------------------
      LOOP:  cpu time    1.02: real time    1.04

 eigenvalue-minimisations  :   300
 total energy-change (2. order) : 0.1976743E-05  (-0.3421691E-07)
 number of electron      60.0000009 magnetization 
 augmentation part       25.4002305 magnetization 

 Broyden mixing:
  rms(total) = 0.23825E-03    rms(broyden)= 0.23823E-03
  rms(prec ) = 0.26065E-03
  weight for this iteration     100.00

 eigenvalues of (default mixing * dielectric matrix)
  average eigenvalue GAMMA=   0.7241
  1.5057  1.1417  0.0816  0.1674

 Free energy of the ion-electron system (eV)
  ---------------------------------------------------
  alpha Z        PSCENC =       305.72458370
  Ewald energy   TEWEN  =     12569.23203592
  -1/2 Hartree   DENC   =    -17833.39144458
  -exchange  EXHF       =         0.00000000
  -V(xc)+E(xc)   XCENC  =      -177.95214732
  PAW double counting   =      4154.06654195    -3789.72118766
  entropy T*S    EENTRO =         0.00000000
  eigenvalues    EBANDS =      -116.53612814
  atomic energy  EATOM  =      4858.47751158
  ---------------------------------------------------
  free energy    TOTEN  =       -30.10023456 eV

  energy without entropy =      -30.10023456  energy(sigma->0) =      -30.10023456


--------------------------------------------------------------------------------------------------------




----------------------------------------- Iteration    2(   6)  ---------------------------------------


    POTLOK:  cpu time    0.10: real time    0.10
    SETDIJ:  cpu time    0.01: real time    0.01
     EDDAV:  cpu time    0.78: real time    0.78
 BZINTS: Fermi energy:  0.322996; 60.000000 electrons
         Band energy:-116.535347;  BLOECHL correction: -0.276912
       DOS:  cpu time    0.00: real time    0.00
    CHARGE:  cpu time    0.09: real time    0.09
    MIXING:  cpu time    0.00: real time    0.01
    --------------------------------------------
      LOOP:  cpu time    0.99: real time    1.01

 eigenvalue-minimisations  :   300
 total energy-change (2. order) :-0.1038356E-05  (-0.4752691E-07)
 number of electron      60.0000009 magnetization 
 augmentation part       25.4002209 magnetization 

 Broyden mixing:
  rms(total) = 0.13270E-03    rms(broyden)= 0.13269E-03
  rms(prec ) = 0.16619E-03
  weight for this iteration     100.00

 eigenvalues of (default mixing * dielectric matrix)
  average eigenvalue GAMMA=   0.7172
  1.8922  0.9770  0.4673  0.0813  0.1681

 Free energy of the ion-electron system (eV)
  ---------------------------------------------------
  alpha Z        PSCENC =       305.72458370
  Ewald energy   TEWEN  =     12569.23203592
  -1/2 Hartree   DENC   =    -17833.39222241
  -exchange  EXHF       =         0.00000000
  -V(xc)+E(xc)   XCENC  =      -177.95215049
  PAW double counting   =      4154.06666073    -3789.72130715
  entropy T*S    EENTRO =         0.00000000
  eigenvalues    EBANDS =      -116.53534748
  atomic energy  EATOM  =      4858.47751158
  ---------------------------------------------------
  free energy    TOTEN  =       -30.10023560 eV

  energy without entropy =      -30.10023560  energy(sigma->0) =      -30.10023560


--------------------------------------------------------------------------------------------------------




----------------------------------------- Iteration    2(   7)  ---------------------------------------


    POTLOK:  cpu time    0.11: real time    0.11
    SETDIJ:  cpu time    0.01: real time    0.01
     EDDAV:  cpu time    0.78: real time    0.79
 BZINTS: Fermi energy:  0.323009; 60.000000 electrons
         Band energy:-116.534629;  BLOECHL correction: -0.276913
       DOS:  cpu time    0.00: real time    0.00
    CHARGE:  cpu time    0.09: real time    0.09
    MIXING:  cpu time    0.00: real time    0.01
    --------------------------------------------
      LOOP:  cpu time    1.01: real time    1.02

 eigenvalue-minimisations  :   300
 total energy-change (2. order) :-0.1306961E-05  (-0.2576248E-07)
 number of electron      60.0000009 magnetization 
 augmentation part       25.4002299 magnetization 

 Broyden mixing:
  rms(total) = 0.74509E-04    rms(broyden)= 0.74503E-04
  rms(prec ) = 0.11241E-03
  weight for this iteration     100.00

 eigenvalues of (default mixing * dielectric matrix)
  average eigenvalue GAMMA=   0.8302
  2.3047  0.9639  0.9639  0.4979  0.0814  0.1691

 Free energy of the ion-electron system (eV)
  ---------------------------------------------------
  alpha Z        PSCENC =       305.72458370
  Ewald energy   TEWEN  =     12569.23203592
  -1/2 Hartree   DENC   =    -17833.39294905
  -exchange  EXHF       =         0.00000000
  -V(xc)+E(xc)   XCENC  =      -177.95215159
  PAW double counting   =      4154.06681656    -3789.72145470
  entropy T*S    EENTRO =         0.00000000
  eigenvalues    EBANDS =      -116.53462932
  atomic energy  EATOM  =      4858.47751158
  ---------------------------------------------------
  free energy    TOTEN  =       -30.10023690 eV

  energy without entropy =      -30.10023690  energy(sigma->0) =      -30.10023690


--------------------------------------------------------------------------------------------------------




----------------------------------------- Iteration    2(   8)  ---------------------------------------


    POTLOK:  cpu time    0.10: real time    0.10
    SETDIJ:  cpu time    0.01: real time    0.01
     EDDAV:  cpu time    0.78: real time    0.79
 BZINTS: Fermi energy:  0.322987; 60.000000 electrons
         Band energy:-116.535916;  BLOECHL correction: -0.276913
       DOS:  cpu time    0.00: real time    0.00
    --------------------------------------------
      LOOP:  cpu time    0.90: real time    0.92

 eigenvalue-minimisations  :   300
 total energy-change (2. order) : 0.2462775E-06  (-0.2261203E-07)
 number of electron      60.0000009 magnetization 
 augmentation part       25.4002299 magnetization 

 Free energy of the ion-electron system (eV)
  ---------------------------------------------------
  alpha Z        PSCENC =       305.72458370
  Ewald energy   TEWEN  =     12569.23203592
  -1/2 Hartree   DENC   =    -17833.39166321
  -exchange  EXHF       =         0.00000000
  -V(xc)+E(xc)   XCENC  =      -177.95214542
  PAW double counting   =      4154.06696457    -3789.72160761
  entropy T*S    EENTRO =         0.00000000
  eigenvalues    EBANDS =      -116.53591618
  atomic energy  EATOM  =      4858.47751158
  ---------------------------------------------------
  free energy    TOTEN  =       -30.10023666 eV

  energy without entropy =      -30.10023666  energy(sigma->0) =      -30.10023666


--------------------------------------------------------------------------------------------------------




 average (electrostatic) potential at core
  the test charge radii are     1.1199
  (the norm of the test charge is              1.0000)
       1 -50.8770       2 -51.2055       3 -51.1781       4 -51.1784       5 -51.2053
       6 -50.8774
 
 
 
 E-fermi :   0.3230     XC(G=0):  -8.1509     alpha+bet : -6.5480


 k-point   1 :       0.0000    0.0000    0.0000
  band No.  band energies     occupation 
      1      -6.2421      2.00000
      2      -5.6423      2.00000
      3      -4.9157      2.00000
      4      -4.5840      2.00000
      5      -4.3523      2.00000
      6      -4.3496      2.00000
      7      -2.3781      2.00000
      8      -2.3533      2.00000
      9      -2.2685      2.00000
     10      -2.2685      2.00000
     11      -2.2114      2.00000
     12      -2.2114      2.00000
     13      -2.1415      2.00000
     14      -2.1230      2.00000
     15      -2.1230      2.00000
     16      -2.0466      2.00000
     17      -2.0466      2.00000
     18      -1.8961      2.00000
     19      -1.8961      2.00000
     20      -1.8613      2.00000
     21      -1.8613      2.00000
     22      -1.5550      2.00000
     23      -0.8104      2.00000
     24      -0.8104      2.00000
     25      -0.7675      2.00000
     26      -0.7675      2.00000
     27      -0.5710      2.00000
     28      -0.5710      2.00000
     29      -0.3030      2.00000
     30      -0.2318      2.00000
     31      -0.2318      2.00000
     32       0.1133      2.00000
     33       0.1133      2.00000
     34       0.2834      2.00000
     35       0.2834      0.05537
     36       1.2594      0.00000

 k-point   2 :       0.1429    0.0000    0.0000
  band No.  band energies     occupation 
      1      -5.6451      2.00000
      2      -5.0767      2.00000
      3      -4.3808      2.00000
      4      -4.1427      2.00000
      5      -3.9010      2.00000
      6      -3.8423      2.00000
      7      -2.8219      2.00000
      8      -2.6465      2.00000
      9      -2.5790      2.00000
     10      -2.4708      2.00000
     11      -2.3842      2.00000
     12      -2.1895      2.00000
     13      -2.0318      2.00000
     14      -1.9955      2.00000
     15      -1.9784      2.00000
     16      -1.9074      2.00000
     17      -1.8900      2.00000
     18      -1.8060      2.00000
     19      -1.7438      2.00000
     20      -1.7304      2.00000
     21      -1.5557      2.00000
     22      -1.5405      2.00000
     23      -1.4991      2.00000
     24      -1.1080      2.00000
     25      -1.0666      2.00000
     26      -0.9088      2.00000
     27      -0.7679      2.00000
     28      -0.7288      2.00000
     29      -0.5340      2.00000
     30      -0.4274      2.00000
     31      -0.2244      2.00000
     32       0.1259      2.00000
     33       0.2383      2.00788
     34       0.3119      0.84624
     35       1.2974     -0.00770
     36       2.6127      0.00000

 k-point   3 :       0.2857    0.0000    0.0000
  band No.  band energies     occupation 
      1      -4.4960      2.00000
      2      -4.1893      2.00000
      3      -4.0322      2.00000
      4      -3.8686      2.00000
      5      -3.6761      2.00000
      6      -3.5426      2.00000
      7      -3.3483      2.00000
      8      -3.2656      2.00000
      9      -2.9088      2.00000
     10      -2.5225      2.00000
     11      -2.4633      2.00000
     12      -2.1575      2.00000
     13      -2.0775      2.00000
     14      -1.9784      2.00000
     15      -1.9473      2.00000
     16      -1.7001      2.00000
     17      -1.6014      2.00000
     18      -1.3932      2.00000
     19      -1.2236      2.00000
     20      -1.1992      2.00000
     21      -1.0673      2.00000
     22      -0.9384      2.00000
     23      -0.7482      2.00000
     24      -0.7329      2.00000
     25      -0.6219      2.00000
     26      -0.5994      2.00000
     27      -0.4929      2.04560
     28      -0.4183      2.11922
     29      -0.2803      2.23117
     30      -0.1517      2.16879
     31       0.0799      1.28366
     32       0.1406      1.11143
     33       0.3638      0.58668
     34       1.3502     -0.00286
     35       2.8935      0.00000
     36       4.5716      0.00000

 k-point   4 :       0.4286    0.0000    0.0000
  band No.  band energies     occupation 
      1      -4.4687      2.00000
      2      -4.4246      2.00000
      3      -4.2243      2.00000
      4      -4.1694      2.00000
      5      -4.0579      2.00000
      6      -3.8345      2.00000
      7      -3.8113      2.00000
      8      -3.6930      2.00000
      9      -3.2005      2.00000
     10      -2.6648      2.00000
     11      -2.4014      2.00000
     12      -2.3103      2.00000
     13      -2.1603      2.00000
     14      -1.7560      2.00000
     15      -1.6996      2.00000
     16      -1.3945      2.00000
     17      -1.1959      2.00000
     18      -0.9289      2.00000
     19      -0.5825      2.00000
     20      -0.4685      2.00000
     21      -0.1033      2.00000
     22      -0.0679      2.00000
     23       0.1894      2.00000
     24       0.1990      2.00000
     25       0.2489      2.00000
     26       0.2740      2.00000
     27       0.3484      1.45352
     28       0.4140      0.72358
     29       0.4662      0.21714
     30       0.5158      0.12607
     31       1.1399     -0.02650
     32       1.8441     -0.02815
     33       2.2145      0.00000
     34       3.0411      0.00000
     35       4.4066      0.00000
     36       5.6906      0.00000

 k-point   5 :       0.2857    0.1429    0.0000
  band No.  band energies     occupation 
      1      -4.6533      2.00000
      2      -4.2479      2.00000
      3      -3.7341      2.00000
      4      -3.5118      2.00000
      5      -3.4046      2.00000
      6      -3.2791      2.00000
      7      -3.1405      2.00000
      8      -3.1031      2.00000
      9      -2.9406      2.00000
     10      -2.8387      2.00000
     11      -2.5810      2.00000
     12      -2.5036      2.00000
     13      -2.3997      2.00000
     14      -2.2822      2.00000
     15      -2.1119      2.00000
     16      -2.0217      2.00000
     17      -1.9406      2.00000
     18      -1.7236      2.00000
     19      -1.5553      2.00000
     20      -1.3813      2.00000
     21      -1.2568      2.00000
     22      -1.1252      2.00000
     23      -1.1228      2.00000
     24      -0.8672      2.00000
     25      -0.7812      2.00000
     26      -0.5778      2.00000
     27      -0.5154      2.00000
     28      -0.4551      2.00000
     29      -0.2584      2.00000
     30      -0.2278      2.13908
     31      -0.0482      1.63566
     32       0.1349      1.41906
     33       0.1587      1.34570
     34       1.1550     -0.15038
     35       2.5099      0.00000
     36       4.0729      0.00000

 k-point   6 :       0.4286    0.1429    0.0000
  band No.  band energies     occupation 
      1      -4.0460      2.00000
      2      -4.0100      2.00000
      3      -3.8205      2.00000
      4      -3.6869      2.00000
      5      -3.6564      2.00000
      6      -3.5102      2.00000
      7      -3.3981      2.00000
      8      -3.1451      2.00000
      9      -3.0513      2.00000
     10      -2.7962      2.00000
     11      -2.4380      2.00000
     12      -2.4157      2.00000
     13      -2.2778      2.00000
     14      -2.0037      2.00000
     15      -1.9492      2.00000
     16      -1.8614      2.00000
     17      -1.5772      2.00000
     18      -1.4618      2.00000
     19      -1.3441      2.00000
     20      -1.2046      2.00000
     21      -0.9986      2.00000
     22      -0.7667      2.00000
     23      -0.7319      2.00000
     24      -0.5435      2.00000
     25      -0.2755      2.00000
     26      -0.2511      2.00000
     27       0.1919      2.00828
     28       0.2107      1.99199
     29       0.3098      1.52750
     30       0.4429      0.48512
     31       1.3169     -0.11608
     32       1.4931     -0.13911
     33       1.9085     -0.12179
     34       2.9477      0.00000
     35       4.4219      0.00000
     36       6.0974      0.00000

 k-point   7 :      -0.4286    0.1429    0.0000
  band No.  band energies     occupation 
      1      -4.2747      2.00000
      2      -4.1282      2.00000
      3      -4.0088      2.00000
      4      -3.8997      2.00000
      5      -3.7411      2.00000
      6      -3.6926      2.00000
      7      -3.5207      2.00000
      8      -3.3568      2.00000
      9      -3.1406      2.00000
     10      -2.8351      2.00000
     11      -2.6809      2.00000
     12      -2.1955      2.00000
     13      -2.1606      2.00000
     14      -2.0172      2.00000
     15      -1.8164      2.00000
     16      -1.6491      2.00000
     17      -1.3295      2.00000
     18      -1.0990      2.00000
     19      -1.0446      2.00000
     20      -0.6445      2.00000
     21      -0.5579      2.00000
     22      -0.4991      2.00000
     23      -0.2181      2.00000
     24      -0.0598      2.00000
     25       0.0941      2.00000
     26       0.1051      2.00000
     27       0.1820      2.14231
     28       0.2131      1.96855
     29       0.3759      0.02265
     30       0.4825      0.00000
     31       3.4713      0.00000
     32       3.9946      0.00000
     33       4.4483      0.00000
     34       4.7821      0.00000
     35       5.0541      0.00000
     36       5.2033      0.00000

 k-point   8 :      -0.4286    0.2857    0.0000
  band No.  band energies     occupation 
      1      -3.7706      2.00000
      2      -3.7701      2.00000
      3      -3.5615      2.00000
      4      -3.3974      2.00000
      5      -3.3082      2.00000
      6      -3.1706      2.00000
      7      -3.1522      2.00000
      8      -3.0221      2.00000
      9      -3.0152      2.00000
     10      -2.7644      2.00000
     11      -2.7475      2.00000
     12      -2.4380      2.00000
     13      -2.3866      2.00000
     14      -2.1808      2.00000
     15      -2.0153      2.00000
     16      -1.7957      2.00000
     17      -1.7463      2.00000
     18      -1.6201      2.00000
     19      -1.5900      2.00000
     20      -1.1733      2.00000
     21      -1.0843      2.00000
     22      -0.8912      2.00000
     23      -0.7422      2.00000
     24      -0.6845      2.00000
     25      -0.3436      2.00000
     26      -0.0857      2.00000
     27       0.1658      2.00000
     28       0.2413      2.00000
     29       0.2775      2.00722
     30       0.4317      0.00000
     31       4.1169      0.00000
     32       4.4974      0.00000
     33       5.1304      0.00000
     34       6.0571      0.00000
     35       7.1875      0.00000
     36       7.8617      0.00000


--------------------------------------------------------------------------------------------------------


 soft charge-density along one line, spin component           1
         0         1         2         3         4         5         6         7         8         9
 total charge-density along one line
 
 pseudopotential strength for first ion, spin component:           1
-11.401   0.000   0.000   0.000   0.000   0.000  -0.011   0.000   0.000   0.000   0.110   0.000   0.000   0.000   0.000   0.000
  0.000   0.000 -11.289   0.000   0.000   0.000   0.000   0.000  -0.011   0.000   0.000   0.000   0.092   0.000   0.000   0.000
  0.000   0.000   0.000   0.000 -11.271   0.000   0.000   0.000   0.000   0.000   0.000   0.000   0.000   0.000   0.089   0.000
 -0.011   0.000   0.000   0.000   0.000   0.000 -11.289   0.000   0.000   0.000   0.002   0.000   0.000   0.000   0.000   0.000
  0.000   0.000  -0.011   0.000   0.000   0.000   0.000   0.000 -11.401   0.000   0.000   0.000   0.002   0.000   0.000   0.000
  0.110   0.000   0.000   0.000   0.000   0.000   0.002   0.000   0.000   0.000   0.323   0.000   0.000   0.000   0.000   0.000
  0.000   0.000   0.092   0.000   0.000   0.000   0.000   0.000   0.002   0.000   0.000   0.000   0.326   0.000   0.000   0.000
  0.000   0.000   0.000   0.000   0.089   0.000   0.000   0.000   0.000   0.000   0.000   0.000   0.000   0.000   0.327   0.000
  0.002   0.000   0.000   0.000   0.000   0.000   0.092   0.000   0.000   0.000   0.000   0.000   0.000   0.000   0.000   0.000
  0.000   0.000   0.002   0.000   0.000   0.000   0.000   0.000   0.110   0.000   0.000   0.000   0.000   0.000   0.000   0.000
  0.000   0.000   0.000   0.000  -0.029   0.000   0.000   0.000   0.000   0.000   0.000   0.000   0.000   0.000   0.004   0.000
  0.000   0.000   0.000   0.000   0.002   0.000   0.000   0.000   0.000   0.000   0.000   0.000   0.000   0.000   0.000   0.000
  0.000   0.000  -0.011   0.000   0.000   0.000   0.000   0.000   0.000   0.000   0.000   0.000   0.002   0.000   0.000   0.000
  0.000   0.000   0.000   0.000  -0.012   0.000   0.000   0.000   0.000   0.000   0.000   0.000   0.000   0.000   0.002   0.000
  0.000   0.000   0.000   0.000   0.000   0.000  -0.011   0.000   0.000   0.000   0.000   0.000   0.000   0.000   0.000   0.000
  0.000   0.000   0.010   0.000   0.000   0.000   0.000   0.000   0.000   0.000   0.000   0.000  -0.002   0.000   0.000   0.000
  0.000   0.000   0.000   0.000   0.010   0.000   0.000   0.000   0.000   0.000   0.000   0.000   0.000   0.000  -0.002   0.000
  0.000   0.000   0.000   0.000   0.000   0.000   0.010   0.000   0.000   0.000   0.000   0.000   0.000   0.000   0.000   0.000
 total augmentation occupancy for first ion, spin component:           1
  1.724   0.000   0.000  -0.042   0.000   0.132   0.000   0.000   0.021   0.000   0.000   0.000   0.000   0.000   0.003   0.000
  0.000   1.854   0.000   0.000  -0.042   0.000   0.052   0.000   0.000   0.023   0.000   0.000  -0.015   0.000   0.000  -0.015
  0.000   0.000   1.833   0.000   0.000   0.000   0.000   0.078   0.000   0.000   0.016  -0.063   0.000   0.025   0.000   0.000
 -0.042   0.000   0.000   1.854   0.000   0.023   0.000   0.000   0.052   0.000   0.000   0.000   0.000   0.000  -0.015   0.000
  0.000  -0.042   0.000   0.000   1.724   0.000   0.021   0.000   0.000   0.132   0.000   0.000   0.003   0.000   0.000   0.001
  0.132   0.000   0.000   0.023   0.000   0.114   0.000   0.000   0.003   0.000   0.000   0.000   0.000   0.000   0.006   0.000
  0.000   0.052   0.000   0.000   0.021   0.000   0.090   0.000   0.000   0.003   0.000   0.000   0.033   0.000   0.000  -0.001
  0.000   0.000   0.078   0.000   0.000   0.000   0.000   0.118   0.000   0.000  -0.112   0.029   0.000   0.045   0.000   0.000
  0.021   0.000   0.000   0.052   0.000   0.003   0.000   0.000   0.090   0.000   0.000   0.000   0.000   0.000   0.033   0.000
  0.000   0.023   0.000   0.000   0.132   0.000   0.003   0.000   0.000   0.114   0.000   0.000   0.006   0.000   0.000   0.000
  0.000   0.000   0.016   0.000   0.000   0.000   0.000  -0.112   0.000   0.000   1.000  -0.327   0.000   0.073   0.000   0.000
  0.000   0.000  -0.063   0.000   0.000   0.000   0.000   0.029   0.000   0.000  -0.327   0.121   0.000  -0.039   0.000   0.000
  0.000  -0.015   0.000   0.000   0.003   0.000   0.033   0.000   0.000   0.006   0.000   0.000   0.110   0.000   0.000  -0.002
  0.000   0.000   0.025   0.000   0.000   0.000   0.000   0.045   0.000   0.000   0.073  -0.039   0.000   0.062   0.000   0.000
  0.003   0.000   0.000  -0.015   0.000   0.006   0.000   0.000   0.033   0.000   0.000   0.000   0.000   0.000   0.110   0.000
  0.000  -0.015   0.000   0.000   0.001   0.000  -0.001   0.000   0.000   0.000   0.000   0.000  -0.002   0.000   0.000   0.000
  0.000   0.000  -0.020   0.000   0.000   0.000   0.000  -0.001   0.000   0.000  -0.004   0.002   0.000  -0.001   0.000   0.000
  0.001   0.000   0.000  -0.015   0.000   0.000   0.000   0.000  -0.001   0.000   0.000   0.000   0.000   0.000  -0.002   0.000


------------------------ aborting loop because EDIFF is reached ----------------------------------------


    CHARGE:  cpu time    0.09: real time    0.09
    FORLOC:  cpu time    0.01: real time    0.01
    FORNL :  cpu time    0.46: real time    0.46
    STRESS:  cpu time    0.78: real time    0.78
    FORCOR:  cpu time    0.11: real time    0.11
    FORHAR:  cpu time    0.04: real time    0.03
    MIXING:  cpu time    0.01: real time    0.01

  FORCE on cell =-STRESS in cart. coord.  units (eV):
  Direction    XX          YY          ZZ          XY          YZ          ZX
  --------------------------------------------------------------------------------------
  Alpha Z   305.72458   305.72458   305.72458
  Ewald   15895.40316 15895.40316-19221.57435     0.00000     0.00000     0.00000
  Hartree 17347.64055 17347.64055-16861.87325     0.00000     0.00000     0.00000
  E(xc)    -313.68034  -313.68036  -314.84506     0.00001     0.00000     0.00000
  Local  -33986.07276-33986.07304 35332.65175     0.00024     0.00000     0.00000
  n-local  -332.70593  -308.72349  -323.35237     5.24077    -3.07795     1.50814
  augment   256.59437   256.59462   260.11324    -0.00022     0.00000     0.00000
  Kinetic   802.63377   823.38853   822.58948     5.32386     2.99148    -0.72220
  Fock        0.00000     0.00000     0.00000     0.00000     0.00000     0.00000
  -------------------------------------------------------------------------------------
  Total      -2.09402    -2.09402    -0.56598     0.00000     0.00000     0.00000
  in kB     -20.92707   -20.92707    -5.65623     0.00000     0.00000     0.00000
  external pressure =      -15.84 kB  Pullay stress =        0.00 kB


 VOLUME and BASIS-vectors are now :
 -----------------------------------------------------------------------------
  energy-cutoff  :      415.00
  volume of cell :      160.32
      direct lattice vectors                 reciprocal lattice vectors
     2.795185513  0.000000000  0.000000000     0.357758008 -0.206551682  0.000000000
     1.397592758  2.420701664  0.000000000     0.000000000  0.413103364  0.000000000
     0.000000000  0.000000000 23.693556493     0.000000000  0.000000000  0.042205568

  length of vectors
     2.795185513  2.795185515 23.693556493     0.413103364  0.413103364  0.042205568


 FORCES acting on ions
    electron-ion (+dipol)            ewald-force                    non-local-force                 convergence-correction
 -----------------------------------------------------------------------------------------------
   0.170E-06 0.127E-06 0.281E+04   0.259E-07 -.244E-07 -.281E+04   0.607E-17 -.867E-18 -.126E+01   -.331E-10 -.192E-10 -.146E-02
   0.197E-07 0.113E-07 -.564E+03   -.145E-11 0.137E-11 0.564E+03   0.304E-17 0.000E+00 -.447E-01   0.538E-11 0.310E-11 0.125E-02
   0.730E-06 0.421E-06 0.169E+04   0.455E-09 0.422E-09 -.169E+04   -.130E-17 0.434E-18 -.255E-01   0.124E-11 0.696E-12 -.521E-02
   0.709E-06 0.410E-06 -.169E+04   0.667E-09 0.225E-09 0.169E+04   0.195E-17 -.434E-18 0.255E-01   -.339E-11 -.196E-11 0.521E-02
   -.699E-06 -.404E-06 0.564E+03   -.560E-09 -.326E-09 -.564E+03   -.304E-17 0.000E+00 0.447E-01   -.767E-11 -.444E-11 -.125E-02
   -.164E-06 -.124E-06 -.281E+04   -.264E-07 0.241E-07 0.281E+04   -.347E-17 0.434E-17 0.126E+01   0.332E-10 0.192E-10 0.146E-02
 -----------------------------------------------------------------------------------------------
   0.765E-06 0.442E-06 -.152E-02   0.166E-12 -.707E-13 0.000E+00   0.325E-17 0.347E-17 -.444E-15   -.436E-11 -.257E-11 0.459E-05
 
 
 POSITION                                       TOTAL-FORCE (eV/Angst)
 -----------------------------------------------------------------------------------
      0.00000      0.00000     -0.00002         0.000000      0.000000     -0.002180
      0.00000      0.00000      6.84668         0.000000      0.000000     -0.020188
      1.39759      0.80690      2.28252         0.000000      0.000000      0.052826
      1.39759      0.80690      9.12878         0.000000      0.000000     -0.052826
      2.79519      1.61380      4.56461         0.000000      0.000000      0.020188
      2.79519      1.61380     11.41131         0.000000      0.000000      0.002180
 -----------------------------------------------------------------------------------
    total drift:                                0.000001      0.000000     -0.001519


--------------------------------------------------------------------------------------------------------



  FREE ENERGIE OF THE ION-ELECTRON SYSTEM (eV)
  ---------------------------------------------------
  free  energy   TOTEN  =       -30.10023666 eV

  energy  without entropy=      -30.10023666  energy(sigma->0) =      -30.10023666
 
 d Force = 0.3136387E-04[ 0.312E-04, 0.315E-04]  d Energy = 0.3572007E-04-0.436E-05
 d Force =-0.8882030E+00[-0.888E+00,-0.888E+00]  d Ewald  =-0.8882030E+00-0.184E-09


--------------------------------------------------------------------------------------------------------


    POTLOK:  cpu time    0.11: real time    0.11


--------------------------------------------------------------------------------------------------------


 Steepest descent step on ions:
 trial-energy change:   -0.000036  1 .order   -0.000031   -0.000032   -0.000031
  (g-gl).g = 0.315E-04      g.g   = 0.315E-04  gl.gl    = 0.000E+00
 g(Force)  = 0.315E-04   g(Stress)= 0.000E+00 ortho     = 0.000E+00
 gamma     =   0.00000
 trial     =   1.00000
 opt step  =   4.00000  (harmonic =  98.02807) maximal distance =0.00103252
 next E    =   -30.101746   (d E  =  -0.00155)


--------------------------------------------------------------------------------------------------------


    WAVPRE:  cpu time    0.03: real time    0.03
 FEWALD executed in parallel
    FEWALD:  cpu time    0.00: real time    0.00
    ORTHCH:  cpu time    0.11: real time    0.11
     LOOP+:  cpu time   11.05: real time   11.23


----------------------------------------- Iteration    3(   1)  ---------------------------------------


    POTLOK:  cpu time    0.10: real time    0.10
    SETDIJ:  cpu time    0.01: real time    0.01
     EDDAV:  cpu time    1.19: real time    1.19
 BZINTS: Fermi energy:  0.323015; 60.000000 electrons
         Band energy:-116.535230;  BLOECHL correction: -0.276978
       DOS:  cpu time    0.00: real time    0.00
    CHARGE:  cpu time    0.09: real time    0.09
    MIXING:  cpu time    0.00: real time    0.00
    --------------------------------------------
      LOOP:  cpu time    1.40: real time    1.41

 eigenvalue-minimisations  :   576
 total energy-change (2. order) :-0.8342811E-04  (-0.8243219E-03)
 number of electron      60.0000010 magnetization 
 augmentation part       25.4001203 magnetization 

 Broyden mixing:
  rms(total) = 0.11218E-02    rms(broyden)= 0.11204E-02
  rms(prec ) = 0.12066E-02
  weight for this iteration     100.00

 Free energy of the ion-electron system (eV)
  ---------------------------------------------------
  alpha Z        PSCENC =       305.72458370
  Ewald energy   TEWEN  =     12571.89722423
  -1/2 Hartree   DENC   =    -17836.05751453
  -exchange  EXHF       =         0.00000000
  -V(xc)+E(xc)   XCENC  =      -177.95225807
  PAW double counting   =      4154.06696869    -3789.72160626
  entropy T*S    EENTRO =         0.00000000
  eigenvalues    EBANDS =      -116.53522967
  atomic energy  EATOM  =      4858.47751158
  ---------------------------------------------------
  free energy    TOTEN  =       -30.10032033 eV

  energy without entropy =      -30.10032033  energy(sigma->0) =      -30.10032033


--------------------------------------------------------------------------------------------------------




----------------------------------------- Iteration    3(   2)  ---------------------------------------


    POTLOK:  cpu time    0.10: real time    0.10
    SETDIJ:  cpu time    0.01: real time    0.01
     EDDAV:  cpu time    1.60: real time    1.61
 BZINTS: Fermi energy:  0.323232; 60.000000 electrons
         Band energy:-116.520377;  BLOECHL correction: -0.276954
       DOS:  cpu time    0.00: real time    0.00
    CHARGE:  cpu time    0.09: real time    0.09
    MIXING:  cpu time    0.00: real time    0.00
    --------------------------------------------
      LOOP:  cpu time    1.81: real time    1.83

 eigenvalue-minimisations  :   860
 total energy-change (2. order) : 0.1385224E-06  (-0.2793423E-04)
 number of electron      60.0000010 magnetization 
 augmentation part       25.4001794 magnetization 

 Broyden mixing:
  rms(total) = 0.24759E-02    rms(broyden)= 0.24755E-02
  rms(prec ) = 0.36784E-02
  weight for this iteration     100.00

 eigenvalues of (default mixing * dielectric matrix)
  average eigenvalue GAMMA=   0.2643
  0.2643

 Free energy of the ion-electron system (eV)
  ---------------------------------------------------
  alpha Z        PSCENC =       305.72458370
  Ewald energy   TEWEN  =     12571.89722423
  -1/2 Hartree   DENC   =    -17836.07230326
  -exchange  EXHF       =         0.00000000
  -V(xc)+E(xc)   XCENC  =      -177.95228217
  PAW double counting   =      4154.05989168    -3789.71456931
  entropy T*S    EENTRO =         0.00000000
  eigenvalues    EBANDS =      -116.52037664
  atomic energy  EATOM  =      4858.47751158
  ---------------------------------------------------
  free energy    TOTEN  =       -30.10032019 eV

  energy without entropy =      -30.10032019  energy(sigma->0) =      -30.10032019


--------------------------------------------------------------------------------------------------------




----------------------------------------- Iteration    3(   3)  ---------------------------------------


    POTLOK:  cpu time    0.11: real time    0.11
    SETDIJ:  cpu time    0.01: real time    0.01
     EDDAV:  cpu time    1.46: real time    1.47
 BZINTS: Fermi energy:  0.322427; 60.000000 electrons
         Band energy:-116.570559;  BLOECHL correction: -0.276998
       DOS:  cpu time    0.00: real time    0.00
    CHARGE:  cpu time    0.09: real time    0.09
    MIXING:  cpu time    0.01: real time    0.00
    --------------------------------------------
      LOOP:  cpu time    1.68: real time    1.70

 eigenvalue-minimisations  :   764
 total energy-change (2. order) :-0.5129242E-04  (-0.1362790E-04)
 number of electron      60.0000010 magnetization 
 augmentation part       25.4003927 magnetization 

 Broyden mixing:
  rms(total) = 0.29153E-02    rms(broyden)= 0.29143E-02
  rms(prec ) = 0.42596E-02
  weight for this iteration     100.00

 eigenvalues of (default mixing * dielectric matrix)
  average eigenvalue GAMMA=   0.2992
  0.5143  0.0842

 Free energy of the ion-electron system (eV)
  ---------------------------------------------------
  alpha Z        PSCENC =       305.72458370
  Ewald energy   TEWEN  =     12571.89722423
  -1/2 Hartree   DENC   =    -17836.02218909
  -exchange  EXHF       =         0.00000000
  -V(xc)+E(xc)   XCENC  =      -177.95226632
  PAW double counting   =      4154.05934195    -3789.71401887
  entropy T*S    EENTRO =         0.00000000
  eigenvalues    EBANDS =      -116.57055866
  atomic energy  EATOM  =      4858.47751158
  ---------------------------------------------------
  free energy    TOTEN  =       -30.10037148 eV

  energy without entropy =      -30.10037148  energy(sigma->0) =      -30.10037148


--------------------------------------------------------------------------------------------------------




----------------------------------------- Iteration    3(   4)  ---------------------------------------


    POTLOK:  cpu time    0.10: real time    0.10
    SETDIJ:  cpu time    0.01: real time    0.01
     EDDAV:  cpu time    0.95: real time    0.96
 BZINTS: Fermi energy:  0.322982; 60.000000 electrons
         Band energy:-116.537850;  BLOECHL correction: -0.276971
       DOS:  cpu time    0.00: real time    0.00
    CHARGE:  cpu time    0.09: real time    0.09
    MIXING:  cpu time    0.00: real time    0.01
    --------------------------------------------
      LOOP:  cpu time    1.16: real time    1.18

 eigenvalue-minimisations  :   420
 total energy-change (2. order) : 0.3186593E-04  (-0.4796499E-05)
 number of electron      60.0000010 magnetization 
 augmentation part       25.4002303 magnetization 

 Broyden mixing:
  rms(total) = 0.77650E-03    rms(broyden)= 0.77569E-03
  rms(prec ) = 0.90456E-03
  weight for this iteration     100.00

 eigenvalues of (default mixing * dielectric matrix)
  average eigenvalue GAMMA=   0.2913
  0.3964  0.3964  0.0809

 Free energy of the ion-electron system (eV)
  ---------------------------------------------------
  alpha Z        PSCENC =       305.72458370
  Ewald energy   TEWEN  =     12571.89722423
  -1/2 Hartree   DENC   =    -17836.05490797
  -exchange  EXHF       =         0.00000000
  -V(xc)+E(xc)   XCENC  =      -177.95227074
  PAW double counting   =      4154.06205462    -3789.71668467
  entropy T*S    EENTRO =         0.00000000
  eigenvalues    EBANDS =      -116.53785037
  atomic energy  EATOM  =      4858.47751158
  ---------------------------------------------------
  free energy    TOTEN  =       -30.10033962 eV

  energy without entropy =      -30.10033962  energy(sigma->0) =      -30.10033962


--------------------------------------------------------------------------------------------------------




----------------------------------------- Iteration    3(   5)  ---------------------------------------


    POTLOK:  cpu time    0.10: real time    0.10
    SETDIJ:  cpu time    0.01: real time    0.01
     EDDAV:  cpu time    0.80: real time    0.81
 BZINTS: Fermi energy:  0.322876; 60.000000 electrons
         Band energy:-116.542257;  BLOECHL correction: -0.276971
       DOS:  cpu time    0.00: real time    0.00
    CHARGE:  cpu time    0.09: real time    0.09
    MIXING:  cpu time    0.00: real time    0.01
    --------------------------------------------
      LOOP:  cpu time    1.01: real time    1.04

 eigenvalue-minimisations  :   300
 total energy-change (2. order) : 0.7033332E-05  (-0.2663181E-06)
 number of electron      60.0000010 magnetization 
 augmentation part       25.4002303 magnetization 

 Broyden mixing:
  rms(total) = 0.67993E-03    rms(broyden)= 0.67988E-03
  rms(prec ) = 0.74556E-03
  weight for this iteration     100.00

 eigenvalues of (default mixing * dielectric matrix)
  average eigenvalue GAMMA=   0.7195
  1.4938  1.1341  0.0813  0.1687

 Free energy of the ion-electron system (eV)
  ---------------------------------------------------
  alpha Z        PSCENC =       305.72458370
  Ewald energy   TEWEN  =     12571.89722423
  -1/2 Hartree   DENC   =    -17836.05049057
  -exchange  EXHF       =         0.00000000
  -V(xc)+E(xc)   XCENC  =      -177.95226093
  PAW double counting   =      4154.06207457    -3789.71671796
  entropy T*S    EENTRO =         0.00000000
  eigenvalues    EBANDS =      -116.54225720
  atomic energy  EATOM  =      4858.47751158
  ---------------------------------------------------
  free energy    TOTEN  =       -30.10033259 eV

  energy without entropy =      -30.10033259  energy(sigma->0) =      -30.10033259


--------------------------------------------------------------------------------------------------------




----------------------------------------- Iteration    3(   6)  ---------------------------------------


    POTLOK:  cpu time    0.10: real time    0.10
    SETDIJ:  cpu time    0.01: real time    0.01
     EDDAV:  cpu time    1.23: real time    1.24
 BZINTS: Fermi energy:  0.322898; 60.000000 electrons
         Band energy:-116.541586;  BLOECHL correction: -0.276972
       DOS:  cpu time    0.00: real time    0.00
    CHARGE:  cpu time    0.09: real time    0.09
    MIXING:  cpu time    0.00: real time    0.01
    --------------------------------------------
      LOOP:  cpu time    1.44: real time    1.47

 eigenvalue-minimisations  :   612
 total energy-change (2. order) :-0.2000892E-05  (-0.6040136E-06)
 number of electron      60.0000010 magnetization 
 augmentation part       25.4002191 magnetization 

 Broyden mixing:
  rms(total) = 0.31027E-03    rms(broyden)= 0.31023E-03
  rms(prec ) = 0.40199E-03
  weight for this iteration     100.00

 eigenvalues of (default mixing * dielectric matrix)
  average eigenvalue GAMMA=   0.8229
  2.2609  0.8000  0.8000  0.0812  0.1723

 Free energy of the ion-electron system (eV)
  ---------------------------------------------------
  alpha Z        PSCENC =       305.72458370
  Ewald energy   TEWEN  =     12571.89722423
  -1/2 Hartree   DENC   =    -17836.05112790
  -exchange  EXHF       =         0.00000000
  -V(xc)+E(xc)   XCENC  =      -177.95227015
  PAW double counting   =      4154.06179508    -3789.71646523
  entropy T*S    EENTRO =         0.00000000
  eigenvalues    EBANDS =      -116.54158589
  atomic energy  EATOM  =      4858.47751158
  ---------------------------------------------------
  free energy    TOTEN  =       -30.10033459 eV

  energy without entropy =      -30.10033459  energy(sigma->0) =      -30.10033459


--------------------------------------------------------------------------------------------------------




----------------------------------------- Iteration    3(   7)  ---------------------------------------


    POTLOK:  cpu time    0.11: real time    0.11
    SETDIJ:  cpu time    0.01: real time    0.01
     EDDAV:  cpu time    0.78: real time    0.79
 BZINTS: Fermi energy:  0.322929; 60.000000 electrons
         Band energy:-116.540196;  BLOECHL correction: -0.276974
       DOS:  cpu time    0.00: real time    0.00
    CHARGE:  cpu time    0.09: real time    0.09
    MIXING:  cpu time    0.00: real time    0.01
    --------------------------------------------
      LOOP:  cpu time    1.01: real time    1.02

 eigenvalue-minimisations  :   300
 total energy-change (2. order) :-0.3541003E-05  (-0.5084037E-07)
 number of electron      60.0000010 magnetization 
 augmentation part       25.4001939 magnetization 

 Broyden mixing:
  rms(total) = 0.15124E-03    rms(broyden)= 0.15122E-03
  rms(prec ) = 0.22420E-03
  weight for this iteration     100.00

 eigenvalues of (default mixing * dielectric matrix)
  average eigenvalue GAMMA=   0.8736
  2.3618  0.8967  0.8967  0.8326  0.0812  0.1726

 Free energy of the ion-electron system (eV)
  ---------------------------------------------------
  alpha Z        PSCENC =       305.72458370
  Ewald energy   TEWEN  =     12571.89722423
  -1/2 Hartree   DENC   =    -17836.05255759
  -exchange  EXHF       =         0.00000000
  -V(xc)+E(xc)   XCENC  =      -177.95224588
  PAW double counting   =      4154.06298180    -3789.71764005
  entropy T*S    EENTRO =         0.00000000
  eigenvalues    EBANDS =      -116.54019591
  atomic energy  EATOM  =      4858.47751158
  ---------------------------------------------------
  free energy    TOTEN  =       -30.10033813 eV

  energy without entropy =      -30.10033813  energy(sigma->0) =      -30.10033813


--------------------------------------------------------------------------------------------------------




----------------------------------------- Iteration    3(   8)  ---------------------------------------


    POTLOK:  cpu time    0.10: real time    0.10
    SETDIJ:  cpu time    0.01: real time    0.01
     EDDAV:  cpu time    0.79: real time    0.82
 BZINTS: Fermi energy:  0.322896; 60.000000 electrons
         Band energy:-116.542053;  BLOECHL correction: -0.276975
       DOS:  cpu time    0.00: real time    0.00
    CHARGE:  cpu time    0.09: real time    0.09
    MIXING:  cpu time    0.00: real time    0.01
    --------------------------------------------
      LOOP:  cpu time    1.00: real time    1.04

 eigenvalue-minimisations  :   300
 total energy-change (2. order) :-0.1106438E-05  (-0.3233582E-07)
 number of electron      60.0000010 magnetization 
 augmentation part       25.4002255 magnetization 

 Broyden mixing:
  rms(total) = 0.68394E-04    rms(broyden)= 0.68345E-04
  rms(prec ) = 0.74880E-04
  weight for this iteration     100.00

 eigenvalues of (default mixing * dielectric matrix)
  average eigenvalue GAMMA=   0.8688
  2.4534  1.0003  1.0003  0.0812  0.1726  0.6869  0.6869

 Free energy of the ion-electron system (eV)
  ---------------------------------------------------
  alpha Z        PSCENC =       305.72458370
  Ewald energy   TEWEN  =     12571.89722423
  -1/2 Hartree   DENC   =    -17836.05069470
  -exchange  EXHF       =         0.00000000
  -V(xc)+E(xc)   XCENC  =      -177.95225469
  PAW double counting   =      4154.06242245    -3789.71707851
  entropy T*S    EENTRO =         0.00000000
  eigenvalues    EBANDS =      -116.54205330
  atomic energy  EATOM  =      4858.47751158
  ---------------------------------------------------
  free energy    TOTEN  =       -30.10033923 eV

  energy without entropy =      -30.10033923  energy(sigma->0) =      -30.10033923


--------------------------------------------------------------------------------------------------------




----------------------------------------- Iteration    3(   9)  ---------------------------------------


    POTLOK:  cpu time    0.10: real time    0.10
    SETDIJ:  cpu time    0.01: real time    0.01
     EDDAV:  cpu time    0.78: real time    0.79
 BZINTS: Fermi energy:  0.322898; 60.000000 electrons
         Band energy:-116.541884;  BLOECHL correction: -0.276974
       DOS:  cpu time    0.00: real time    0.00
    --------------------------------------------
      LOOP:  cpu time    0.90: real time    0.92

 eigenvalue-minimisations  :   300
 total energy-change (2. order) : 0.9286077E-06  (-0.8501278E-08)
 number of electron      60.0000010 magnetization 
 augmentation part       25.4002255 magnetization 

 Free energy of the ion-electron system (eV)
  ---------------------------------------------------
  alpha Z        PSCENC =       305.72458370
  Ewald energy   TEWEN  =     12571.89722423
  -1/2 Hartree   DENC   =    -17836.05086730
  -exchange  EXHF       =         0.00000000
  -V(xc)+E(xc)   XCENC  =      -177.95224714
  PAW double counting   =      4154.06270233    -3789.71736137
  entropy T*S    EENTRO =         0.00000000
  eigenvalues    EBANDS =      -116.54188433
  atomic energy  EATOM  =      4858.47751158
  ---------------------------------------------------
  free energy    TOTEN  =       -30.10033831 eV

  energy without entropy =      -30.10033831  energy(sigma->0) =      -30.10033831


--------------------------------------------------------------------------------------------------------




 average (electrostatic) potential at core
  the test charge radii are     1.1199
  (the norm of the test charge is              1.0000)
       1 -50.8767       2 -51.2062       3 -51.1780       4 -51.1783       5 -51.2061
       6 -50.8771
 
 
 
 E-fermi :   0.3229     XC(G=0):  -8.1508     alpha+bet : -6.5480


 k-point   1 :       0.0000    0.0000    0.0000
  band No.  band energies     occupation 
      1      -6.2430      2.00000
      2      -5.6419      2.00000
      3      -4.9155      2.00000
      4      -4.5852      2.00000
      5      -4.3518      2.00000
      6      -4.3489      2.00000
      7      -2.3779      2.00000
      8      -2.3537      2.00000
      9      -2.2693      2.00000
     10      -2.2693      2.00000
     11      -2.2124      2.00000
     12      -2.2124      2.00000
     13      -2.1420      2.00000
     14      -2.1229      2.00000
     15      -2.1229      2.00000
     16      -2.0466      2.00000
     17      -2.0466      2.00000
     18      -1.8955      2.00000
     19      -1.8955      2.00000
     20      -1.8609      2.00000
     21      -1.8609      2.00000
     22      -1.5551      2.00000
     23      -0.8111      2.00000
     24      -0.8111      2.00000
     25      -0.7677      2.00000
     26      -0.7677      2.00000
     27      -0.5705      2.00000
     28      -0.5705      2.00000
     29      -0.3026      2.00000
     30      -0.2316      2.00000
     31      -0.2316      2.00000
     32       0.1130      2.00000
     33       0.1130      2.00000
     34       0.2833      2.00000
     35       0.2833      0.05534
     36       1.2591      0.00000

 k-point   2 :       0.1429    0.0000    0.0000
  band No.  band energies     occupation 
      1      -5.6460      2.00000
      2      -5.0764      2.00000
      3      -4.3806      2.00000
      4      -4.1438      2.00000
      5      -3.9005      2.00000
      6      -3.8417      2.00000
      7      -2.8225      2.00000
      8      -2.6471      2.00000
      9      -2.5797      2.00000
     10      -2.4705      2.00000
     11      -2.3837      2.00000
     12      -2.1893      2.00000
     13      -2.0318      2.00000
     14      -1.9966      2.00000
     15      -1.9785      2.00000
     16      -1.9075      2.00000
     17      -1.8907      2.00000
     18      -1.8061      2.00000
     19      -1.7435      2.00000
     20      -1.7304      2.00000
     21      -1.5552      2.00000
     22      -1.5405      2.00000
     23      -1.4987      2.00000
     24      -1.1083      2.00000
     25      -1.0671      2.00000
     26      -0.9084      2.00000
     27      -0.7678      2.00000
     28      -0.7290      2.00000
     29      -0.5337      2.00000
     30      -0.4279      2.00000
     31      -0.2244      2.00000
     32       0.1254      2.00000
     33       0.2383      2.00782
     34       0.3119      0.84620
     35       1.2974     -0.00770
     36       2.6124      0.00000

 k-point   3 :       0.2857    0.0000    0.0000
  band No.  band energies     occupation 
      1      -4.4970      2.00000
      2      -4.1896      2.00000
      3      -4.0326      2.00000
      4      -3.8686      2.00000
      5      -3.6764      2.00000
      6      -3.5423      2.00000
      7      -3.3480      2.00000
      8      -3.2654      2.00000
      9      -2.9084      2.00000
     10      -2.5228      2.00000
     11      -2.4633      2.00000
     12      -2.1575      2.00000
     13      -2.0776      2.00000
     14      -1.9786      2.00000
     15      -1.9486      2.00000
     16      -1.7001      2.00000
     17      -1.6010      2.00000
     18      -1.3929      2.00000
     19      -1.2233      2.00000
     20      -1.1988      2.00000
     21      -1.0675      2.00000
     22      -0.9382      2.00000
     23      -0.7481      2.00000
     24      -0.7332      2.00000
     25      -0.6220      2.00000
     26      -0.5996      2.00000
     27      -0.4927      2.04555
     28      -0.4183      2.11922
     29      -0.2804      2.23125
     30      -0.1518      2.16877
     31       0.0797      1.28397
     32       0.1400      1.11203
     33       0.3637      0.58624
     34       1.3500     -0.00286
     35       2.8933      0.00000
     36       4.5716      0.00000

 k-point   4 :       0.4286    0.0000    0.0000
  band No.  band energies     occupation 
      1      -4.4697      2.00000
      2      -4.4256      2.00000
      3      -4.2253      2.00000
      4      -4.1692      2.00000
      5      -4.0577      2.00000
      6      -3.8341      2.00000
      7      -3.8107      2.00000
      8      -3.6926      2.00000
      9      -3.1998      2.00000
     10      -2.6648      2.00000
     11      -2.4016      2.00000
     12      -2.3104      2.00000
     13      -2.1616      2.00000
     14      -1.7555      2.00000
     15      -1.6998      2.00000
     16      -1.3951      2.00000
     17      -1.1951      2.00000
     18      -0.9288      2.00000
     19      -0.5825      2.00000
     20      -0.4686      2.00000
     21      -0.1032      2.00000
     22      -0.0684      2.00000
     23       0.1892      2.00000
     24       0.1985      2.00000
     25       0.2487      2.00000
     26       0.2739      2.00000
     27       0.3483      1.45377
     28       0.4141      0.72286
     29       0.4663      0.21700
     30       0.5158      0.12602
     31       1.1396     -0.02650
     32       1.8444     -0.02821
     33       2.2145      0.00000
     34       3.0408      0.00000
     35       4.4062      0.00000
     36       5.6908      0.00000

 k-point   5 :       0.2857    0.1429    0.0000
  band No.  band energies     occupation 
      1      -4.6543      2.00000
      2      -4.2478      2.00000
      3      -3.7338      2.00000
      4      -3.5129      2.00000
      5      -3.4050      2.00000
      6      -3.2789      2.00000
      7      -3.1403      2.00000
      8      -3.1035      2.00000
      9      -2.9401      2.00000
     10      -2.8389      2.00000
     11      -2.5807      2.00000
     12      -2.5034      2.00000
     13      -2.3994      2.00000
     14      -2.2823      2.00000
     15      -2.1120      2.00000
     16      -2.0214      2.00000
     17      -1.9416      2.00000
     18      -1.7236      2.00000
     19      -1.5553      2.00000
     20      -1.3811      2.00000
     21      -1.2567      2.00000
     22      -1.1259      2.00000
     23      -1.1223      2.00000
     24      -0.8673      2.00000
     25      -0.7816      2.00000
     26      -0.5774      2.00000
     27      -0.5155      2.00000
     28      -0.4551      2.00000
     29      -0.2586      2.00000
     30      -0.2279      2.13908
     31      -0.0486      1.63599
     32       0.1347      1.41922
     33       0.1586      1.34574
     34       1.1548     -0.15038
     35       2.5098      0.00000
     36       4.0728      0.00000

 k-point   6 :       0.4286    0.1429    0.0000
  band No.  band energies     occupation 
      1      -4.0470      2.00000
      2      -4.0111      2.00000
      3      -3.8214      2.00000
      4      -3.6871      2.00000
      5      -3.6558      2.00000
      6      -3.5099      2.00000
      7      -3.3976      2.00000
      8      -3.1448      2.00000
      9      -3.0509      2.00000
     10      -2.7961      2.00000
     11      -2.4388      2.00000
     12      -2.4154      2.00000
     13      -2.2785      2.00000
     14      -2.0037      2.00000
     15      -1.9491      2.00000
     16      -1.8613      2.00000
     17      -1.5770      2.00000
     18      -1.4612      2.00000
     19      -1.3438      2.00000
     20      -1.2046      2.00000
     21      -0.9984      2.00000
     22      -0.7670      2.00000
     23      -0.7321      2.00000
     24      -0.5437      2.00000
     25      -0.2758      2.00000
     26      -0.2515      2.00000
     27       0.1917      2.00829
     28       0.2105      1.99201
     29       0.3098      1.52675
     30       0.4428      0.48517
     31       1.3166     -0.11601
     32       1.4931     -0.13907
     33       1.9086     -0.12176
     34       2.9474      0.00000
     35       4.4216      0.00000
     36       6.0976      0.00000

 k-point   7 :      -0.4286    0.1429    0.0000
  band No.  band energies     occupation 
      1      -4.2758      2.00000
      2      -4.1292      2.00000
      3      -4.0098      2.00000
      4      -3.8994      2.00000
      5      -3.7408      2.00000
      6      -3.6923      2.00000
      7      -3.5201      2.00000
      8      -3.3564      2.00000
      9      -3.1400      2.00000
     10      -2.8350      2.00000
     11      -2.6821      2.00000
     12      -2.1953      2.00000
     13      -2.1605      2.00000
     14      -2.0175      2.00000
     15      -1.8168      2.00000
     16      -1.6484      2.00000
     17      -1.3299      2.00000
     18      -1.0990      2.00000
     19      -1.0443      2.00000
     20      -0.6443      2.00000
     21      -0.5576      2.00000
     22      -0.4995      2.00000
     23      -0.2183      2.00000
     24      -0.0600      2.00000
     25       0.0938      2.00000
     26       0.1046      2.00000
     27       0.1819      2.14231
     28       0.2131      1.96810
     29       0.3759      0.02312
     30       0.4823      0.00000
     31       3.4710      0.00000
     32       3.9947      0.00000
     33       4.4483      0.00000
     34       4.7820      0.00000
     35       5.0538      0.00000
     36       5.2033      0.00000

 k-point   8 :      -0.4286    0.2857    0.0000
  band No.  band energies     occupation 
      1      -3.7716      2.00000
      2      -3.7715      2.00000
      3      -3.5618      2.00000
      4      -3.3969      2.00000
      5      -3.3088      2.00000
      6      -3.1713      2.00000
      7      -3.1528      2.00000
      8      -3.0213      2.00000
      9      -3.0143      2.00000
     10      -2.7636      2.00000
     11      -2.7475      2.00000
     12      -2.4378      2.00000
     13      -2.3866      2.00000
     14      -2.1810      2.00000
     15      -2.0155      2.00000
     16      -1.7954      2.00000
     17      -1.7461      2.00000
     18      -1.6197      2.00000
     19      -1.5897      2.00000
     20      -1.1731      2.00000
     21      -1.0842      2.00000
     22      -0.8914      2.00000
     23      -0.7428      2.00000
     24      -0.6850      2.00000
     25      -0.3440      2.00000
     26      -0.0859      2.00000
     27       0.1656      2.00000
     28       0.2411      2.00000
     29       0.2772      2.00806
     30       0.4316      0.00000
     31       4.1165      0.00000
     32       4.4975      0.00000
     33       5.1304      0.00000
     34       6.0570      0.00000
     35       7.1873      0.00000
     36       7.8614      0.00000


--------------------------------------------------------------------------------------------------------


 soft charge-density along one line, spin component           1
         0         1         2         3         4         5         6         7         8         9
 total charge-density along one line
 
 pseudopotential strength for first ion, spin component:           1
-11.401   0.000   0.000   0.000   0.000   0.000  -0.011   0.000   0.000   0.000   0.110   0.000   0.000   0.000   0.000   0.000
  0.000   0.000 -11.289   0.000   0.000   0.000   0.000   0.000  -0.011   0.000   0.000   0.000   0.092   0.000   0.000   0.000
  0.000   0.000   0.000   0.000 -11.271   0.000   0.000   0.000   0.000   0.000   0.000   0.000   0.000   0.000   0.089   0.000
 -0.011   0.000   0.000   0.000   0.000   0.000 -11.289   0.000   0.000   0.000   0.002   0.000   0.000   0.000   0.000   0.000
  0.000   0.000  -0.011   0.000   0.000   0.000   0.000   0.000 -11.401   0.000   0.000   0.000   0.002   0.000   0.000   0.000
  0.110   0.000   0.000   0.000   0.000   0.000   0.002   0.000   0.000   0.000   0.323   0.000   0.000   0.000   0.000   0.000
  0.000   0.000   0.092   0.000   0.000   0.000   0.000   0.000   0.002   0.000   0.000   0.000   0.326   0.000   0.000   0.000
  0.000   0.000   0.000   0.000   0.089   0.000   0.000   0.000   0.000   0.000   0.000   0.000   0.000   0.000   0.327   0.000
  0.002   0.000   0.000   0.000   0.000   0.000   0.092   0.000   0.000   0.000   0.000   0.000   0.000   0.000   0.000   0.000
  0.000   0.000   0.002   0.000   0.000   0.000   0.000   0.000   0.110   0.000   0.000   0.000   0.000   0.000   0.000   0.000
  0.000   0.000   0.000   0.000  -0.029   0.000   0.000   0.000   0.000   0.000   0.000   0.000   0.000   0.000   0.004   0.000
  0.000   0.000   0.000   0.000   0.002   0.000   0.000   0.000   0.000   0.000   0.000   0.000   0.000   0.000   0.000   0.000
  0.000   0.000  -0.011   0.000   0.000   0.000   0.000   0.000   0.000   0.000   0.000   0.000   0.002   0.000   0.000   0.000
  0.000   0.000   0.000   0.000  -0.012   0.000   0.000   0.000   0.000   0.000   0.000   0.000   0.000   0.000   0.002   0.000
  0.000   0.000   0.000   0.000   0.000   0.000  -0.011   0.000   0.000   0.000   0.000   0.000   0.000   0.000   0.000   0.000
  0.000   0.000   0.010   0.000   0.000   0.000   0.000   0.000   0.000   0.000   0.000   0.000  -0.002   0.000   0.000   0.000
  0.000   0.000   0.000   0.000   0.010   0.000   0.000   0.000   0.000   0.000   0.000   0.000   0.000   0.000  -0.002   0.000
  0.000   0.000   0.000   0.000   0.000   0.000   0.010   0.000   0.000   0.000   0.000   0.000   0.000   0.000   0.000   0.000
 total augmentation occupancy for first ion, spin component:           1
  1.724   0.000   0.000  -0.042   0.000   0.132   0.000   0.000   0.021   0.000   0.000   0.000   0.000   0.000   0.003   0.000
  0.000   1.854   0.000   0.000  -0.042   0.000   0.052   0.000   0.000   0.023   0.000   0.000  -0.015   0.000   0.000  -0.015
  0.000   0.000   1.833   0.000   0.000   0.000   0.000   0.078   0.000   0.000   0.016  -0.063   0.000   0.025   0.000   0.000
 -0.042   0.000   0.000   1.854   0.000   0.023   0.000   0.000   0.052   0.000   0.000   0.000   0.000   0.000  -0.015   0.000
  0.000  -0.042   0.000   0.000   1.724   0.000   0.021   0.000   0.000   0.132   0.000   0.000   0.003   0.000   0.000   0.001
  0.132   0.000   0.000   0.023   0.000   0.113   0.000   0.000   0.003   0.000   0.000   0.000   0.000   0.000   0.006   0.000
  0.000   0.052   0.000   0.000   0.021   0.000   0.090   0.000   0.000   0.003   0.000   0.000   0.033   0.000   0.000  -0.001
  0.000   0.000   0.078   0.000   0.000   0.000   0.000   0.118   0.000   0.000  -0.112   0.029   0.000   0.045   0.000   0.000
  0.021   0.000   0.000   0.052   0.000   0.003   0.000   0.000   0.090   0.000   0.000   0.000   0.000   0.000   0.033   0.000
  0.000   0.023   0.000   0.000   0.132   0.000   0.003   0.000   0.000   0.113   0.000   0.000   0.006   0.000   0.000   0.000
  0.000   0.000   0.016   0.000   0.000   0.000   0.000  -0.112   0.000   0.000   1.000  -0.326   0.000   0.073   0.000   0.000
  0.000   0.000  -0.063   0.000   0.000   0.000   0.000   0.029   0.000   0.000  -0.326   0.121   0.000  -0.039   0.000   0.000
  0.000  -0.015   0.000   0.000   0.003   0.000   0.033   0.000   0.000   0.006   0.000   0.000   0.110   0.000   0.000  -0.002
  0.000   0.000   0.025   0.000   0.000   0.000   0.000   0.045   0.000   0.000   0.073  -0.039   0.000   0.062   0.000   0.000
  0.003   0.000   0.000  -0.015   0.000   0.006   0.000   0.000   0.033   0.000   0.000   0.000   0.000   0.000   0.110   0.000
  0.000  -0.015   0.000   0.000   0.001   0.000  -0.001   0.000   0.000   0.000   0.000   0.000  -0.002   0.000   0.000   0.000
  0.000   0.000  -0.020   0.000   0.000   0.000   0.000  -0.001   0.000   0.000  -0.004   0.002   0.000  -0.001   0.000   0.000
  0.001   0.000   0.000  -0.015   0.000   0.000   0.000   0.000  -0.001   0.000   0.000   0.000   0.000   0.000  -0.002   0.000


------------------------ aborting loop because EDIFF is reached ----------------------------------------


    CHARGE:  cpu time    0.09: real time    0.09
    FORLOC:  cpu time    0.01: real time    0.01
    FORNL :  cpu time    0.44: real time    0.45
    STRESS:  cpu time    0.78: real time    0.79
    FORCOR:  cpu time    0.12: real time    0.12
    FORHAR:  cpu time    0.04: real time    0.04
    MIXING:  cpu time    0.01: real time    0.01

  FORCE on cell =-STRESS in cart. coord.  units (eV):
  Direction    XX          YY          ZZ          XY          YZ          ZX
  --------------------------------------------------------------------------------------
  Alpha Z   305.72458   305.72458   305.72458
  Ewald   15898.06566 15898.06566-19224.23415     0.00000     0.00000     0.00000
  Hartree 17350.30130 17350.30130-16864.53300     0.00000     0.00000     0.00000
  E(xc)    -313.68021  -313.68022  -314.84496     0.00001     0.00000     0.00000
  Local  -33991.39607-33991.39635 35337.96994     0.00024     0.00000     0.00000
  n-local  -332.70625  -308.72300  -323.35271     5.24136    -3.07712     1.50748
  augment   256.59433   256.59458   260.11354    -0.00022     0.00000     0.00000
  Kinetic   802.63327   823.38776   822.58931     5.32348     2.99069    -0.72151
  Fock        0.00000     0.00000     0.00000     0.00000     0.00000     0.00000
  -------------------------------------------------------------------------------------
  Total      -2.09454    -2.09454    -0.56745     0.00000     0.00000     0.00000
  in kB     -20.93226   -20.93226    -5.67091     0.00000     0.00000     0.00000
  external pressure =      -15.85 kB  Pullay stress =        0.00 kB


 VOLUME and BASIS-vectors are now :
 -----------------------------------------------------------------------------
  energy-cutoff  :      415.00
  volume of cell :      160.32
      direct lattice vectors                 reciprocal lattice vectors
     2.795185513  0.000000000  0.000000000     0.357758008 -0.206551682  0.000000000
     1.397592758  2.420701664  0.000000000     0.000000000  0.413103364  0.000000000
     0.000000000  0.000000000 23.693556493     0.000000000  0.000000000  0.042205568

  length of vectors
     2.795185513  2.795185515 23.693556493     0.413103364  0.413103364  0.042205568


 FORCES acting on ions
    electron-ion (+dipol)            ewald-force                    non-local-force                 convergence-correction
 -----------------------------------------------------------------------------------------------
   0.169E-06 0.126E-06 0.281E+04   0.258E-07 -.244E-07 -.281E+04   0.260E-17 0.347E-17 -.126E+01   0.155E-10 0.881E-11 -.674E-03
   0.132E-07 0.763E-08 -.565E+03   -.608E-11 0.565E-11 0.565E+03   0.867E-18 0.000E+00 -.446E-01   0.487E-10 0.283E-10 0.351E-02
   0.743E-06 0.429E-06 0.169E+04   0.531E-09 0.352E-09 -.169E+04   -.217E-18 0.000E+00 -.285E-01   0.118E-10 0.679E-11 -.789E-02
   0.709E-06 0.410E-06 -.169E+04   0.591E-09 0.295E-09 0.169E+04   0.217E-18 0.000E+00 0.285E-01   -.982E-11 -.565E-11 0.789E-02
   -.712E-06 -.411E-06 0.565E+03   -.556E-09 -.330E-09 -.565E+03   -.867E-18 0.000E+00 0.446E-01   -.491E-10 -.285E-10 -.351E-02
   -.149E-06 -.115E-06 -.281E+04   -.264E-07 0.240E-07 0.281E+04   -.347E-17 -.520E-17 0.126E+01   -.160E-10 -.912E-11 0.675E-03
 -----------------------------------------------------------------------------------------------
   0.774E-06 0.447E-06 -.152E-02   0.166E-12 -.707E-13 -.455E-12   -.867E-18 -.173E-17 0.222E-15   0.978E-12 0.601E-12 0.354E-06
 
 
 POSITION                                       TOTAL-FORCE (eV/Angst)
 -----------------------------------------------------------------------------------
      0.00000      0.00000     -0.00007         0.000000      0.000000      0.001486
      0.00000      0.00000      6.84640         0.000000      0.000000     -0.019791
      1.39759      0.80690      2.28329         0.000000      0.000000      0.046550
      1.39759      0.80690      9.12801         0.000000      0.000000     -0.046550
      2.79519      1.61380      4.56490         0.000000      0.000000      0.019791
      2.79519      1.61380     11.41136         0.000000      0.000000     -0.001486
 -----------------------------------------------------------------------------------
    total drift:                                0.000001      0.000000     -0.001522


--------------------------------------------------------------------------------------------------------



  FREE ENERGIE OF THE ION-ELECTRON SYSTEM (eV)
  ---------------------------------------------------
  free  energy   TOTEN  =       -30.10033831 eV

  energy  without entropy=      -30.10033831  energy(sigma->0) =      -30.10033831
 
 d Force = 0.8845178E-04[ 0.833E-04, 0.936E-04]  d Energy = 0.1016488E-03-0.132E-04
 d Force =-0.2665188E+01[-0.267E+01,-0.266E+01]  d Ewald  =-0.2665188E+01-0.398E-08


--------------------------------------------------------------------------------------------------------


    POTLOK:  cpu time    0.12: real time    0.12


--------------------------------------------------------------------------------------------------------




--------------------------------------------------------------------------------------------------------


    WAVPRE:  cpu time    0.03: real time    0.03
 FEWALD executed in parallel
    FEWALD:  cpu time    0.00: real time    0.00
    ORTHCH:  cpu time    0.11: real time    0.11
     LOOP+:  cpu time   13.18: real time   13.41


----------------------------------------- Iteration    4(   1)  ---------------------------------------


    POTLOK:  cpu time    0.10: real time    0.10
    SETDIJ:  cpu time    0.01: real time    0.01
     EDDAV:  cpu time    1.21: real time    1.22
 BZINTS: Fermi energy:  0.322956; 60.000000 electrons
         Band energy:-116.540582;  BLOECHL correction: -0.277102
       DOS:  cpu time    0.00: real time    0.00
    CHARGE:  cpu time    0.09: real time    0.09
    MIXING:  cpu time    0.00: real time    0.00
    --------------------------------------------
      LOOP:  cpu time    1.42: real time    1.43

 eigenvalue-minimisations  :   576
 total energy-change (2. order) :-0.9948455E-04  (-0.3303218E-02)
 number of electron      60.0000010 magnetization 
 augmentation part       25.3999790 magnetization 

 Broyden mixing:
  rms(total) = 0.22054E-02    rms(broyden)= 0.22027E-02
  rms(prec ) = 0.23702E-02
  weight for this iteration     100.00

 Free energy of the ion-electron system (eV)
  ---------------------------------------------------
  alpha Z        PSCENC =       305.72458370
  Ewald energy   TEWEN  =     12577.23020778
  -1/2 Hartree   DENC   =    -17841.38504699
  -exchange  EXHF       =         0.00000000
  -V(xc)+E(xc)   XCENC  =      -177.95245676
  PAW double counting   =      4154.06261648    -3789.71727201
  entropy T*S    EENTRO =         0.00000000
  eigenvalues    EBANDS =      -116.54058249
  atomic energy  EATOM  =      4858.47751158
  ---------------------------------------------------
  free energy    TOTEN  =       -30.10043872 eV

  energy without entropy =      -30.10043872  energy(sigma->0) =      -30.10043872


--------------------------------------------------------------------------------------------------------




----------------------------------------- Iteration    4(   2)  ---------------------------------------


    POTLOK:  cpu time    0.10: real time    0.11
    SETDIJ:  cpu time    0.01: real time    0.01
     EDDAV:  cpu time    1.60: real time    1.61
 BZINTS: Fermi energy:  0.323346; 60.000000 electrons
         Band energy:-116.513503;  BLOECHL correction: -0.277052
       DOS:  cpu time    0.00: real time    0.00
    CHARGE:  cpu time    0.10: real time    0.09
    MIXING:  cpu time    0.00: real time    0.00
    --------------------------------------------
      LOOP:  cpu time    1.82: real time    1.84

 eigenvalue-minimisations  :   860
 total energy-change (2. order) :-0.4817830E-04  (-0.1105416E-03)
 number of electron      60.0000010 magnetization 
 augmentation part       25.4001397 magnetization 

 Broyden mixing:
  rms(total) = 0.47960E-02    rms(broyden)= 0.47953E-02
  rms(prec ) = 0.70979E-02
  weight for this iteration     100.00

 eigenvalues of (default mixing * dielectric matrix)
  average eigenvalue GAMMA=   0.2694
  0.2694

 Free energy of the ion-electron system (eV)
  ---------------------------------------------------
  alpha Z        PSCENC =       305.72458370
  Ewald energy   TEWEN  =     12577.23020778
  -1/2 Hartree   DENC   =    -17841.41203415
  -exchange  EXHF       =         0.00000000
  -V(xc)+E(xc)   XCENC  =      -177.95251713
  PAW double counting   =      4154.04804954    -3789.70278531
  entropy T*S    EENTRO =         0.00000000
  eigenvalues    EBANDS =      -116.51350289
  atomic energy  EATOM  =      4858.47751158
  ---------------------------------------------------
  free energy    TOTEN  =       -30.10048690 eV

  energy without entropy =      -30.10048690  energy(sigma->0) =      -30.10048690


--------------------------------------------------------------------------------------------------------




----------------------------------------- Iteration    4(   3)  ---------------------------------------


    POTLOK:  cpu time    0.10: real time    0.10
    SETDIJ:  cpu time    0.01: real time    0.01
     EDDAV:  cpu time    1.58: real time    1.59
 BZINTS: Fermi energy:  0.321773; 60.000000 electrons
         Band energy:-116.611691;  BLOECHL correction: -0.277145
       DOS:  cpu time    0.00: real time    0.00
    CHARGE:  cpu time    0.09: real time    0.09
    MIXING:  cpu time    0.00: real time    0.00
    --------------------------------------------
      LOOP:  cpu time    1.79: real time    1.81

 eigenvalue-minimisations  :   848
 total energy-change (2. order) :-0.1103472E-03  (-0.5265210E-04)
 number of electron      60.0000010 magnetization 
 augmentation part       25.4005567 magnetization 

 Broyden mixing:
  rms(total) = 0.58135E-02    rms(broyden)= 0.58116E-02
  rms(prec ) = 0.84899E-02
  weight for this iteration     100.00

 eigenvalues of (default mixing * dielectric matrix)
  average eigenvalue GAMMA=   0.2960
  0.5073  0.0846

 Free energy of the ion-electron system (eV)
  ---------------------------------------------------
  alpha Z        PSCENC =       305.72458370
  Ewald energy   TEWEN  =     12577.23020778
  -1/2 Hartree   DENC   =    -17841.31399336
  -exchange  EXHF       =         0.00000000
  -V(xc)+E(xc)   XCENC  =      -177.95248415
  PAW double counting   =      4154.04724999    -3789.70198155
  entropy T*S    EENTRO =         0.00000000
  eigenvalues    EBANDS =      -116.61169124
  atomic energy  EATOM  =      4858.47751158
  ---------------------------------------------------
  free energy    TOTEN  =       -30.10059724 eV

  energy without entropy =      -30.10059724  energy(sigma->0) =      -30.10059724


--------------------------------------------------------------------------------------------------------




----------------------------------------- Iteration    4(   4)  ---------------------------------------


    POTLOK:  cpu time    0.10: real time    0.10
    SETDIJ:  cpu time    0.01: real time    0.01
     EDDAV:  cpu time    1.47: real time    1.47
 BZINTS: Fermi energy:  0.322884; 60.000000 electrons
         Band energy:-116.546032;  BLOECHL correction: -0.277088
       DOS:  cpu time    0.00: real time    0.00
    CHARGE:  cpu time    0.09: real time    0.09
    MIXING:  cpu time    0.00: real time    0.01
    --------------------------------------------
      LOOP:  cpu time    1.68: real time    1.71

 eigenvalue-minimisations  :   772
 total energy-change (2. order) : 0.8154756E-04  (-0.1936744E-04)
 number of electron      60.0000010 magnetization 
 augmentation part       25.4002220 magnetization 

 Broyden mixing:
  rms(total) = 0.14859E-02    rms(broyden)= 0.14842E-02
  rms(prec ) = 0.17538E-02
  weight for this iteration     100.00

 eigenvalues of (default mixing * dielectric matrix)
  average eigenvalue GAMMA=   0.2916
  0.3968  0.3968  0.0813

 Free energy of the ion-electron system (eV)
  ---------------------------------------------------
  alpha Z        PSCENC =       305.72458370
  Ewald energy   TEWEN  =     12577.23020778
  -1/2 Hartree   DENC   =    -17841.37966131
  -exchange  EXHF       =         0.00000000
  -V(xc)+E(xc)   XCENC  =      -177.95248961
  PAW double counting   =      4154.05300270    -3789.70763884
  entropy T*S    EENTRO =         0.00000000
  eigenvalues    EBANDS =      -116.54603169
  atomic energy  EATOM  =      4858.47751158
  ---------------------------------------------------
  free energy    TOTEN  =       -30.10051570 eV

  energy without entropy =      -30.10051570  energy(sigma->0) =      -30.10051570


--------------------------------------------------------------------------------------------------------




----------------------------------------- Iteration    4(   5)  ---------------------------------------


    POTLOK:  cpu time    0.10: real time    0.10
    SETDIJ:  cpu time    0.01: real time    0.01
     EDDAV:  cpu time    1.11: real time    1.12
 BZINTS: Fermi energy:  0.322651; 60.000000 electrons
         Band energy:-116.556045;  BLOECHL correction: -0.277088
       DOS:  cpu time    0.00: real time    0.00
    CHARGE:  cpu time    0.09: real time    0.09
    MIXING:  cpu time    0.00: real time    0.01
    --------------------------------------------
      LOOP:  cpu time    1.32: real time    1.34

 eigenvalue-minimisations  :   532
 total energy-change (2. order) : 0.1492406E-04  (-0.9964812E-06)
 number of electron      60.0000010 magnetization 
 augmentation part       25.4002320 magnetization 

 Broyden mixing:
  rms(total) = 0.12862E-02    rms(broyden)= 0.12861E-02
  rms(prec ) = 0.14104E-02
  weight for this iteration     100.00

 eigenvalues of (default mixing * dielectric matrix)
  average eigenvalue GAMMA=   0.7600
  1.8330  0.9525  0.0815  0.1730

 Free energy of the ion-electron system (eV)
  ---------------------------------------------------
  alpha Z        PSCENC =       305.72458370
  Ewald energy   TEWEN  =     12577.23020778
  -1/2 Hartree   DENC   =    -17841.36962301
  -exchange  EXHF       =         0.00000000
  -V(xc)+E(xc)   XCENC  =      -177.95246900
  PAW double counting   =      4154.05284283    -3789.70750956
  entropy T*S    EENTRO =         0.00000000
  eigenvalues    EBANDS =      -116.55604508
  atomic energy  EATOM  =      4858.47751158
  ---------------------------------------------------
  free energy    TOTEN  =       -30.10050077 eV

  energy without entropy =      -30.10050077  energy(sigma->0) =      -30.10050077


--------------------------------------------------------------------------------------------------------




----------------------------------------- Iteration    4(   6)  ---------------------------------------


    POTLOK:  cpu time    0.11: real time    0.11
    SETDIJ:  cpu time    0.01: real time    0.01
     EDDAV:  cpu time    1.54: real time    1.55
 BZINTS: Fermi energy:  0.322738; 60.000000 electrons
         Band energy:-116.552498;  BLOECHL correction: -0.277090
       DOS:  cpu time    0.00: real time    0.00
    CHARGE:  cpu time    0.09: real time    0.09
    MIXING:  cpu time    0.01: real time    0.01
    --------------------------------------------
      LOOP:  cpu time    1.76: real time    1.78

 eigenvalue-minimisations  :   828
 total energy-change (2. order) :-0.4601828E-05  (-0.1544310E-05)
 number of electron      60.0000010 magnetization 
 augmentation part       25.4001935 magnetization 

 Broyden mixing:
  rms(total) = 0.61542E-03    rms(broyden)= 0.61536E-03
  rms(prec ) = 0.80865E-03
  weight for this iteration     100.00

 eigenvalues of (default mixing * dielectric matrix)
  average eigenvalue GAMMA=   0.8391
  2.3459  0.7975  0.7975  0.0814  0.1735

 Free energy of the ion-electron system (eV)
  ---------------------------------------------------
  alpha Z        PSCENC =       305.72458370
  Ewald energy   TEWEN  =     12577.23020778
  -1/2 Hartree   DENC   =    -17841.37315126
  -exchange  EXHF       =         0.00000000
  -V(xc)+E(xc)   XCENC  =      -177.95247129
  PAW double counting   =      4154.05308130    -3789.70776927
  entropy T*S    EENTRO =         0.00000000
  eigenvalues    EBANDS =      -116.55249792
  atomic energy  EATOM  =      4858.47751158
  ---------------------------------------------------
  free energy    TOTEN  =       -30.10050537 eV

  energy without entropy =      -30.10050537  energy(sigma->0) =      -30.10050537


--------------------------------------------------------------------------------------------------------




----------------------------------------- Iteration    4(   7)  ---------------------------------------


    POTLOK:  cpu time    0.10: real time    0.10
    SETDIJ:  cpu time    0.02: real time    0.01
     EDDAV:  cpu time    0.78: real time    0.79
 BZINTS: Fermi energy:  0.322791; 60.000000 electrons
         Band energy:-116.549640;  BLOECHL correction: -0.277093
       DOS:  cpu time    0.00: real time    0.00
    CHARGE:  cpu time    0.09: real time    0.09
    MIXING:  cpu time    0.00: real time    0.01
    --------------------------------------------
      LOOP:  cpu time    1.00: real time    1.02

 eigenvalue-minimisations  :   288
 total energy-change (2. order) :-0.4249564E-05  (-0.1417630E-06)
 number of electron      60.0000010 magnetization 
 augmentation part       25.4001600 magnetization 

 Broyden mixing:
  rms(total) = 0.24555E-03    rms(broyden)= 0.24551E-03
  rms(prec ) = 0.36949E-03
  weight for this iteration     100.00

 eigenvalues of (default mixing * dielectric matrix)
  average eigenvalue GAMMA=   0.9125
  2.4067  1.0093  1.0093  0.7946  0.0814  0.1736

 Free energy of the ion-electron system (eV)
  ---------------------------------------------------
  alpha Z        PSCENC =       305.72458370
  Ewald energy   TEWEN  =     12577.23020778
  -1/2 Hartree   DENC   =    -17841.37605499
  -exchange  EXHF       =         0.00000000
  -V(xc)+E(xc)   XCENC  =      -177.95243188
  PAW double counting   =      4154.05534786    -3789.71003371
  entropy T*S    EENTRO =         0.00000000
  eigenvalues    EBANDS =      -116.54963996
  atomic energy  EATOM  =      4858.47751158
  ---------------------------------------------------
  free energy    TOTEN  =       -30.10050962 eV

  energy without entropy =      -30.10050962  energy(sigma->0) =      -30.10050962


--------------------------------------------------------------------------------------------------------




----------------------------------------- Iteration    4(   8)  ---------------------------------------


    POTLOK:  cpu time    0.10: real time    0.10
    SETDIJ:  cpu time    0.01: real time    0.01
     EDDAV:  cpu time    0.79: real time    0.79
 BZINTS: Fermi energy:  0.322722; 60.000000 electrons
         Band energy:-116.553808;  BLOECHL correction: -0.277095
       DOS:  cpu time    0.00: real time    0.00
    CHARGE:  cpu time    0.09: real time    0.09
    MIXING:  cpu time    0.01: real time    0.01
    --------------------------------------------
      LOOP:  cpu time    1.01: real time    1.02

 eigenvalue-minimisations  :   300
 total energy-change (2. order) :-0.2242370E-05  (-0.9269113E-07)
 number of electron      60.0000010 magnetization 
 augmentation part       25.4002068 magnetization 

 Broyden mixing:
  rms(total) = 0.11437E-03    rms(broyden)= 0.11426E-03
  rms(prec ) = 0.14006E-03
  weight for this iteration     100.00

 eigenvalues of (default mixing * dielectric matrix)
  average eigenvalue GAMMA=   0.8996
  2.4573  1.0961  1.0961  0.0814  0.1736  0.7928  0.6002

 Free energy of the ion-electron system (eV)
  ---------------------------------------------------
  alpha Z        PSCENC =       305.72458370
  Ewald energy   TEWEN  =     12577.23020778
  -1/2 Hartree   DENC   =    -17841.37186859
  -exchange  EXHF       =         0.00000000
  -V(xc)+E(xc)   XCENC  =      -177.95243874
  PAW double counting   =      4154.05455166    -3789.70925084
  entropy T*S    EENTRO =         0.00000000
  eigenvalues    EBANDS =      -116.55380840
  atomic energy  EATOM  =      4858.47751158
  ---------------------------------------------------
  free energy    TOTEN  =       -30.10051187 eV

  energy without entropy =      -30.10051187  energy(sigma->0) =      -30.10051187


--------------------------------------------------------------------------------------------------------




----------------------------------------- Iteration    4(   9)  ---------------------------------------


    POTLOK:  cpu time    0.10: real time    0.10
    SETDIJ:  cpu time    0.01: real time    0.01
     EDDAV:  cpu time    0.77: real time    0.78
 BZINTS: Fermi energy:  0.322739; 60.000000 electrons
         Band energy:-116.552844;  BLOECHL correction: -0.277094
       DOS:  cpu time    0.00: real time    0.00
    --------------------------------------------
      LOOP:  cpu time    0.88: real time    0.90

 eigenvalue-minimisations  :   288
 total energy-change (2. order) : 0.7110912E-06  (-0.1330674E-07)
 number of electron      60.0000010 magnetization 
 augmentation part       25.4002068 magnetization 

 Free energy of the ion-electron system (eV)
  ---------------------------------------------------
  alpha Z        PSCENC =       305.72458370
  Ewald energy   TEWEN  =     12577.23020778
  -1/2 Hartree   DENC   =    -17841.37282606
  -exchange  EXHF       =         0.00000000
  -V(xc)+E(xc)   XCENC  =      -177.95243194
  PAW double counting   =      4154.05484122    -3789.70955378
  entropy T*S    EENTRO =         0.00000000
  eigenvalues    EBANDS =      -116.55284365
  atomic energy  EATOM  =      4858.47751158
  ---------------------------------------------------
  free energy    TOTEN  =       -30.10051115 eV

  energy without entropy =      -30.10051115  energy(sigma->0) =      -30.10051115


--------------------------------------------------------------------------------------------------------




 average (electrostatic) potential at core
  the test charge radii are     1.1199
  (the norm of the test charge is              1.0000)
       1 -50.8760       2 -51.2077       3 -51.1778       4 -51.1782       5 -51.2076
       6 -50.8763
 
 
 
 E-fermi :   0.3227     XC(G=0):  -8.1508     alpha+bet : -6.5480


 k-point   1 :       0.0000    0.0000    0.0000
  band No.  band energies     occupation 
      1      -6.2448      2.00000
      2      -5.6410      2.00000
      3      -4.9151      2.00000
      4      -4.5875      2.00000
      5      -4.3508      2.00000
      6      -4.3477      2.00000
      7      -2.3775      2.00000
      8      -2.3543      2.00000
      9      -2.2708      2.00000
     10      -2.2708      2.00000
     11      -2.2144      2.00000
     12      -2.2144      2.00000
     13      -2.1432      2.00000
     14      -2.1228      2.00000
     15      -2.1227      2.00000
     16      -2.0466      2.00000
     17      -2.0466      2.00000
     18      -1.8943      2.00000
     19      -1.8943      2.00000
     20      -1.8600      2.00000
     21      -1.8600      2.00000
     22      -1.5551      2.00000
     23      -0.8123      2.00000
     24      -0.8123      2.00000
     25      -0.7682      2.00000
     26      -0.7682      2.00000
     27      -0.5696      2.00000
     28      -0.5696      2.00000
     29      -0.3019      2.00000
     30      -0.2312      2.00000
     31      -0.2312      2.00000
     32       0.1124      2.00000
     33       0.1124      2.00000
     34       0.2832      2.00000
     35       0.2832      0.05526
     36       1.2584      0.00000

 k-point   2 :       0.1429    0.0000    0.0000
  band No.  band energies     occupation 
      1      -5.6478      2.00000
      2      -5.0757      2.00000
      3      -4.3802      2.00000
      4      -4.1460      2.00000
      5      -3.8994      2.00000
      6      -3.8406      2.00000
      7      -2.8237      2.00000
      8      -2.6483      2.00000
      9      -2.5812      2.00000
     10      -2.4697      2.00000
     11      -2.3828      2.00000
     12      -2.1888      2.00000
     13      -2.0319      2.00000
     14      -1.9989      2.00000
     15      -1.9787      2.00000
     16      -1.9076      2.00000
     17      -1.8923      2.00000
     18      -1.8062      2.00000
     19      -1.7429      2.00000
     20      -1.7304      2.00000
     21      -1.5542      2.00000
     22      -1.5404      2.00000
     23      -1.4977      2.00000
     24      -1.1088      2.00000
     25      -1.0680      2.00000
     26      -0.9077      2.00000
     27      -0.7674      2.00000
     28      -0.7293      2.00000
     29      -0.5333      2.00000
     30      -0.4288      2.00000
     31      -0.2244      2.00000
     32       0.1246      2.00000
     33       0.2383      2.00770
     34       0.3117      0.84611
     35       1.2976     -0.00769
     36       2.6117      0.00000

 k-point   3 :       0.2857    0.0000    0.0000
  band No.  band energies     occupation 
      1      -4.4990      2.00000
      2      -4.1902      2.00000
      3      -4.0333      2.00000
      4      -3.8686      2.00000
      5      -3.6772      2.00000
      6      -3.5418      2.00000
      7      -3.3472      2.00000
      8      -3.2651      2.00000
      9      -2.9076      2.00000
     10      -2.5233      2.00000
     11      -2.4633      2.00000
     12      -2.1573      2.00000
     13      -2.0780      2.00000
     14      -1.9790      2.00000
     15      -1.9513      2.00000
     16      -1.7001      2.00000
     17      -1.6003      2.00000
     18      -1.3923      2.00000
     19      -1.2227      2.00000
     20      -1.1981      2.00000
     21      -1.0679      2.00000
     22      -0.9380      2.00000
     23      -0.7480      2.00000
     24      -0.7337      2.00000
     25      -0.6221      2.00000
     26      -0.6000      2.00000
     27      -0.4924      2.04545
     28      -0.4183      2.11923
     29      -0.2806      2.23139
     30      -0.1522      2.16873
     31       0.0792      1.28459
     32       0.1388      1.11321
     33       0.3637      0.58535
     34       1.3496     -0.00285
     35       2.8929      0.00000
     36       4.5718      0.00000

 k-point   4 :       0.4286    0.0000    0.0000
  band No.  band energies     occupation 
      1      -4.4718      2.00000
      2      -4.4275      2.00000
      3      -4.2272      2.00000
      4      -4.1689      2.00000
      5      -4.0573      2.00000
      6      -3.8332      2.00000
      7      -3.8096      2.00000
      8      -3.6918      2.00000
      9      -3.1986      2.00000
     10      -2.6647      2.00000
     11      -2.4021      2.00000
     12      -2.3104      2.00000
     13      -2.1642      2.00000
     14      -1.7544      2.00000
     15      -1.7002      2.00000
     16      -1.3964      2.00000
     17      -1.1935      2.00000
     18      -0.9287      2.00000
     19      -0.5826      2.00000
     20      -0.4687      2.00000
     21      -0.1030      2.00000
     22      -0.0693      2.00000
     23       0.1889      2.00000
     24       0.1975      2.00000
     25       0.2484      2.00000
     26       0.2735      2.00000
     27       0.3482      1.45437
     28       0.4142      0.72136
     29       0.4665      0.21670
     30       0.5158      0.12590
     31       1.1390     -0.02652
     32       1.8448     -0.02832
     33       2.2146      0.00000
     34       3.0403      0.00000
     35       4.4054      0.00000
     36       5.6911      0.00000

 k-point   5 :       0.2857    0.1429    0.0000
  band No.  band energies     occupation 
      1      -4.6562      2.00000
      2      -4.2476      2.00000
      3      -3.7333      2.00000
      4      -3.5152      2.00000
      5      -3.4059      2.00000
      6      -3.2784      2.00000
      7      -3.1400      2.00000
      8      -3.1043      2.00000
      9      -2.9389      2.00000
     10      -2.8392      2.00000
     11      -2.5801      2.00000
     12      -2.5032      2.00000
     13      -2.3989      2.00000
     14      -2.2826      2.00000
     15      -2.1123      2.00000
     16      -2.0207      2.00000
     17      -1.9434      2.00000
     18      -1.7236      2.00000
     19      -1.5555      2.00000
     20      -1.3806      2.00000
     21      -1.2565      2.00000
     22      -1.1273      2.00000
     23      -1.1213      2.00000
     24      -0.8674      2.00000
     25      -0.7823      2.00000
     26      -0.5766      2.00000
     27      -0.5156      2.00000
     28      -0.4551      2.00000
     29      -0.2590      2.00000
     30      -0.2282      2.13910
     31      -0.0494      1.63666
     32       0.1343      1.41954
     33       0.1584      1.34581
     34       1.1545     -0.15038
     35       2.5095      0.00000
     36       4.0726      0.00000

 k-point   6 :       0.4286    0.1429    0.0000
  band No.  band energies     occupation 
      1      -4.0491      2.00000
      2      -4.0134      2.00000
      3      -3.8230      2.00000
      4      -3.6875      2.00000
      5      -3.6546      2.00000
      6      -3.5093      2.00000
      7      -3.3965      2.00000
      8      -3.1442      2.00000
      9      -3.0501      2.00000
     10      -2.7959      2.00000
     11      -2.4405      2.00000
     12      -2.4149      2.00000
     13      -2.2798      2.00000
     14      -2.0038      2.00000
     15      -1.9491      2.00000
     16      -1.8613      2.00000
     17      -1.5766      2.00000
     18      -1.4601      2.00000
     19      -1.3431      2.00000
     20      -1.2045      2.00000
     21      -0.9981      2.00000
     22      -0.7677      2.00000
     23      -0.7322      2.00000
     24      -0.5443      2.00000
     25      -0.2765      2.00000
     26      -0.2522      2.00000
     27       0.1913      2.00831
     28       0.2101      1.99204
     29       0.3097      1.52527
     30       0.4427      0.48527
     31       1.3161     -0.11586
     32       1.4931     -0.13898
     33       1.9088     -0.12170
     34       2.9469      0.00000
     35       4.4211      0.00000
     36       6.0982      0.00000

 k-point   7 :      -0.4286    0.1429    0.0000
  band No.  band energies     occupation 
      1      -4.2781      2.00000
      2      -4.1312      2.00000
      3      -4.0117      2.00000
      4      -3.8986      2.00000
      5      -3.7404      2.00000
      6      -3.6917      2.00000
      7      -3.5188      2.00000
      8      -3.3555      2.00000
      9      -3.1387      2.00000
     10      -2.8348      2.00000
     11      -2.6845      2.00000
     12      -2.1949      2.00000
     13      -2.1603      2.00000
     14      -2.0181      2.00000
     15      -1.8177      2.00000
     16      -1.6469      2.00000
     17      -1.3306      2.00000
     18      -1.0988      2.00000
     19      -1.0438      2.00000
     20      -0.6438      2.00000
     21      -0.5571      2.00000
     22      -0.5004      2.00000
     23      -0.2188      2.00000
     24      -0.0603      2.00000
     25       0.0933      2.00000
     26       0.1036      2.00000
     27       0.1816      2.14232
     28       0.2130      1.96716
     29       0.3758      0.02410
     30       0.4821      0.00000
     31       3.4704      0.00000
     32       3.9948      0.00000
     33       4.4484      0.00000
     34       4.7818      0.00000
     35       5.0531      0.00000
     36       5.2032      0.00000

 k-point   8 :      -0.4286    0.2857    0.0000
  band No.  band energies     occupation 
      1      -3.7743      2.00000
      2      -3.7737      2.00000
      3      -3.5623      2.00000
      4      -3.3959      2.00000
      5      -3.3100      2.00000
      6      -3.1728      2.00000
      7      -3.1541      2.00000
      8      -3.0197      2.00000
      9      -3.0125      2.00000
     10      -2.7620      2.00000
     11      -2.7476      2.00000
     12      -2.4374      2.00000
     13      -2.3865      2.00000
     14      -2.1815      2.00000
     15      -2.0159      2.00000
     16      -1.7947      2.00000
     17      -1.7457      2.00000
     18      -1.6188      2.00000
     19      -1.5891      2.00000
     20      -1.1727      2.00000
     21      -1.0840      2.00000
     22      -0.8917      2.00000
     23      -0.7439      2.00000
     24      -0.6860      2.00000
     25      -0.3447      2.00000
     26      -0.0865      2.00000
     27       0.1653      2.00000
     28       0.2408      2.00000
     29       0.2768      2.00974
     30       0.4315      0.00000
     31       4.1158      0.00000
     32       4.4977      0.00000
     33       5.1306      0.00000
     34       6.0567      0.00000
     35       7.1868      0.00000
     36       7.8606      0.00000


--------------------------------------------------------------------------------------------------------


 soft charge-density along one line, spin component           1
         0         1         2         3         4         5         6         7         8         9
 total charge-density along one line
 
 pseudopotential strength for first ion, spin component:           1
-11.401   0.000   0.000   0.000   0.000   0.000  -0.011   0.000   0.000   0.000   0.110   0.000   0.000   0.000   0.000   0.000
  0.000   0.000 -11.289   0.000   0.000   0.000   0.000   0.000  -0.011   0.000   0.000   0.000   0.092   0.000   0.000   0.000
  0.000   0.000   0.000   0.000 -11.270   0.000   0.000   0.000   0.000   0.000   0.000   0.000   0.000   0.000   0.089   0.000
 -0.011   0.000   0.000   0.000   0.000   0.000 -11.289   0.000   0.000   0.000   0.002   0.000   0.000   0.000   0.000   0.000
  0.000   0.000  -0.011   0.000   0.000   0.000   0.000   0.000 -11.401   0.000   0.000   0.000   0.002   0.000   0.000   0.000
  0.110   0.000   0.000   0.000   0.000   0.000   0.002   0.000   0.000   0.000   0.323   0.000   0.000   0.000   0.000   0.000
  0.000   0.000   0.092   0.000   0.000   0.000   0.000   0.000   0.002   0.000   0.000   0.000   0.326   0.000   0.000   0.000
  0.000   0.000   0.000   0.000   0.089   0.000   0.000   0.000   0.000   0.000   0.000   0.000   0.000   0.000   0.327   0.000
  0.002   0.000   0.000   0.000   0.000   0.000   0.092   0.000   0.000   0.000   0.000   0.000   0.000   0.000   0.000   0.000
  0.000   0.000   0.002   0.000   0.000   0.000   0.000   0.000   0.110   0.000   0.000   0.000   0.000   0.000   0.000   0.000
  0.000   0.000   0.000   0.000  -0.029   0.000   0.000   0.000   0.000   0.000   0.000   0.000   0.000   0.000   0.004   0.000
  0.000   0.000   0.000   0.000   0.003   0.000   0.000   0.000   0.000   0.000   0.000   0.000   0.000   0.000   0.000   0.000
  0.000   0.000  -0.011   0.000   0.000   0.000   0.000   0.000   0.000   0.000   0.000   0.000   0.002   0.000   0.000   0.000
  0.000   0.000   0.000   0.000  -0.012   0.000   0.000   0.000   0.000   0.000   0.000   0.000   0.000   0.000   0.002   0.000
  0.000   0.000   0.000   0.000   0.000   0.000  -0.011   0.000   0.000   0.000   0.000   0.000   0.000   0.000   0.000   0.000
  0.000   0.000   0.010   0.000   0.000   0.000   0.000   0.000   0.000   0.000   0.000   0.000  -0.002   0.000   0.000   0.000
  0.000   0.000   0.000   0.000   0.010   0.000   0.000   0.000   0.000   0.000   0.000   0.000   0.000   0.000  -0.002   0.000
  0.000   0.000   0.000   0.000   0.000   0.000   0.010   0.000   0.000   0.000   0.000   0.000   0.000   0.000   0.000   0.000
 total augmentation occupancy for first ion, spin component:           1
  1.724   0.000   0.000  -0.042   0.000   0.132   0.000   0.000   0.021   0.000   0.000   0.000   0.000   0.000   0.003   0.000
  0.000   1.854   0.000   0.000  -0.042   0.000   0.051   0.000   0.000   0.022   0.000   0.000  -0.015   0.000   0.000  -0.015
  0.000   0.000   1.833   0.000   0.000   0.000   0.000   0.078   0.000   0.000   0.016  -0.063   0.000   0.025   0.000   0.000
 -0.042   0.000   0.000   1.854   0.000   0.022   0.000   0.000   0.051   0.000   0.000   0.000   0.000   0.000  -0.015   0.000
  0.000  -0.042   0.000   0.000   1.724   0.000   0.021   0.000   0.000   0.132   0.000   0.000   0.003   0.000   0.000   0.001
  0.132   0.000   0.000   0.022   0.000   0.113   0.000   0.000   0.003   0.000   0.000   0.000   0.000   0.000   0.006   0.000
  0.000   0.051   0.000   0.000   0.021   0.000   0.090   0.000   0.000   0.003   0.000   0.000   0.033   0.000   0.000  -0.001
  0.000   0.000   0.078   0.000   0.000   0.000   0.000   0.118   0.000   0.000  -0.112   0.029   0.000   0.045   0.000   0.000
  0.021   0.000   0.000   0.051   0.000   0.003   0.000   0.000   0.090   0.000   0.000   0.000   0.000   0.000   0.033   0.000
  0.000   0.022   0.000   0.000   0.132   0.000   0.003   0.000   0.000   0.113   0.000   0.000   0.006   0.000   0.000   0.000
  0.000   0.000   0.016   0.000   0.000   0.000   0.000  -0.112   0.000   0.000   0.999  -0.326   0.000   0.073   0.000   0.000
  0.000   0.000  -0.063   0.000   0.000   0.000   0.000   0.029   0.000   0.000  -0.326   0.121   0.000  -0.039   0.000   0.000
  0.000  -0.015   0.000   0.000   0.003   0.000   0.033   0.000   0.000   0.006   0.000   0.000   0.110   0.000   0.000  -0.002
  0.000   0.000   0.025   0.000   0.000   0.000   0.000   0.045   0.000   0.000   0.073  -0.039   0.000   0.062   0.000   0.000
  0.003   0.000   0.000  -0.015   0.000   0.006   0.000   0.000   0.033   0.000   0.000   0.000   0.000   0.000   0.110   0.000
  0.000  -0.015   0.000   0.000   0.001   0.000  -0.001   0.000   0.000   0.000   0.000   0.000  -0.002   0.000   0.000   0.000
  0.000   0.000  -0.020   0.000   0.000   0.000   0.000  -0.001   0.000   0.000  -0.004   0.002   0.000  -0.001   0.000   0.000
  0.001   0.000   0.000  -0.015   0.000   0.000   0.000   0.000  -0.001   0.000   0.000   0.000   0.000   0.000  -0.002   0.000


------------------------ aborting loop because EDIFF is reached ----------------------------------------


    CHARGE:  cpu time    0.09: real time    0.09
    FORLOC:  cpu time    0.01: real time    0.01
    FORNL :  cpu time    0.45: real time    0.45
    STRESS:  cpu time    0.79: real time    0.80
    FORCOR:  cpu time    0.12: real time    0.12
    FORHAR:  cpu time    0.04: real time    0.04
    MIXING:  cpu time    0.00: real time    0.01

  FORCE on cell =-STRESS in cart. coord.  units (eV):
  Direction    XX          YY          ZZ          XY          YZ          ZX
  --------------------------------------------------------------------------------------
  Alpha Z   305.72458   305.72458   305.72458
  Ewald   15903.39367 15903.39366-19229.55719     0.00000     0.00000     0.00000
  Hartree 17355.64361 17355.64361-16869.87363     0.00000     0.00000     0.00000
  E(xc)    -313.67998  -313.68000  -314.84481     0.00001     0.00000     0.00000
  Local  -34002.06670-34002.06698 35348.63073     0.00024     0.00000     0.00000
  n-local  -332.70692  -308.72204  -323.35353     5.24258    -3.07545     1.50613
  augment   256.59419   256.59444   260.11402    -0.00022     0.00000     0.00000
  Kinetic   802.63245   823.38626   822.58916     5.32266     2.98908    -0.72012
  Fock        0.00000     0.00000     0.00000     0.00000     0.00000     0.00000
  -------------------------------------------------------------------------------------
  Total      -2.09579    -2.09579    -0.57066     0.00000     0.00000     0.00000
  in kB     -20.94476   -20.94476    -5.70298     0.00000     0.00000     0.00000
  external pressure =      -15.86 kB  Pullay stress =        0.00 kB


 VOLUME and BASIS-vectors are now :
 -----------------------------------------------------------------------------
  energy-cutoff  :      415.00
  volume of cell :      160.32
      direct lattice vectors                 reciprocal lattice vectors
     2.795185513  0.000000000  0.000000000     0.357758008 -0.206551682  0.000000000
     1.397592758  2.420701664  0.000000000     0.000000000  0.413103364  0.000000000
     0.000000000  0.000000000 23.693556493     0.000000000  0.000000000  0.042205568

  length of vectors
     2.795185513  2.795185515 23.693556493     0.413103364  0.413103364  0.042205568


 FORCES acting on ions
    electron-ion (+dipol)            ewald-force                    non-local-force                 convergence-correction
 -----------------------------------------------------------------------------------------------
   0.166E-06 0.124E-06 0.281E+04   0.257E-07 -.243E-07 -.281E+04   -.694E-17 0.520E-17 -.126E+01   0.359E-11 0.173E-11 -.223E-02
   -.382E-08 -.223E-08 -.565E+03   -.150E-10 0.141E-10 0.565E+03   -.867E-18 -.173E-17 -.446E-01   -.115E-10 -.634E-11 0.665E-02
   0.778E-06 0.449E-06 0.169E+04   0.682E-09 0.211E-09 -.169E+04   0.239E-17 0.867E-18 -.332E-01   0.714E-10 0.411E-10 -.137E-01
   0.707E-06 0.408E-06 -.169E+04   0.439E-09 0.436E-09 0.169E+04   -.217E-17 -.867E-18 0.332E-01   -.673E-10 -.388E-10 0.137E-01
   -.697E-06 -.402E-06 0.565E+03   -.549E-09 -.340E-09 -.565E+03   0.867E-18 0.173E-17 0.446E-01   0.110E-10 0.602E-11 -.666E-02
   -.196E-06 -.141E-06 -.281E+04   -.263E-07 0.240E-07 0.281E+04   0.781E-17 -.347E-17 0.126E+01   -.395E-11 -.199E-11 0.223E-02
 -----------------------------------------------------------------------------------------------
   0.755E-06 0.436E-06 -.152E-02   0.166E-12 -.707E-13 -.455E-12   0.108E-17 0.173E-17 0.222E-15   0.324E-11 0.172E-11 -.488E-05
 
 
 POSITION                                       TOTAL-FORCE (eV/Angst)
 -----------------------------------------------------------------------------------
      0.00000      0.00000     -0.00017         0.000000      0.000000      0.008824
      0.00000      0.00000      6.84582         0.000000      0.000000     -0.019266
      1.39759      0.80690      2.28484         0.000000      0.000000      0.035100
      1.39759      0.80690      9.12646         0.000000      0.000000     -0.035100
      2.79519      1.61380      4.56547         0.000000      0.000000      0.019266
      2.79519      1.61380     11.41146         0.000000      0.000000     -0.008824
 -----------------------------------------------------------------------------------
    total drift:                                0.000001      0.000000     -0.001521


--------------------------------------------------------------------------------------------------------



  FREE ENERGIE OF THE ION-ELECTRON SYSTEM (eV)
  ---------------------------------------------------
  free  energy   TOTEN  =       -30.10051115 eV

  energy  without entropy=      -30.10051115  energy(sigma->0) =      -30.10051115
 
 d Force = 0.1478208E-03[ 0.129E-03, 0.167E-03]  d Energy = 0.1728497E-03-0.250E-04
 d Force =-0.5332984E+01[-0.533E+01,-0.533E+01]  d Ewald  =-0.5332984E+01-0.309E-07


--------------------------------------------------------------------------------------------------------


    POTLOK:  cpu time    0.12: real time    0.12


--------------------------------------------------------------------------------------------------------




--------------------------------------------------------------------------------------------------------


    WAVPRE:  cpu time    0.03: real time    0.03
 FEWALD executed in parallel
    FEWALD:  cpu time    0.00: real time    0.00
    ORTHCH:  cpu time    0.11: real time    0.11
     LOOP+:  cpu time   14.46: real time   14.68


----------------------------------------- Iteration    5(   1)  ---------------------------------------


    POTLOK:  cpu time    0.10: real time    0.11
    SETDIJ:  cpu time    0.01: real time    0.01
     EDDAV:  cpu time    1.17: real time    1.18
 BZINTS: Fermi energy:  0.322852; 60.000000 electrons
         Band energy:-116.551351;  BLOECHL correction: -0.277341
       DOS:  cpu time    0.00: real time    0.00
    CHARGE:  cpu time    0.10: real time    0.10
    MIXING:  cpu time    0.01: real time    0.00
    --------------------------------------------
      LOOP:  cpu time    1.39: real time    1.41

 eigenvalue-minimisations  :   576
 total energy-change (2. order) : 0.6544518E-04  (-0.1321754E-01)
 number of electron      60.0000011 magnetization 
 augmentation part       25.3996031 magnetization 

 Broyden mixing:
  rms(total) = 0.43557E-02    rms(broyden)= 0.43503E-02
  rms(prec ) = 0.46827E-02
  weight for this iteration     100.00

 Free energy of the ion-electron system (eV)
  ---------------------------------------------------
  alpha Z        PSCENC =       305.72458370
  Ewald energy   TEWEN  =     12587.90660390
  -1/2 Hartree   DENC   =    -17852.05028044
  -exchange  EXHF       =         0.00000000
  -V(xc)+E(xc)   XCENC  =      -177.95280417
  PAW double counting   =      4154.05433460    -3789.70904496
  entropy T*S    EENTRO =         0.00000000
  eigenvalues    EBANDS =      -116.55135062
  atomic energy  EATOM  =      4858.47751158
  ---------------------------------------------------
  free energy    TOTEN  =       -30.10044642 eV

  energy without entropy =      -30.10044642  energy(sigma->0) =      -30.10044642


--------------------------------------------------------------------------------------------------------




----------------------------------------- Iteration    5(   2)  ---------------------------------------


    POTLOK:  cpu time    0.10: real time    0.10
    SETDIJ:  cpu time    0.01: real time    0.01
     EDDAV:  cpu time    1.64: real time    1.64
 BZINTS: Fermi energy:  0.323563; 60.000000 electrons
         Band energy:-116.500655;  BLOECHL correction: -0.277233
       DOS:  cpu time    0.00: real time    0.00
    CHARGE:  cpu time    0.09: real time    0.09
    MIXING:  cpu time    0.01: real time    0.01
    --------------------------------------------
      LOOP:  cpu time    1.85: real time    1.87

 eigenvalue-minimisations  :   860
 total energy-change (2. order) :-0.2869080E-03  (-0.4417626E-03)
 number of electron      60.0000011 magnetization 
 augmentation part       25.4001026 magnetization 

 Broyden mixing:
  rms(total) = 0.96314E-02    rms(broyden)= 0.96300E-02
  rms(prec ) = 0.14204E-01
  weight for this iteration     100.00

 eigenvalues of (default mixing * dielectric matrix)
  average eigenvalue GAMMA=   0.2654
  0.2654

 Free energy of the ion-electron system (eV)
  ---------------------------------------------------
  alpha Z        PSCENC =       305.72458370
  Ewald energy   TEWEN  =     12587.90660390
  -1/2 Hartree   DENC   =    -17852.10096604
  -exchange  EXHF       =         0.00000000
  -V(xc)+E(xc)   XCENC  =      -177.95298307
  PAW double counting   =      4154.02401629    -3789.67884436
  entropy T*S    EENTRO =         0.00000000
  eigenvalues    EBANDS =      -116.50065531
  atomic energy  EATOM  =      4858.47751158
  ---------------------------------------------------
  free energy    TOTEN  =       -30.10073333 eV

  energy without entropy =      -30.10073333  energy(sigma->0) =      -30.10073333


--------------------------------------------------------------------------------------------------------




----------------------------------------- Iteration    5(   3)  ---------------------------------------


    POTLOK:  cpu time    0.10: real time    0.10
    SETDIJ:  cpu time    0.01: real time    0.01
     EDDAV:  cpu time    1.62: real time    1.63
 BZINTS: Fermi energy:  0.320486; 60.000000 electrons
         Band energy:-116.693389;  BLOECHL correction: -0.277438
       DOS:  cpu time    0.00: real time    0.00
    CHARGE:  cpu time    0.09: real time    0.09
    MIXING:  cpu time    0.00: real time    0.00
    --------------------------------------------
      LOOP:  cpu time    1.83: real time    1.86

 eigenvalue-minimisations  :   848
 total energy-change (2. order) :-0.2491365E-03  (-0.2062625E-03)
 number of electron      60.0000011 magnetization 
 augmentation part       25.4009283 magnetization 

 Broyden mixing:
  rms(total) = 0.11330E-01    rms(broyden)= 0.11326E-01
  rms(prec ) = 0.16514E-01
  weight for this iteration     100.00

 eigenvalues of (default mixing * dielectric matrix)
  average eigenvalue GAMMA=   0.2926
  0.4997  0.0854

 Free energy of the ion-electron system (eV)
  ---------------------------------------------------
  alpha Z        PSCENC =       305.72458370
  Ewald energy   TEWEN  =     12587.90660390
  -1/2 Hartree   DENC   =    -17851.90856669
  -exchange  EXHF       =         0.00000000
  -V(xc)+E(xc)   XCENC  =      -177.95290906
  PAW double counting   =      4154.02340766    -3789.67822433
  entropy T*S    EENTRO =         0.00000000
  eigenvalues    EBANDS =      -116.69338923
  atomic energy  EATOM  =      4858.47751158
  ---------------------------------------------------
  free energy    TOTEN  =       -30.10098247 eV

  energy without entropy =      -30.10098247  energy(sigma->0) =      -30.10098247


--------------------------------------------------------------------------------------------------------




----------------------------------------- Iteration    5(   4)  ---------------------------------------


    POTLOK:  cpu time    0.10: real time    0.10
    SETDIJ:  cpu time    0.01: real time    0.01
     EDDAV:  cpu time    1.70: real time    1.71
 BZINTS: Fermi energy:  0.322715; 60.000000 electrons
         Band energy:-116.561956;  BLOECHL correction: -0.277318
       DOS:  cpu time    0.00: real time    0.00
    CHARGE:  cpu time    0.09: real time    0.09
    MIXING:  cpu time    0.00: real time    0.00
    --------------------------------------------
      LOOP:  cpu time    1.92: real time    1.94

 eigenvalue-minimisations  :   924
 total energy-change (2. order) : 0.2230055E-03  (-0.7469831E-04)
 number of electron      60.0000011 magnetization 
 augmentation part       25.4002441 magnetization 

 Broyden mixing:
  rms(total) = 0.30166E-02    rms(broyden)= 0.30135E-02
  rms(prec ) = 0.35873E-02
  weight for this iteration     100.00

 eigenvalues of (default mixing * dielectric matrix)
  average eigenvalue GAMMA=   0.2762
  0.3735  0.3735  0.0816

 Free energy of the ion-electron system (eV)
  ---------------------------------------------------
  alpha Z        PSCENC =       305.72458370
  Ewald energy   TEWEN  =     12587.90660390
  -1/2 Hartree   DENC   =    -17852.03997882
  -exchange  EXHF       =         0.00000000
  -V(xc)+E(xc)   XCENC  =      -177.95289912
  PAW double counting   =      4154.03686233    -3789.69148722
  entropy T*S    EENTRO =         0.00000000
  eigenvalues    EBANDS =      -116.56195580
  atomic energy  EATOM  =      4858.47751158
  ---------------------------------------------------
  free energy    TOTEN  =       -30.10075946 eV

  energy without entropy =      -30.10075946  energy(sigma->0) =      -30.10075946


--------------------------------------------------------------------------------------------------------




----------------------------------------- Iteration    5(   5)  ---------------------------------------


    POTLOK:  cpu time    0.10: real time    0.10
    SETDIJ:  cpu time    0.01: real time    0.01
     EDDAV:  cpu time    1.52: real time    1.53
 BZINTS: Fermi energy:  0.322243; 60.000000 electrons
         Band energy:-116.582089;  BLOECHL correction: -0.277315
       DOS:  cpu time    0.00: real time    0.00
    CHARGE:  cpu time    0.09: real time    0.09
    MIXING:  cpu time    0.00: real time    0.01
    --------------------------------------------
      LOOP:  cpu time    1.72: real time    1.75

 eigenvalue-minimisations  :   804
 total energy-change (2. order) : 0.3451269E-04  (-0.3934134E-05)
 number of electron      60.0000011 magnetization 
 augmentation part       25.4002596 magnetization 

 Broyden mixing:
  rms(total) = 0.25318E-02    rms(broyden)= 0.25316E-02
  rms(prec ) = 0.27753E-02
  weight for this iteration     100.00

 eigenvalues of (default mixing * dielectric matrix)
  average eigenvalue GAMMA=   0.7795
  1.9558  0.9074  0.0820  0.1727

 Free energy of the ion-electron system (eV)
  ---------------------------------------------------
  alpha Z        PSCENC =       305.72458370
  Ewald energy   TEWEN  =     12587.90660390
  -1/2 Hartree   DENC   =    -17852.01978871
  -exchange  EXHF       =         0.00000000
  -V(xc)+E(xc)   XCENC  =      -177.95285131
  PAW double counting   =      4154.03699252    -3789.69168731
  entropy T*S    EENTRO =         0.00000000
  eigenvalues    EBANDS =      -116.58208930
  atomic energy  EATOM  =      4858.47751158
  ---------------------------------------------------
  free energy    TOTEN  =       -30.10072495 eV

  energy without entropy =      -30.10072495  energy(sigma->0) =      -30.10072495


--------------------------------------------------------------------------------------------------------




----------------------------------------- Iteration    5(   6)  ---------------------------------------


    POTLOK:  cpu time    0.10: real time    0.10
    SETDIJ:  cpu time    0.01: real time    0.01
     EDDAV:  cpu time    1.61: real time    1.62
 BZINTS: Fermi energy:  0.322488; 60.000000 electrons
         Band energy:-116.570769;  BLOECHL correction: -0.277319
       DOS:  cpu time    0.00: real time    0.00
    CHARGE:  cpu time    0.09: real time    0.09
    MIXING:  cpu time    0.00: real time    0.01
    --------------------------------------------
      LOOP:  cpu time    1.82: real time    1.85

 eigenvalue-minimisations  :   860
 total energy-change (2. order) :-0.1423027E-05  (-0.4929234E-05)
 number of electron      60.0000011 magnetization 
 augmentation part       25.4001306 magnetization 

 Broyden mixing:
  rms(total) = 0.13225E-02    rms(broyden)= 0.13224E-02
  rms(prec ) = 0.17902E-02
  weight for this iteration     100.00

 eigenvalues of (default mixing * dielectric matrix)
  average eigenvalue GAMMA=   0.8522
  2.3329  0.8371  0.8371  0.0818  0.1723

 Free energy of the ion-electron system (eV)
  ---------------------------------------------------
  alpha Z        PSCENC =       305.72458370
  Ewald energy   TEWEN  =     12587.90660390
  -1/2 Hartree   DENC   =    -17852.03102042
  -exchange  EXHF       =         0.00000000
  -V(xc)+E(xc)   XCENC  =      -177.95281841
  PAW double counting   =      4154.03998979    -3789.69480759
  entropy T*S    EENTRO =         0.00000000
  eigenvalues    EBANDS =      -116.57076891
  atomic energy  EATOM  =      4858.47751158
  ---------------------------------------------------
  free energy    TOTEN  =       -30.10072637 eV

  energy without entropy =      -30.10072637  energy(sigma->0) =      -30.10072637


--------------------------------------------------------------------------------------------------------




----------------------------------------- Iteration    5(   7)  ---------------------------------------


    POTLOK:  cpu time    0.10: real time    0.10
    SETDIJ:  cpu time    0.02: real time    0.01
     EDDAV:  cpu time    1.53: real time    1.55
 BZINTS: Fermi energy:  0.322454; 60.000000 electrons
         Band energy:-116.573126;  BLOECHL correction: -0.277327
       DOS:  cpu time    0.00: real time    0.00
    CHARGE:  cpu time    0.09: real time    0.15
    MIXING:  cpu time    0.01: real time    0.01
    --------------------------------------------
      LOOP:  cpu time    1.75: real time    1.83

 eigenvalue-minimisations  :   816
 total energy-change (2. order) :-0.7776899E-05  (-0.1188961E-05)
 number of electron      60.0000011 magnetization 
 augmentation part       25.4001090 magnetization 

 Broyden mixing:
  rms(total) = 0.39902E-03    rms(broyden)= 0.39880E-03
  rms(prec ) = 0.49080E-03
  weight for this iteration     100.00

 eigenvalues of (default mixing * dielectric matrix)
  average eigenvalue GAMMA=   0.9325
  2.4197  1.0538  1.0538  0.8138  0.0818  0.1723

 Free energy of the ion-electron system (eV)
  ---------------------------------------------------
  alpha Z        PSCENC =       305.72458370
  Ewald energy   TEWEN  =     12587.90660390
  -1/2 Hartree   DENC   =    -17852.02863792
  -exchange  EXHF       =         0.00000000
  -V(xc)+E(xc)   XCENC  =      -177.95275566
  PAW double counting   =      4154.04259605    -3789.69750931
  entropy T*S    EENTRO =         0.00000000
  eigenvalues    EBANDS =      -116.57312648
  atomic energy  EATOM  =      4858.47751158
  ---------------------------------------------------
  free energy    TOTEN  =       -30.10073415 eV

  energy without entropy =      -30.10073415  energy(sigma->0) =      -30.10073415


--------------------------------------------------------------------------------------------------------




----------------------------------------- Iteration    5(   8)  ---------------------------------------


    POTLOK:  cpu time    0.10: real time    0.10
    SETDIJ:  cpu time    0.01: real time    0.01
     EDDAV:  cpu time    0.77: real time    0.77
 BZINTS: Fermi energy:  0.322399; 60.000000 electrons
         Band energy:-116.576801;  BLOECHL correction: -0.277329
       DOS:  cpu time    0.00: real time    0.00
    CHARGE:  cpu time    0.09: real time    0.09
    MIXING:  cpu time    0.01: real time    0.01
    --------------------------------------------
      LOOP:  cpu time    0.98: real time    1.00

 eigenvalue-minimisations  :   288
 total energy-change (2. order) :-0.3615922E-05  (-0.8628321E-07)
 number of electron      60.0000011 magnetization 
 augmentation part       25.4001236 magnetization 

 Broyden mixing:
  rms(total) = 0.22377E-03    rms(broyden)= 0.22363E-03
  rms(prec ) = 0.26198E-03
  weight for this iteration     100.00

 eigenvalues of (default mixing * dielectric matrix)
  average eigenvalue GAMMA=   1.0555
  2.4811  1.4051  1.4051  0.9215  0.9215  0.0818  0.1723

 Free energy of the ion-electron system (eV)
  ---------------------------------------------------
  alpha Z        PSCENC =       305.72458370
  Ewald energy   TEWEN  =     12587.90660390
  -1/2 Hartree   DENC   =    -17852.02493169
  -exchange  EXHF       =         0.00000000
  -V(xc)+E(xc)   XCENC  =      -177.95276418
  PAW double counting   =      4154.04181799    -3789.69675838
  entropy T*S    EENTRO =         0.00000000
  eigenvalues    EBANDS =      -116.57680067
  atomic energy  EATOM  =      4858.47751158
  ---------------------------------------------------
  free energy    TOTEN  =       -30.10073776 eV

  energy without entropy =      -30.10073776  energy(sigma->0) =      -30.10073776


--------------------------------------------------------------------------------------------------------




----------------------------------------- Iteration    5(   9)  ---------------------------------------


    POTLOK:  cpu time    0.10: real time    0.10
    SETDIJ:  cpu time    0.01: real time    0.01
     EDDAV:  cpu time    0.78: real time    0.78
 BZINTS: Fermi energy:  0.322383; 60.000000 electrons
         Band energy:-116.577691;  BLOECHL correction: -0.277328
       DOS:  cpu time    0.00: real time    0.00
    CHARGE:  cpu time    0.09: real time    0.09
    MIXING:  cpu time    0.01: real time    0.01
    --------------------------------------------
      LOOP:  cpu time    0.99: real time    1.01

 eigenvalue-minimisations  :   288
 total energy-change (2. order) : 0.1448516E-05  (-0.5641242E-07)
 number of electron      60.0000011 magnetization 
 augmentation part       25.4001567 magnetization 

 Broyden mixing:
  rms(total) = 0.61445E-04    rms(broyden)= 0.61437E-04
  rms(prec ) = 0.73119E-04
  weight for this iteration     100.00

 eigenvalues of (default mixing * dielectric matrix)
  average eigenvalue GAMMA=   0.9966
  2.5648  1.4514  1.4514  0.8939  0.8939  0.0818  0.1723  0.4630

 Free energy of the ion-electron system (eV)
  ---------------------------------------------------
  alpha Z        PSCENC =       305.72458370
  Ewald energy   TEWEN  =     12587.90660390
  -1/2 Hartree   DENC   =    -17852.02402879
  -exchange  EXHF       =         0.00000000
  -V(xc)+E(xc)   XCENC  =      -177.95278216
  PAW double counting   =      4154.04084089    -3789.69577394
  entropy T*S    EENTRO =         0.00000000
  eigenvalues    EBANDS =      -116.57769148
  atomic energy  EATOM  =      4858.47751158
  ---------------------------------------------------
  free energy    TOTEN  =       -30.10073631 eV

  energy without entropy =      -30.10073631  energy(sigma->0) =      -30.10073631


--------------------------------------------------------------------------------------------------------




----------------------------------------- Iteration    5(  10)  ---------------------------------------


    POTLOK:  cpu time    0.10: real time    0.10
    SETDIJ:  cpu time    0.01: real time    0.01
     EDDAV:  cpu time    0.76: real time    0.77
 BZINTS: Fermi energy:  0.322398; 60.000000 electrons
         Band energy:-116.576796;  BLOECHL correction: -0.277328
       DOS:  cpu time    0.00: real time    0.00
    --------------------------------------------
      LOOP:  cpu time    0.88: real time    0.90

 eigenvalue-minimisations  :   288
 total energy-change (2. order) : 0.3620517E-07  (-0.2018899E-07)
 number of electron      60.0000011 magnetization 
 augmentation part       25.4001567 magnetization 

 Free energy of the ion-electron system (eV)
  ---------------------------------------------------
  alpha Z        PSCENC =       305.72458370
  Ewald energy   TEWEN  =     12587.90660390
  -1/2 Hartree   DENC   =    -17852.02493142
  -exchange  EXHF       =         0.00000000
  -V(xc)+E(xc)   XCENC  =      -177.95277601
  PAW double counting   =      4154.04126802    -3789.69620009
  entropy T*S    EENTRO =         0.00000000
  eigenvalues    EBANDS =      -116.57679595
  atomic energy  EATOM  =      4858.47751158
  ---------------------------------------------------
  free energy    TOTEN  =       -30.10073628 eV

  energy without entropy =      -30.10073628  energy(sigma->0) =      -30.10073628


--------------------------------------------------------------------------------------------------------




 average (electrostatic) potential at core
  the test charge radii are     1.1199
  (the norm of the test charge is              1.0000)
       1 -50.8746       2 -51.2107       3 -51.1775       4 -51.1779       5 -51.2106
       6 -50.8750
 
 
 
 E-fermi :   0.3224     XC(G=0):  -8.1506     alpha+bet : -6.5480


 k-point   1 :       0.0000    0.0000    0.0000
  band No.  band energies     occupation 
      1      -6.2484      2.00000
      2      -5.6394      2.00000
      3      -4.9142      2.00000
      4      -4.5921      2.00000
      5      -4.3487      2.00000
      6      -4.3453      2.00000
      7      -2.3768      2.00000
      8      -2.3557      2.00000
      9      -2.2739      2.00000
     10      -2.2739      2.00000
     11      -2.2184      2.00000
     12      -2.2184      2.00000
     13      -2.1455      2.00000
     14      -2.1225      2.00000
     15      -2.1224      2.00000
     16      -2.0465      2.00000
     17      -2.0465      2.00000
     18      -1.8920      2.00000
     19      -1.8920      2.00000
     20      -1.8583      2.00000
     21      -1.8583      2.00000
     22      -1.5553      2.00000
     23      -0.8147      2.00000
     24      -0.8147      2.00000
     25      -0.7693      2.00000
     26      -0.7693      2.00000
     27      -0.5677      2.00000
     28      -0.5677      2.00000
     29      -0.3005      2.00000
     30      -0.2304      2.00000
     31      -0.2304      2.00000
     32       0.1111      2.00000
     33       0.1111      2.00000
     34       0.2829      2.00000
     35       0.2829      0.05509
     36       1.2570      0.00000

 k-point   2 :       0.1429    0.0000    0.0000
  band No.  band energies     occupation 
      1      -5.6515      2.00000
      2      -5.0742      2.00000
      3      -4.3793      2.00000
      4      -4.1505      2.00000
      5      -3.8973      2.00000
      6      -3.8383      2.00000
      7      -2.8262      2.00000
      8      -2.6509      2.00000
      9      -2.5841      2.00000
     10      -2.4683      2.00000
     11      -2.3811      2.00000
     12      -2.1880      2.00000
     13      -2.0320      2.00000
     14      -2.0036      2.00000
     15      -1.9791      2.00000
     16      -1.9078      2.00000
     17      -1.8954      2.00000
     18      -1.8064      2.00000
     19      -1.7417      2.00000
     20      -1.7305      2.00000
     21      -1.5520      2.00000
     22      -1.5402      2.00000
     23      -1.4960      2.00000
     24      -1.1100      2.00000
     25      -1.0698      2.00000
     26      -0.9064      2.00000
     27      -0.7669      2.00000
     28      -0.7299      2.00000
     29      -0.5324      2.00000
     30      -0.4307      2.00000
     31      -0.2243      2.00000
     32       0.1228      2.00000
     33       0.2383      2.00743
     34       0.3115      0.84589
     35       1.2979     -0.00767
     36       2.6103      0.00000

 k-point   3 :       0.2857    0.0000    0.0000
  band No.  band energies     occupation 
      1      -4.5030      2.00000
      2      -4.1914      2.00000
      3      -4.0348      2.00000
      4      -3.8688      2.00000
      5      -3.6787      2.00000
      6      -3.5407      2.00000
      7      -3.3458      2.00000
      8      -3.2646      2.00000
      9      -2.9061      2.00000
     10      -2.5245      2.00000
     11      -2.4633      2.00000
     12      -2.1570      2.00000
     13      -2.0786      2.00000
     14      -1.9797      2.00000
     15      -1.9567      2.00000
     16      -1.7002      2.00000
     17      -1.5989      2.00000
     18      -1.3912      2.00000
     19      -1.2215      2.00000
     20      -1.1966      2.00000
     21      -1.0687      2.00000
     22      -0.9375      2.00000
     23      -0.7479      2.00000
     24      -0.7349      2.00000
     25      -0.6224      2.00000
     26      -0.6007      2.00000
     27      -0.4916      2.04524
     28      -0.4183      2.11925
     29      -0.2810      2.23164
     30      -0.1528      2.16865
     31       0.0782      1.28582
     32       0.1365      1.11559
     33       0.3636      0.58341
     34       1.3487     -0.00283
     35       2.8920      0.00000
     36       4.5719      0.00000

 k-point   4 :       0.4286    0.0000    0.0000
  band No.  band energies     occupation 
      1      -4.4759      2.00000
      2      -4.4315      2.00000
      3      -4.2311      2.00000
      4      -4.1683      2.00000
      5      -4.0564      2.00000
      6      -3.8315      2.00000
      7      -3.8073      2.00000
      8      -3.6901      2.00000
      9      -3.1961      2.00000
     10      -2.6646      2.00000
     11      -2.4031      2.00000
     12      -2.3105      2.00000
     13      -2.1695      2.00000
     14      -1.7525      2.00000
     15      -1.7009      2.00000
     16      -1.3990      2.00000
     17      -1.1902      2.00000
     18      -0.9284      2.00000
     19      -0.5826      2.00000
     20      -0.4690      2.00000
     21      -0.1026      2.00000
     22      -0.0711      2.00000
     23       0.1880      2.00000
     24       0.1956      2.00000
     25       0.2478      2.00000
     26       0.2729      2.00000
     27       0.3478      1.45560
     28       0.4144      0.71828
     29       0.4669      0.21611
     30       0.5158      0.12566
     31       1.1379     -0.02655
     32       1.8457     -0.02856
     33       2.2146      0.00000
     34       3.0391      0.00000
     35       4.4037      0.00000
     36       5.6917      0.00000

 k-point   5 :       0.2857    0.1429    0.0000
  band No.  band energies     occupation 
      1      -4.6602      2.00000
      2      -4.2473      2.00000
      3      -3.7323      2.00000
      4      -3.5198      2.00000
      5      -3.4078      2.00000
      6      -3.2774      2.00000
      7      -3.1393      2.00000
      8      -3.1059      2.00000
      9      -2.9366      2.00000
     10      -2.8399      2.00000
     11      -2.5790      2.00000
     12      -2.5028      2.00000
     13      -2.3978      2.00000
     14      -2.2830      2.00000
     15      -2.1128      2.00000
     16      -2.0193      2.00000
     17      -1.9470      2.00000
     18      -1.7235      2.00000
     19      -1.5559      2.00000
     20      -1.3797      2.00000
     21      -1.2562      2.00000
     22      -1.1300      2.00000
     23      -1.1193      2.00000
     24      -0.8677      2.00000
     25      -0.7837      2.00000
     26      -0.5751      2.00000
     27      -0.5158      2.00000
     28      -0.4551      2.00000
     29      -0.2598      2.00000
     30      -0.2288      2.13912
     31      -0.0511      1.63800
     32       0.1335      1.42016
     33       0.1581      1.34594
     34       1.1539     -0.15038
     35       2.5089      0.00000
     36       4.0723      0.00000

 k-point   6 :       0.4286    0.1429    0.0000
  band No.  band energies     occupation 
      1      -4.0533      2.00000
      2      -4.0181      2.00000
      3      -3.8263      2.00000
      4      -3.6884      2.00000
      5      -3.6523      2.00000
      6      -3.5082      2.00000
      7      -3.3943      2.00000
      8      -3.1430      2.00000
      9      -3.0486      2.00000
     10      -2.7956      2.00000
     11      -2.4438      2.00000
     12      -2.4137      2.00000
     13      -2.2823      2.00000
     14      -2.0041      2.00000
     15      -1.9490      2.00000
     16      -1.8611      2.00000
     17      -1.5760      2.00000
     18      -1.4578      2.00000
     19      -1.3419      2.00000
     20      -1.2044      2.00000
     21      -0.9974      2.00000
     22      -0.7691      2.00000
     23      -0.7326      2.00000
     24      -0.5453      2.00000
     25      -0.2780      2.00000
     26      -0.2536      2.00000
     27       0.1905      2.00834
     28       0.2093      1.99211
     29       0.3097      1.52245
     30       0.4423      0.48545
     31       1.3150     -0.11556
     32       1.4932     -0.13879
     33       1.9093     -0.12155
     34       2.9460      0.00000
     35       4.4199      0.00000
     36       6.0993      0.00000

 k-point   7 :      -0.4286    0.1429    0.0000
  band No.  band energies     occupation 
      1      -4.2827      2.00000
      2      -4.1353      2.00000
      3      -4.0157      2.00000
      4      -3.8972      2.00000
      5      -3.7395      2.00000
      6      -3.6905      2.00000
      7      -3.5163      2.00000
      8      -3.3539      2.00000
      9      -3.1361      2.00000
     10      -2.8344      2.00000
     11      -2.6893      2.00000
     12      -2.1942      2.00000
     13      -2.1599      2.00000
     14      -2.0192      2.00000
     15      -1.8195      2.00000
     16      -1.6439      2.00000
     17      -1.3322      2.00000
     18      -1.0986      2.00000
     19      -1.0428      2.00000
     20      -0.6427      2.00000
     21      -0.5562      2.00000
     22      -0.5022      2.00000
     23      -0.2199      2.00000
     24      -0.0609      2.00000
     25       0.0922      2.00000
     26       0.1015      2.00000
     27       0.1810      2.14235
     28       0.2128      1.96522
     29       0.3755      0.02613
     30       0.4816      0.00000
     31       3.4691      0.00000
     32       3.9950      0.00000
     33       4.4485      0.00000
     34       4.7815      0.00000
     35       5.0518      0.00000
     36       5.2032      0.00000

 k-point   8 :      -0.4286    0.2857    0.0000
  band No.  band energies     occupation 
      1      -3.7800      2.00000
      2      -3.7779      2.00000
      3      -3.5634      2.00000
      4      -3.3939      2.00000
      5      -3.3125      2.00000
      6      -3.1759      2.00000
      7      -3.1566      2.00000
      8      -3.0165      2.00000
      9      -3.0089      2.00000
     10      -2.7589      2.00000
     11      -2.7476      2.00000
     12      -2.4367      2.00000
     13      -2.3863      2.00000
     14      -2.1825      2.00000
     15      -2.0167      2.00000
     16      -1.7934      2.00000
     17      -1.7450      2.00000
     18      -1.6172      2.00000
     19      -1.5878      2.00000
     20      -1.1719      2.00000
     21      -1.0835      2.00000
     22      -0.8924      2.00000
     23      -0.7462      2.00000
     24      -0.6880      2.00000
     25      -0.3463      2.00000
     26      -0.0876      2.00000
     27       0.1645      2.00000
     28       0.2402      2.00000
     29       0.2759      2.01306
     30       0.4313      0.00000
     31       4.1144      0.00000
     32       4.4980      0.00000
     33       5.1308      0.00000
     34       6.0562      0.00000
     35       7.1859      0.00000
     36       7.8592      0.00000


--------------------------------------------------------------------------------------------------------


 soft charge-density along one line, spin component           1
         0         1         2         3         4         5         6         7         8         9
 total charge-density along one line
 
 pseudopotential strength for first ion, spin component:           1
-11.401   0.000   0.000   0.000   0.000   0.000  -0.011   0.000   0.000   0.000   0.110   0.000   0.000   0.000   0.000   0.000
  0.000   0.000 -11.288   0.000   0.000   0.000   0.000   0.000  -0.011   0.000   0.000   0.000   0.092   0.000   0.000   0.000
  0.000   0.000   0.000   0.000 -11.270   0.000   0.000   0.000   0.000   0.000   0.000   0.000   0.000   0.000   0.089   0.000
 -0.011   0.000   0.000   0.000   0.000   0.000 -11.288   0.000   0.000   0.000   0.002   0.000   0.000   0.000   0.000   0.000
  0.000   0.000  -0.011   0.000   0.000   0.000   0.000   0.000 -11.401   0.000   0.000   0.000   0.002   0.000   0.000   0.000
  0.110   0.000   0.000   0.000   0.000   0.000   0.002   0.000   0.000   0.000   0.323   0.000   0.000   0.000   0.000   0.000
  0.000   0.000   0.092   0.000   0.000   0.000   0.000   0.000   0.002   0.000   0.000   0.000   0.326   0.000   0.000   0.000
  0.000   0.000   0.000   0.000   0.089   0.000   0.000   0.000   0.000   0.000   0.000   0.000   0.000   0.000   0.327   0.000
  0.002   0.000   0.000   0.000   0.000   0.000   0.092   0.000   0.000   0.000   0.000   0.000   0.000   0.000   0.000   0.000
  0.000   0.000   0.002   0.000   0.000   0.000   0.000   0.000   0.110   0.000   0.000   0.000   0.000   0.000   0.000   0.000
  0.000   0.000   0.000   0.000  -0.029   0.000   0.000   0.000   0.000   0.000   0.000   0.000   0.000   0.000   0.004   0.000
  0.000   0.000   0.000   0.000   0.003   0.000   0.000   0.000   0.000   0.000   0.000   0.000   0.000   0.000   0.000   0.000
  0.000   0.000  -0.011   0.000   0.000   0.000   0.000   0.000   0.000   0.000   0.000   0.000   0.002   0.000   0.000   0.000
  0.000   0.000   0.000   0.000  -0.012   0.000   0.000   0.000   0.000   0.000   0.000   0.000   0.000   0.000   0.002   0.000
  0.000   0.000   0.000   0.000   0.000   0.000  -0.011   0.000   0.000   0.000   0.000   0.000   0.000   0.000   0.000   0.000
  0.000   0.000   0.010   0.000   0.000   0.000   0.000   0.000   0.000   0.000   0.000   0.000  -0.002   0.000   0.000   0.000
  0.000   0.000   0.000   0.000   0.010   0.000   0.000   0.000   0.000   0.000   0.000   0.000   0.000   0.000  -0.002   0.000
  0.000   0.000   0.000   0.000   0.000   0.000   0.010   0.000   0.000   0.000   0.000   0.000   0.000   0.000   0.000   0.000
 total augmentation occupancy for first ion, spin component:           1
  1.724   0.000   0.000  -0.041   0.000   0.132   0.000   0.000   0.021   0.000   0.000   0.000   0.000   0.000   0.003   0.000
  0.000   1.855   0.000   0.000  -0.041   0.000   0.051   0.000   0.000   0.022   0.000   0.000  -0.015   0.000   0.000  -0.015
  0.000   0.000   1.833   0.000   0.000   0.000   0.000   0.078   0.000   0.000   0.016  -0.064   0.000   0.025   0.000   0.000
 -0.041   0.000   0.000   1.855   0.000   0.022   0.000   0.000   0.051   0.000   0.000   0.000   0.000   0.000  -0.015   0.000
  0.000  -0.041   0.000   0.000   1.724   0.000   0.021   0.000   0.000   0.132   0.000   0.000   0.003   0.000   0.000   0.001
  0.132   0.000   0.000   0.022   0.000   0.113   0.000   0.000   0.003   0.000   0.000   0.000   0.000   0.000   0.006   0.000
  0.000   0.051   0.000   0.000   0.021   0.000   0.089   0.000   0.000   0.003   0.000   0.000   0.033   0.000   0.000  -0.001
  0.000   0.000   0.078   0.000   0.000   0.000   0.000   0.117   0.000   0.000  -0.112   0.029   0.000   0.045   0.000   0.000
  0.021   0.000   0.000   0.051   0.000   0.003   0.000   0.000   0.089   0.000   0.000   0.000   0.000   0.000   0.033   0.000
  0.000   0.022   0.000   0.000   0.132   0.000   0.003   0.000   0.000   0.113   0.000   0.000   0.006   0.000   0.000   0.000
  0.000   0.000   0.016   0.000   0.000   0.000   0.000  -0.112   0.000   0.000   0.999  -0.326   0.000   0.072   0.000   0.000
  0.000   0.000  -0.064   0.000   0.000   0.000   0.000   0.029   0.000   0.000  -0.326   0.121   0.000  -0.039   0.000   0.000
  0.000  -0.015   0.000   0.000   0.003   0.000   0.033   0.000   0.000   0.006   0.000   0.000   0.110   0.000   0.000  -0.002
  0.000   0.000   0.025   0.000   0.000   0.000   0.000   0.045   0.000   0.000   0.072  -0.039   0.000   0.062   0.000   0.000
  0.003   0.000   0.000  -0.015   0.000   0.006   0.000   0.000   0.033   0.000   0.000   0.000   0.000   0.000   0.110   0.000
  0.000  -0.015   0.000   0.000   0.001   0.000  -0.001   0.000   0.000   0.000   0.000   0.000  -0.002   0.000   0.000   0.000
  0.000   0.000  -0.020   0.000   0.000   0.000   0.000  -0.001   0.000   0.000  -0.004   0.002   0.000  -0.001   0.000   0.000
  0.001   0.000   0.000  -0.015   0.000   0.000   0.000   0.000  -0.001   0.000   0.000   0.000   0.000   0.000  -0.002   0.000


------------------------ aborting loop because EDIFF is reached ----------------------------------------


    CHARGE:  cpu time    0.09: real time    0.09
    FORLOC:  cpu time    0.01: real time    0.01
    FORNL :  cpu time    0.44: real time    0.44
    STRESS:  cpu time    0.77: real time    0.78
    FORCOR:  cpu time    0.11: real time    0.11
    FORHAR:  cpu time    0.04: real time    0.04
    MIXING:  cpu time    0.01: real time    0.01

  FORCE on cell =-STRESS in cart. coord.  units (eV):
  Direction    XX          YY          ZZ          XY          YZ          ZX
  --------------------------------------------------------------------------------------
  Alpha Z   305.72458   305.72458   305.72458
  Ewald   15914.06177 15914.06177-19240.21701     0.00000     0.00000     0.00000
  Hartree 17366.25415 17366.25415-16880.48045     0.00000     0.00000     0.00000
  E(xc)    -313.67951  -313.67953  -314.84447     0.00001     0.00000     0.00000
  Local  -34023.34521-34023.34549 35369.89292     0.00024     0.00000     0.00000
  n-local  -332.70839  -308.71998  -323.35501     5.24518    -3.07219     1.50352
  augment   256.59441   256.59466   260.11522    -0.00022     0.00000     0.00000
  Kinetic   802.63167   823.38329   822.58887     5.32077     2.98593    -0.71761
  Fock        0.00000     0.00000     0.00000     0.00000     0.00000     0.00000
  -------------------------------------------------------------------------------------
  Total      -2.09654    -2.09654    -0.57534     0.00000     0.00000     0.00000
  in kB     -20.95229   -20.95229    -5.74979     0.00000     0.00000     0.00000
  external pressure =      -15.88 kB  Pullay stress =        0.00 kB


 VOLUME and BASIS-vectors are now :
 -----------------------------------------------------------------------------
  energy-cutoff  :      415.00
  volume of cell :      160.32
      direct lattice vectors                 reciprocal lattice vectors
     2.795185513  0.000000000  0.000000000     0.357758008 -0.206551682  0.000000000
     1.397592758  2.420701664  0.000000000     0.000000000  0.413103364  0.000000000
     0.000000000  0.000000000 23.693556493     0.000000000  0.000000000  0.042205568

  length of vectors
     2.795185513  2.795185515 23.693556493     0.413103364  0.413103364  0.042205568


 FORCES acting on ions
    electron-ion (+dipol)            ewald-force                    non-local-force                 convergence-correction
 -----------------------------------------------------------------------------------------------
   0.136E-06 0.107E-06 0.281E+04   0.255E-07 -.241E-07 -.281E+04   -.434E-17 -.520E-17 -.125E+01   0.331E-10 0.188E-10 0.677E-03
   -.667E-07 -.386E-07 -.566E+03   -.332E-10 0.313E-10 0.566E+03   -.434E-18 0.000E+00 -.420E-01   -.114E-09 -.656E-10 0.188E-02
   0.807E-06 0.466E-06 0.170E+04   0.983E-09 -.697E-10 -.170E+04   0.217E-17 -.434E-18 -.489E-01   0.146E-09 0.841E-10 -.201E-02
   0.641E-06 0.370E-06 -.170E+04   0.136E-09 0.715E-09 0.170E+04   -.152E-17 0.434E-18 0.489E-01   -.147E-09 -.848E-10 0.201E-02
   -.566E-06 -.327E-06 0.566E+03   -.534E-09 -.359E-09 -.566E+03   0.000E+00 0.000E+00 0.420E-01   0.114E-09 0.654E-10 -.191E-02
   -.236E-06 -.164E-06 -.281E+04   -.261E-07 0.238E-07 0.281E+04   -.260E-17 0.781E-17 0.125E+01   -.322E-10 -.183E-10 -.668E-03
 -----------------------------------------------------------------------------------------------
   0.715E-06 0.413E-06 -.149E-02   0.166E-12 -.707E-13 -.455E-12   -.672E-17 0.260E-17 0.222E-15   -.692E-12 -.389E-12 -.152E-04
 
 
 POSITION                                       TOTAL-FORCE (eV/Angst)
 -----------------------------------------------------------------------------------
      0.00000      0.00000     -0.00037         0.000000      0.000000      0.023304
      0.00000      0.00000      6.84468         0.000000      0.000000     -0.017014
      1.39759      0.80690      2.28794         0.000000      0.000000      0.009888
      1.39759      0.80690      9.12336         0.000000      0.000000     -0.009888
      2.79519      1.61380      4.56662         0.000000      0.000000      0.017014
      2.79519      1.61380     11.41166         0.000000      0.000000     -0.023304
 -----------------------------------------------------------------------------------
    total drift:                                0.000001      0.000000     -0.001505


--------------------------------------------------------------------------------------------------------



  FREE ENERGIE OF THE ION-ELECTRON SYSTEM (eV)
  ---------------------------------------------------
  free  energy   TOTEN  =       -30.10073628 eV

  energy  without entropy=      -30.10073628  energy(sigma->0) =      -30.10073628
 
 d Force = 0.1745277E-03[ 0.909E-04, 0.258E-03]  d Energy = 0.2251233E-03-0.506E-04
 d Force =-0.1067640E+02[-0.107E+02,-0.107E+02]  d Ewald  =-0.1067640E+02-0.244E-06


--------------------------------------------------------------------------------------------------------


    POTLOK:  cpu time    0.12: real time    0.12


--------------------------------------------------------------------------------------------------------




--------------------------------------------------------------------------------------------------------


    WAVPRE:  cpu time    0.03: real time    0.03
 FEWALD executed in parallel
    FEWALD:  cpu time    0.00: real time    0.00
    ORTHCH:  cpu time    0.10: real time    0.10
     LOOP+:  cpu time   16.89: real time   17.19


----------------------------------------- Iteration    6(   1)  ---------------------------------------


    POTLOK:  cpu time    0.10: real time    0.10
    SETDIJ:  cpu time    0.01: real time    0.01
     EDDAV:  cpu time    1.20: real time    1.21
 BZINTS: Fermi energy:  0.322680; 60.000000 electrons
         Band energy:-116.574588;  BLOECHL correction: -0.277788
       DOS:  cpu time    0.00: real time    0.00
    CHARGE:  cpu time    0.09: real time    0.09
    MIXING:  cpu time    0.00: real time    0.00
    --------------------------------------------
      LOOP:  cpu time    1.41: real time    1.43

 eigenvalue-minimisations  :   576
 total energy-change (2. order) : 0.1191774E-02  (-0.5291878E-01)
 number of electron      60.0000014 magnetization 
 augmentation part       25.3984969 magnetization 

 Broyden mixing:
  rms(total) = 0.86053E-02    rms(broyden)= 0.85943E-02
  rms(prec ) = 0.92337E-02
  weight for this iteration     100.00

 Free energy of the ion-electron system (eV)
  ---------------------------------------------------
  alpha Z        PSCENC =       305.72458370
  Ewald energy   TEWEN  =     12609.30112240
  -1/2 Hartree   DENC   =    -17873.41996407
  -exchange  EXHF       =         0.00000000
  -V(xc)+E(xc)   XCENC  =      -177.95329196
  PAW double counting   =      4154.04179142    -3789.69670935
  entropy T*S    EENTRO =         0.00000000
  eigenvalues    EBANDS =      -116.57458825
  atomic energy  EATOM  =      4858.47751158
  ---------------------------------------------------
  free energy    TOTEN  =       -30.09954454 eV

  energy without entropy =      -30.09954454  energy(sigma->0) =      -30.09954454


--------------------------------------------------------------------------------------------------------




----------------------------------------- Iteration    6(   2)  ---------------------------------------


    POTLOK:  cpu time    0.10: real time    0.10
    SETDIJ:  cpu time    0.01: real time    0.01
     EDDAV:  cpu time    1.61: real time    1.62
 BZINTS: Fermi energy:  0.323590; 60.000000 electrons
         Band energy:-116.499446;  BLOECHL correction: -0.277552
       DOS:  cpu time    0.00: real time    0.00
    CHARGE:  cpu time    0.09: real time    0.09
    MIXING:  cpu time    0.00: real time    0.00
    --------------------------------------------
      LOOP:  cpu time    1.82: real time    1.84

 eigenvalue-minimisations  :   860
 total energy-change (2. order) :-0.1320888E-02  (-0.1749274E-02)
 number of electron      60.0000014 magnetization 
 augmentation part       25.4002732 magnetization 

 Broyden mixing:
  rms(total) = 0.18487E-01    rms(broyden)= 0.18485E-01
  rms(prec ) = 0.26877E-01
  weight for this iteration     100.00

 eigenvalues of (default mixing * dielectric matrix)
  average eigenvalue GAMMA=   0.2750
  0.2750

 Free energy of the ion-electron system (eV)
  ---------------------------------------------------
  alpha Z        PSCENC =       305.72458370
  Ewald energy   TEWEN  =     12609.30112240
  -1/2 Hartree   DENC   =    -17873.49576945
  -exchange  EXHF       =         0.00000000
  -V(xc)+E(xc)   XCENC  =      -177.95387860
  PAW double counting   =      4153.97492414    -3789.62991292
  entropy T*S    EENTRO =         0.00000000
  eigenvalues    EBANDS =      -116.49944628
  atomic energy  EATOM  =      4858.47751158
  ---------------------------------------------------
  free energy    TOTEN  =       -30.10086543 eV

  energy without entropy =      -30.10086543  energy(sigma->0) =      -30.10086543


--------------------------------------------------------------------------------------------------------




----------------------------------------- Iteration    6(   3)  ---------------------------------------


    POTLOK:  cpu time    0.10: real time    0.10
    SETDIJ:  cpu time    0.01: real time    0.01
     EDDAV:  cpu time    1.60: real time    1.61
 BZINTS: Fermi energy:  0.317801; 60.000000 electrons
         Band energy:-116.868239;  BLOECHL correction: -0.278044
       DOS:  cpu time    0.00: real time    0.00
    CHARGE:  cpu time    0.09: real time    0.09
    MIXING:  cpu time    0.00: real time    0.01
    --------------------------------------------
      LOOP:  cpu time    1.81: real time    1.84

 eigenvalue-minimisations  :   856
 total energy-change (2. order) :-0.6683423E-03  (-0.7972313E-03)
 number of electron      60.0000014 magnetization 
 augmentation part       25.4018682 magnetization 

 Broyden mixing:
  rms(total) = 0.22616E-01    rms(broyden)= 0.22609E-01
  rms(prec ) = 0.32929E-01
  weight for this iteration     100.00

 eigenvalues of (default mixing * dielectric matrix)
  average eigenvalue GAMMA=   0.2879
  0.4879  0.0880

 Free energy of the ion-electron system (eV)
  ---------------------------------------------------
  alpha Z        PSCENC =       305.72458370
  Ewald energy   TEWEN  =     12609.30112240
  -1/2 Hartree   DENC   =    -17873.12786635
  -exchange  EXHF       =         0.00000000
  -V(xc)+E(xc)   XCENC  =      -177.95370051
  PAW double counting   =      4153.97838529    -3789.63333112
  entropy T*S    EENTRO =         0.00000000
  eigenvalues    EBANDS =      -116.86823876
  atomic energy  EATOM  =      4858.47751158
  ---------------------------------------------------
  free energy    TOTEN  =       -30.10153377 eV

  energy without entropy =      -30.10153377  energy(sigma->0) =      -30.10153377


--------------------------------------------------------------------------------------------------------




----------------------------------------- Iteration    6(   4)  ---------------------------------------


    POTLOK:  cpu time    0.10: real time    0.10
    SETDIJ:  cpu time    0.01: real time    0.01
     EDDAV:  cpu time    1.68: real time    1.69
 BZINTS: Fermi energy:  0.322491; 60.000000 electrons
         Band energy:-116.591895;  BLOECHL correction: -0.277758
       DOS:  cpu time    0.00: real time    0.00
    CHARGE:  cpu time    0.09: real time    0.09
    MIXING:  cpu time    0.00: real time    0.00
    --------------------------------------------
      LOOP:  cpu time    1.90: real time    1.92

 eigenvalue-minimisations  :   916
 total energy-change (2. order) : 0.7115918E-03  (-0.3074089E-03)
 number of electron      60.0000014 magnetization 
 augmentation part       25.4003928 magnetization 

 Broyden mixing:
  rms(total) = 0.65550E-02    rms(broyden)= 0.65493E-02
  rms(prec ) = 0.79413E-02
  weight for this iteration     100.00

 eigenvalues of (default mixing * dielectric matrix)
  average eigenvalue GAMMA=   0.2506
  0.3348  0.3348  0.0823

 Free energy of the ion-electron system (eV)
  ---------------------------------------------------
  alpha Z        PSCENC =       305.72458370
  Ewald energy   TEWEN  =     12609.30112240
  -1/2 Hartree   DENC   =    -17873.40395692
  -exchange  EXHF       =         0.00000000
  -V(xc)+E(xc)   XCENC  =      -177.95361291
  PAW double counting   =      4154.01201845    -3789.66659377
  entropy T*S    EENTRO =         0.00000000
  eigenvalues    EBANDS =      -116.59189470
  atomic energy  EATOM  =      4858.47751158
  ---------------------------------------------------
  free energy    TOTEN  =       -30.10082218 eV

  energy without entropy =      -30.10082218  energy(sigma->0) =      -30.10082218


--------------------------------------------------------------------------------------------------------




----------------------------------------- Iteration    6(   5)  ---------------------------------------


    POTLOK:  cpu time    0.10: real time    0.10
    SETDIJ:  cpu time    0.01: real time    0.01
     EDDAV:  cpu time    1.56: real time    1.57
 BZINTS: Fermi energy:  0.321421; 60.000000 electrons
         Band energy:-116.637530;  BLOECHL correction: -0.277745
       DOS:  cpu time    0.00: real time    0.00
    CHARGE:  cpu time    0.09: real time    0.09
    MIXING:  cpu time    0.00: real time    0.01
    --------------------------------------------
      LOOP:  cpu time    1.78: real time    1.80

 eigenvalue-minimisations  :   836
 total energy-change (2. order) : 0.9730669E-04  (-0.1811352E-04)
 number of electron      60.0000014 magnetization 
 augmentation part       25.4004121 magnetization 

 Broyden mixing:
  rms(total) = 0.50881E-02    rms(broyden)= 0.50875E-02
  rms(prec ) = 0.55571E-02
  weight for this iteration     100.00

 eigenvalues of (default mixing * dielectric matrix)
  average eigenvalue GAMMA=   0.7806
  1.9660  0.9012  0.0831  0.1723

 Free energy of the ion-electron system (eV)
  ---------------------------------------------------
  alpha Z        PSCENC =       305.72458370
  Ewald energy   TEWEN  =     12609.30112240
  -1/2 Hartree   DENC   =    -17873.35817841
  -exchange  EXHF       =         0.00000000
  -V(xc)+E(xc)   XCENC  =      -177.95349581
  PAW double counting   =      4154.01337938    -3789.66811818
  entropy T*S    EENTRO =         0.00000000
  eigenvalues    EBANDS =      -116.63752952
  atomic energy  EATOM  =      4858.47751158
  ---------------------------------------------------
  free energy    TOTEN  =       -30.10072487 eV

  energy without entropy =      -30.10072487  energy(sigma->0) =      -30.10072487


--------------------------------------------------------------------------------------------------------




----------------------------------------- Iteration    6(   6)  ---------------------------------------


    POTLOK:  cpu time    0.10: real time    0.10
    SETDIJ:  cpu time    0.01: real time    0.01
     EDDAV:  cpu time    1.52: real time    1.53
 BZINTS: Fermi energy:  0.321975; 60.000000 electrons
         Band energy:-116.610567;  BLOECHL correction: -0.277745
       DOS:  cpu time    0.00: real time    0.00
    CHARGE:  cpu time    0.09: real time    0.09
    MIXING:  cpu time    0.00: real time    0.01
    --------------------------------------------
      LOOP:  cpu time    1.74: real time    1.77

 eigenvalue-minimisations  :   840
 total energy-change (2. order) : 0.3614597E-04  (-0.1883103E-04)
 number of electron      60.0000014 magnetization 
 augmentation part       25.4000321 magnetization 

 Broyden mixing:
  rms(total) = 0.29742E-02    rms(broyden)= 0.29739E-02
  rms(prec ) = 0.40570E-02
  weight for this iteration     100.00

 eigenvalues of (default mixing * dielectric matrix)
  average eigenvalue GAMMA=   0.8475
  2.2943  0.8440  0.8440  0.0828  0.1724

 Free energy of the ion-electron system (eV)
  ---------------------------------------------------
  alpha Z        PSCENC =       305.72458370
  Ewald energy   TEWEN  =     12609.30112240
  -1/2 Hartree   DENC   =    -17873.38476354
  -exchange  EXHF       =         0.00000000
  -V(xc)+E(xc)   XCENC  =      -177.95331769
  PAW double counting   =      4154.02598438    -3789.68124255
  entropy T*S    EENTRO =         0.00000000
  eigenvalues    EBANDS =      -116.61056701
  atomic energy  EATOM  =      4858.47751158
  ---------------------------------------------------
  free energy    TOTEN  =       -30.10068873 eV

  energy without entropy =      -30.10068873  energy(sigma->0) =      -30.10068873


--------------------------------------------------------------------------------------------------------




----------------------------------------- Iteration    6(   7)  ---------------------------------------


    POTLOK:  cpu time    0.10: real time    0.10
    SETDIJ:  cpu time    0.01: real time    0.01
     EDDAV:  cpu time    1.59: real time    1.60
 BZINTS: Fermi energy:  0.321820; 60.000000 electrons
         Band energy:-116.621532;  BLOECHL correction: -0.277767
       DOS:  cpu time    0.00: real time    0.00
    CHARGE:  cpu time    0.09: real time    0.09
    MIXING:  cpu time    0.00: real time    0.01
    --------------------------------------------
      LOOP:  cpu time    1.81: real time    1.82

 eigenvalue-minimisations  :   868
 total energy-change (2. order) :-0.1977408E-04  (-0.6338159E-05)
 number of electron      60.0000014 magnetization 
 augmentation part       25.3999787 magnetization 

 Broyden mixing:
  rms(total) = 0.65193E-03    rms(broyden)= 0.65106E-03
  rms(prec ) = 0.75517E-03
  weight for this iteration     100.00

 eigenvalues of (default mixing * dielectric matrix)
  average eigenvalue GAMMA=   0.9383
  2.4378  1.0593  1.0593  0.8185  0.0828  0.1723

 Free energy of the ion-electron system (eV)
  ---------------------------------------------------
  alpha Z        PSCENC =       305.72458370
  Ewald energy   TEWEN  =     12609.30112240
  -1/2 Hartree   DENC   =    -17873.37348057
  -exchange  EXHF       =         0.00000000
  -V(xc)+E(xc)   XCENC  =      -177.95318113
  PAW double counting   =      4154.03208003    -3789.68781220
  entropy T*S    EENTRO =         0.00000000
  eigenvalues    EBANDS =      -116.62153231
  atomic energy  EATOM  =      4858.47751158
  ---------------------------------------------------
  free energy    TOTEN  =       -30.10070850 eV

  energy without entropy =      -30.10070850  energy(sigma->0) =      -30.10070850


--------------------------------------------------------------------------------------------------------




----------------------------------------- Iteration    6(   8)  ---------------------------------------


    POTLOK:  cpu time    0.10: real time    0.10
    SETDIJ:  cpu time    0.01: real time    0.01
     EDDAV:  cpu time    0.84: real time    0.85
 BZINTS: Fermi energy:  0.321747; 60.000000 electrons
         Band energy:-116.626336;  BLOECHL correction: -0.277769
       DOS:  cpu time    0.00: real time    0.00
    CHARGE:  cpu time    0.09: real time    0.09
    MIXING:  cpu time    0.01: real time    0.01
    --------------------------------------------
      LOOP:  cpu time    1.06: real time    1.08

 eigenvalue-minimisations  :   340
 total energy-change (2. order) :-0.3311600E-05  (-0.2212064E-06)
 number of electron      60.0000014 magnetization 
 augmentation part       25.4000002 magnetization 

 Broyden mixing:
  rms(total) = 0.41130E-03    rms(broyden)= 0.41109E-03
  rms(prec ) = 0.46656E-03
  weight for this iteration     100.00

 eigenvalues of (default mixing * dielectric matrix)
  average eigenvalue GAMMA=   1.0312
  2.4427  1.3612  1.3612  0.8992  0.8992  0.0828  0.1723

 Free energy of the ion-electron system (eV)
  ---------------------------------------------------
  alpha Z        PSCENC =       305.72458370
  Ewald energy   TEWEN  =     12609.30112240
  -1/2 Hartree   DENC   =    -17873.36859530
  -exchange  EXHF       =         0.00000000
  -V(xc)+E(xc)   XCENC  =      -177.95319774
  PAW double counting   =      4154.03118045    -3789.68698126
  entropy T*S    EENTRO =         0.00000000
  eigenvalues    EBANDS =      -116.62633564
  atomic energy  EATOM  =      4858.47751158
  ---------------------------------------------------
  free energy    TOTEN  =       -30.10071181 eV

  energy without entropy =      -30.10071181  energy(sigma->0) =      -30.10071181


--------------------------------------------------------------------------------------------------------




----------------------------------------- Iteration    6(   9)  ---------------------------------------


    POTLOK:  cpu time    0.10: real time    0.10
    SETDIJ:  cpu time    0.01: real time    0.01
     EDDAV:  cpu time    0.75: real time    0.75
 BZINTS: Fermi energy:  0.321717; 60.000000 electrons
         Band energy:-116.628037;  BLOECHL correction: -0.277769
       DOS:  cpu time    0.00: real time    0.00
    CHARGE:  cpu time    0.09: real time    0.09
    MIXING:  cpu time    0.01: real time    0.01
    --------------------------------------------
      LOOP:  cpu time    0.96: real time    0.99

 eigenvalue-minimisations  :   288
 total energy-change (2. order) : 0.1140766E-05  (-0.1529933E-06)
 number of electron      60.0000014 magnetization 
 augmentation part       25.4000576 magnetization 

 Broyden mixing:
  rms(total) = 0.14216E-03    rms(broyden)= 0.14213E-03
  rms(prec ) = 0.17881E-03
  weight for this iteration     100.00

 eigenvalues of (default mixing * dielectric matrix)
  average eigenvalue GAMMA=   1.0092
  2.5808  1.4321  1.4321  0.0828  0.1723  0.8189  0.8189  0.7358

 Free energy of the ion-electron system (eV)
  ---------------------------------------------------
  alpha Z        PSCENC =       305.72458370
  Ewald energy   TEWEN  =     12609.30112240
  -1/2 Hartree   DENC   =    -17873.36687015
  -exchange  EXHF       =         0.00000000
  -V(xc)+E(xc)   XCENC  =      -177.95323541
  PAW double counting   =      4154.02923276    -3789.68501862
  entropy T*S    EENTRO =         0.00000000
  eigenvalues    EBANDS =      -116.62803693
  atomic energy  EATOM  =      4858.47751158
  ---------------------------------------------------
  free energy    TOTEN  =       -30.10071067 eV

  energy without entropy =      -30.10071067  energy(sigma->0) =      -30.10071067


--------------------------------------------------------------------------------------------------------




----------------------------------------- Iteration    6(  10)  ---------------------------------------


    POTLOK:  cpu time    0.10: real time    0.10
    SETDIJ:  cpu time    0.01: real time    0.01
     EDDAV:  cpu time    0.77: real time    0.78
 BZINTS: Fermi energy:  0.321747; 60.000000 electrons
         Band energy:-116.626257;  BLOECHL correction: -0.277768
       DOS:  cpu time    0.00: real time    0.00
    CHARGE:  cpu time    0.09: real time    0.09
    MIXING:  cpu time    0.01: real time    0.01
    --------------------------------------------
      LOOP:  cpu time    0.99: real time    1.01

 eigenvalue-minimisations  :   288
 total energy-change (2. order) : 0.1381342E-05  (-0.6399560E-07)
 number of electron      60.0000014 magnetization 
 augmentation part       25.4000224 magnetization 

 Broyden mixing:
  rms(total) = 0.58596E-04    rms(broyden)= 0.58584E-04
  rms(prec ) = 0.63836E-04
  weight for this iteration     100.00

 eigenvalues of (default mixing * dielectric matrix)
  average eigenvalue GAMMA=   1.0205
  2.5594  1.5429  1.5429  0.0828  0.1723  0.9436  0.9436  0.7972  0.6000

 Free energy of the ion-electron system (eV)
  ---------------------------------------------------
  alpha Z        PSCENC =       305.72458370
  Ewald energy   TEWEN  =     12609.30112240
  -1/2 Hartree   DENC   =    -17873.36865760
  -exchange  EXHF       =         0.00000000
  -V(xc)+E(xc)   XCENC  =      -177.95322563
  PAW double counting   =      4154.02991261    -3789.68569895
  entropy T*S    EENTRO =         0.00000000
  eigenvalues    EBANDS =      -116.62625739
  atomic energy  EATOM  =      4858.47751158
  ---------------------------------------------------
  free energy    TOTEN  =       -30.10070929 eV

  energy without entropy =      -30.10070929  energy(sigma->0) =      -30.10070929


--------------------------------------------------------------------------------------------------------




----------------------------------------- Iteration    6(  11)  ---------------------------------------


    POTLOK:  cpu time    0.10: real time    0.10
    SETDIJ:  cpu time    0.01: real time    0.01
     EDDAV:  cpu time    0.74: real time    0.74
 BZINTS: Fermi energy:  0.321727; 60.000000 electrons
         Band energy:-116.627317;  BLOECHL correction: -0.277768
       DOS:  cpu time    0.00: real time    0.00
    --------------------------------------------
      LOOP:  cpu time    0.86: real time    0.87

 eigenvalue-minimisations  :   288
 total energy-change (2. order) : 0.3386476E-06  (-0.2664486E-07)
 number of electron      60.0000014 magnetization 
 augmentation part       25.4000224 magnetization 

 Free energy of the ion-electron system (eV)
  ---------------------------------------------------
  alpha Z        PSCENC =       305.72458370
  Ewald energy   TEWEN  =     12609.30112240
  -1/2 Hartree   DENC   =    -17873.36762487
  -exchange  EXHF       =         0.00000000
  -V(xc)+E(xc)   XCENC  =      -177.95322873
  PAW double counting   =      4154.03025615    -3789.68601201
  entropy T*S    EENTRO =         0.00000000
  eigenvalues    EBANDS =      -116.62731716
  atomic energy  EATOM  =      4858.47751158
  ---------------------------------------------------
  free energy    TOTEN  =       -30.10070895 eV

  energy without entropy =      -30.10070895  energy(sigma->0) =      -30.10070895


--------------------------------------------------------------------------------------------------------




 average (electrostatic) potential at core
  the test charge radii are     1.1199
  (the norm of the test charge is              1.0000)
       1 -50.8719       2 -51.2168       3 -51.1771       4 -51.1774       5 -51.2166
       6 -50.8722
 
 
 
 E-fermi :   0.3217     XC(G=0):  -8.1504     alpha+bet : -6.5480


 k-point   1 :       0.0000    0.0000    0.0000
  band No.  band energies     occupation 
      1      -6.2558      2.00000
      2      -5.6363      2.00000
      3      -4.9125      2.00000
      4      -4.6014      2.00000
      5      -4.3447      2.00000
      6      -4.3405      2.00000
      7      -2.3753      2.00000
      8      -2.3584      2.00000
      9      -2.2803      2.00000
     10      -2.2803      2.00000
     11      -2.2268      2.00000
     12      -2.2268      2.00000
     13      -2.1500      2.00000
     14      -2.1219      2.00000
     15      -2.1219      2.00000
     16      -2.0465      2.00000
     17      -2.0465      2.00000
     18      -1.8873      2.00000
     19      -1.8873      2.00000
     20      -1.8549      2.00000
     21      -1.8549      2.00000
     22      -1.5555      2.00000
     23      -0.8197      2.00000
     24      -0.8197      2.00000
     25      -0.7715      2.00000
     26      -0.7715      2.00000
     27      -0.5638      2.00000
     28      -0.5638      2.00000
     29      -0.2977      2.00000
     30      -0.2286      2.00000
     31      -0.2286      2.00000
     32       0.1086      2.00000
     33       0.1086      2.00000
     34       0.2824      2.00000
     35       0.2824      0.05469
     36       1.2543      0.00000

 k-point   2 :       0.1429    0.0000    0.0000
  band No.  band energies     occupation 
      1      -5.6591      2.00000
      2      -5.0715      2.00000
      3      -4.3777      2.00000
      4      -4.1595      2.00000
      5      -3.8931      2.00000
      6      -3.8338      2.00000
      7      -2.8312      2.00000
      8      -2.6563      2.00000
      9      -2.5902      2.00000
     10      -2.4652      2.00000
     11      -2.3777      2.00000
     12      -2.1863      2.00000
     13      -2.0322      2.00000
     14      -2.0132      2.00000
     15      -1.9799      2.00000
     16      -1.9082      2.00000
     17      -1.9018      2.00000
     18      -1.8068      2.00000
     19      -1.7399      2.00000
     20      -1.7306      2.00000
     21      -1.5477      2.00000
     22      -1.5397      2.00000
     23      -1.4923      2.00000
     24      -1.1122      2.00000
     25      -1.0733      2.00000
     26      -0.9036      2.00000
     27      -0.7657      2.00000
     28      -0.7311      2.00000
     29      -0.5305      2.00000
     30      -0.4344      2.00000
     31      -0.2241      2.00000
     32       0.1195      2.00000
     33       0.2382      2.00690
     34       0.3110      0.84535
     35       1.2985     -0.00762
     36       2.6076      0.00000

 k-point   3 :       0.2857    0.0000    0.0000
  band No.  band energies     occupation 
      1      -4.5113      2.00000
      2      -4.1943      2.00000
      3      -4.0378      2.00000
      4      -3.8692      2.00000
      5      -3.6819      2.00000
      6      -3.5385      2.00000
      7      -3.3429      2.00000
      8      -3.2635      2.00000
      9      -2.9032      2.00000
     10      -2.5270      2.00000
     11      -2.4632      2.00000
     12      -2.1563      2.00000
     13      -2.0801      2.00000
     14      -1.9810      2.00000
     15      -1.9680      2.00000
     16      -1.7003      2.00000
     17      -1.5966      2.00000
     18      -1.3889      2.00000
     19      -1.2190      2.00000
     20      -1.1939      2.00000
     21      -1.0701      2.00000
     22      -0.9364      2.00000
     23      -0.7476      2.00000
     24      -0.7373      2.00000
     25      -0.6231      2.00000
     26      -0.6020      2.00000
     27      -0.4901      2.04477
     28      -0.4181      2.11930
     29      -0.2818      2.23206
     30      -0.1541      2.16845
     31       0.0763      1.28830
     32       0.1319      1.12025
     33       0.3635      0.57919
     34       1.3470     -0.00278
     35       2.8903      0.00000
     36       4.5723      0.00000

 k-point   4 :       0.4286    0.0000    0.0000
  band No.  band energies     occupation 
      1      -4.4845      2.00000
      2      -4.4396      2.00000
      3      -4.2394      2.00000
      4      -4.1670      2.00000
      5      -4.0548      2.00000
      6      -3.8283      2.00000
      7      -3.8025      2.00000
      8      -3.6867      2.00000
      9      -3.1910      2.00000
     10      -2.6643      2.00000
     11      -2.4049      2.00000
     12      -2.3105      2.00000
     13      -2.1805      2.00000
     14      -1.7488      2.00000
     15      -1.7024      2.00000
     16      -1.4043      2.00000
     17      -1.1835      2.00000
     18      -0.9278      2.00000
     19      -0.5826      2.00000
     20      -0.4695      2.00000
     21      -0.1018      2.00000
     22      -0.0747      2.00000
     23       0.1858      2.00000
     24       0.1921      2.00000
     25       0.2465      2.00000
     26       0.2716      2.00000
     27       0.3470      1.45856
     28       0.4149      0.71166
     29       0.4678      0.21478
     30       0.5159      0.12514
     31       1.1357     -0.02660
     32       1.8474     -0.02901
     33       2.2146      0.00000
     34       3.0369      0.00000
     35       4.4003      0.00000
     36       5.6929      0.00000

 k-point   5 :       0.2857    0.1429    0.0000
  band No.  band energies     occupation 
      1      -4.6684      2.00000
      2      -4.2469      2.00000
      3      -3.7302      2.00000
      4      -3.5292      2.00000
      5      -3.4119      2.00000
      6      -3.2756      2.00000
      7      -3.1383      2.00000
      8      -3.1094      2.00000
      9      -2.9319      2.00000
     10      -2.8412      2.00000
     11      -2.5767      2.00000
     12      -2.5020      2.00000
     13      -2.3955      2.00000
     14      -2.2839      2.00000
     15      -2.1143      2.00000
     16      -2.0167      2.00000
     17      -1.9542      2.00000
     18      -1.7234      2.00000
     19      -1.5567      2.00000
     20      -1.3779      2.00000
     21      -1.2556      2.00000
     22      -1.1356      2.00000
     23      -1.1150      2.00000
     24      -0.8684      2.00000
     25      -0.7866      2.00000
     26      -0.5719      2.00000
     27      -0.5162      2.00000
     28      -0.4551      2.00000
     29      -0.2614      2.00000
     30      -0.2301      2.13917
     31      -0.0545      1.64069
     32       0.1320      1.42136
     33       0.1575      1.34614
     34       1.1526     -0.15038
     35       2.5078      0.00000
     36       4.0717      0.00000

 k-point   6 :       0.4286    0.1429    0.0000
  band No.  band energies     occupation 
      1      -4.0619      2.00000
      2      -4.0276      2.00000
      3      -3.8333      2.00000
      4      -3.6902      2.00000
      5      -3.6479      2.00000
      6      -3.5060      2.00000
      7      -3.3898      2.00000
      8      -3.1406      2.00000
      9      -3.0456      2.00000
     10      -2.7949      2.00000
     11      -2.4506      2.00000
     12      -2.4115      2.00000
     13      -2.2875      2.00000
     14      -2.0046      2.00000
     15      -1.9488      2.00000
     16      -1.8608      2.00000
     17      -1.5747      2.00000
     18      -1.4533      2.00000
     19      -1.3393      2.00000
     20      -1.2041      2.00000
     21      -0.9960      2.00000
     22      -0.7719      2.00000
     23      -0.7333      2.00000
     24      -0.5474      2.00000
     25      -0.2808      2.00000
     26      -0.2563      2.00000
     27       0.1888      2.00840
     28       0.2076      1.99224
     29       0.3095      1.51722
     30       0.4416      0.48579
     31       1.3127     -0.11496
     32       1.4933     -0.13843
     33       1.9102     -0.12123
     34       2.9441      0.00000
     35       4.4175      0.00000
     36       6.1015      0.00000

 k-point   7 :      -0.4286    0.1429    0.0000
  band No.  band energies     occupation 
      1      -4.2921      2.00000
      2      -4.1438      2.00000
      3      -4.0240      2.00000
      4      -3.8946      2.00000
      5      -3.7379      2.00000
      6      -3.6884      2.00000
      7      -3.5112      2.00000
      8      -3.3505      2.00000
      9      -3.1309      2.00000
     10      -2.8336      2.00000
     11      -2.6989      2.00000
     12      -2.1929      2.00000
     13      -2.1593      2.00000
     14      -2.0214      2.00000
     15      -1.8231      2.00000
     16      -1.6380      2.00000
     17      -1.3353      2.00000
     18      -1.0981      2.00000
     19      -1.0406      2.00000
     20      -0.6407      2.00000
     21      -0.5543      2.00000
     22      -0.5055      2.00000
     23      -0.2219      2.00000
     24      -0.0622      2.00000
     25       0.0900      2.00000
     26       0.0975      2.00000
     27       0.1798      2.14244
     28       0.2126      1.96106
     29       0.3751      0.03059
     30       0.4806      0.00000
     31       3.4665      0.00000
     32       3.9953      0.00000
     33       4.4488      0.00000
     34       4.7808      0.00000
     35       5.0493      0.00000
     36       5.2031      0.00000

 k-point   8 :      -0.4286    0.2857    0.0000
  band No.  band energies     occupation 
      1      -3.7917      2.00000
      2      -3.7867      2.00000
      3      -3.5660      2.00000
      4      -3.3904      2.00000
      5      -3.3180      2.00000
      6      -3.1824      2.00000
      7      -3.1618      2.00000
      8      -3.0098      2.00000
      9      -3.0014      2.00000
     10      -2.7526      2.00000
     11      -2.7477      2.00000
     12      -2.4352      2.00000
     13      -2.3859      2.00000
     14      -2.1845      2.00000
     15      -2.0181      2.00000
     16      -1.7909      2.00000
     17      -1.7436      2.00000
     18      -1.6138      2.00000
     19      -1.5853      2.00000
     20      -1.1703      2.00000
     21      -1.0827      2.00000
     22      -0.8937      2.00000
     23      -0.7507      2.00000
     24      -0.6921      2.00000
     25      -0.3494      2.00000
     26      -0.0898      2.00000
     27       0.1630      2.00000
     28       0.2390      2.00000
     29       0.2740      2.01971
     30       0.4307      0.00000
     31       4.1114      0.00000
     32       4.4986      0.00000
     33       5.1312      0.00000
     34       6.0551      0.00000
     35       7.1840      0.00000
     36       7.8562      0.00000


--------------------------------------------------------------------------------------------------------


 soft charge-density along one line, spin component           1
         0         1         2         3         4         5         6         7         8         9
 total charge-density along one line
 
 pseudopotential strength for first ion, spin component:           1
-11.400   0.000   0.000   0.000   0.000   0.000  -0.010   0.000   0.000   0.000   0.110   0.000   0.000   0.000   0.000   0.000
  0.000   0.000 -11.286   0.000   0.000   0.000   0.000   0.000  -0.010   0.000   0.000   0.000   0.092   0.000   0.000   0.000
  0.000   0.000   0.000   0.000 -11.268   0.000   0.000   0.000   0.000   0.000   0.000   0.000   0.000   0.000   0.089   0.000
 -0.010   0.000   0.000   0.000   0.000   0.000 -11.286   0.000   0.000   0.000   0.002   0.000   0.000   0.000   0.000   0.000
  0.000   0.000  -0.010   0.000   0.000   0.000   0.000   0.000 -11.400   0.000   0.000   0.000   0.002   0.000   0.000   0.000
  0.110   0.000   0.000   0.000   0.000   0.000   0.002   0.000   0.000   0.000   0.323   0.000   0.000   0.000   0.000   0.000
  0.000   0.000   0.092   0.000   0.000   0.000   0.000   0.000   0.002   0.000   0.000   0.000   0.326   0.000   0.000   0.000
  0.000   0.000   0.000   0.000   0.089   0.000   0.000   0.000   0.000   0.000   0.000   0.000   0.000   0.000   0.327   0.000
  0.002   0.000   0.000   0.000   0.000   0.000   0.092   0.000   0.000   0.000   0.000   0.000   0.000   0.000   0.000   0.000
  0.000   0.000   0.002   0.000   0.000   0.000   0.000   0.000   0.110   0.000   0.000   0.000   0.000   0.000   0.000   0.000
  0.000   0.000   0.000   0.000  -0.029   0.000   0.000   0.000   0.000   0.000   0.000   0.000   0.000   0.000   0.004   0.000
  0.000   0.000   0.000   0.000   0.003   0.000   0.000   0.000   0.000   0.000   0.000   0.000   0.000   0.000   0.000   0.000
  0.000   0.000  -0.011   0.000   0.000   0.000   0.000   0.000   0.000   0.000   0.000   0.000   0.002   0.000   0.000   0.000
  0.000   0.000   0.000   0.000  -0.012   0.000   0.000   0.000   0.000   0.000   0.000   0.000   0.000   0.000   0.002   0.000
  0.000   0.000   0.000   0.000   0.000   0.000  -0.011   0.000   0.000   0.000   0.000   0.000   0.000   0.000   0.000   0.000
  0.000   0.000   0.010   0.000   0.000   0.000   0.000   0.000   0.000   0.000   0.000   0.000  -0.002   0.000   0.000   0.000
  0.000   0.000   0.000   0.000   0.010   0.000   0.000   0.000   0.000   0.000   0.000   0.000   0.000   0.000  -0.002   0.000
  0.000   0.000   0.000   0.000   0.000   0.000   0.010   0.000   0.000   0.000   0.000   0.000   0.000   0.000   0.000   0.000
 total augmentation occupancy for first ion, spin component:           1
  1.723   0.000   0.000  -0.041   0.000   0.132   0.000   0.000   0.020   0.000   0.000   0.000   0.000   0.000   0.003   0.000
  0.000   1.855   0.000   0.000  -0.041   0.000   0.050   0.000   0.000   0.022   0.000   0.000  -0.015   0.000   0.000  -0.015
  0.000   0.000   1.832   0.000   0.000   0.000   0.000   0.078   0.000   0.000   0.015  -0.064   0.000   0.025   0.000   0.000
 -0.041   0.000   0.000   1.855   0.000   0.022   0.000   0.000   0.050   0.000   0.000   0.000   0.000   0.000  -0.015   0.000
  0.000  -0.041   0.000   0.000   1.723   0.000   0.020   0.000   0.000   0.132   0.000   0.000   0.003   0.000   0.000   0.001
  0.132   0.000   0.000   0.022   0.000   0.112   0.000   0.000   0.003   0.000   0.000   0.000   0.000   0.000   0.006   0.000
  0.000   0.050   0.000   0.000   0.020   0.000   0.089   0.000   0.000   0.003   0.000   0.000   0.032   0.000   0.000  -0.001
  0.000   0.000   0.078   0.000   0.000   0.000   0.000   0.116   0.000   0.000  -0.113   0.029   0.000   0.044   0.000   0.000
  0.020   0.000   0.000   0.050   0.000   0.003   0.000   0.000   0.089   0.000   0.000   0.000   0.000   0.000   0.032   0.000
  0.000   0.022   0.000   0.000   0.132   0.000   0.003   0.000   0.000   0.112   0.000   0.000   0.006   0.000   0.000   0.000
  0.000   0.000   0.015   0.000   0.000   0.000   0.000  -0.113   0.000   0.000   0.997  -0.325   0.000   0.071   0.000   0.000
  0.000   0.000  -0.064   0.000   0.000   0.000   0.000   0.029   0.000   0.000  -0.325   0.121   0.000  -0.039   0.000   0.000
  0.000  -0.015   0.000   0.000   0.003   0.000   0.032   0.000   0.000   0.006   0.000   0.000   0.110   0.000   0.000  -0.002
  0.000   0.000   0.025   0.000   0.000   0.000   0.000   0.044   0.000   0.000   0.071  -0.039   0.000   0.061   0.000   0.000
  0.003   0.000   0.000  -0.015   0.000   0.006   0.000   0.000   0.032   0.000   0.000   0.000   0.000   0.000   0.110   0.000
  0.000  -0.015   0.000   0.000   0.001   0.000  -0.001   0.000   0.000   0.000   0.000   0.000  -0.002   0.000   0.000   0.000
  0.000   0.000  -0.020   0.000   0.000   0.000   0.000  -0.001   0.000   0.000  -0.004   0.002   0.000  -0.001   0.000   0.000
  0.001   0.000   0.000  -0.015   0.000   0.000   0.000   0.000  -0.001   0.000   0.000   0.000   0.000   0.000  -0.002   0.000


------------------------ aborting loop because EDIFF is reached ----------------------------------------


    CHARGE:  cpu time    0.09: real time    0.09
    FORLOC:  cpu time    0.01: real time    0.01
    FORNL :  cpu time    0.45: real time    0.45
    STRESS:  cpu time    0.78: real time    0.79
    FORCOR:  cpu time    0.12: real time    0.12
    FORHAR:  cpu time    0.04: real time    0.04
    MIXING:  cpu time    0.01: real time    0.01

  FORCE on cell =-STRESS in cart. coord.  units (eV):
  Direction    XX          YY          ZZ          XY          YZ          ZX
  --------------------------------------------------------------------------------------
  Alpha Z   305.72458   305.72458   305.72458
  Ewald   15935.44632 15935.44632-19261.59161     0.00000     0.00000     0.00000
  Hartree 17387.60604 17387.60604-16901.82739     0.00000     0.00000     0.00000
  E(xc)    -313.67900  -313.67902  -314.84427     0.00001     0.00000     0.00000
  Local  -34066.08199-34066.08227 35412.60686     0.00024     0.00000     0.00000
  n-local  -332.70929  -308.71314  -323.35454     5.25068    -3.06586     1.49857
  augment   256.59458   256.59483   260.11691    -0.00021     0.00000     0.00000
  Kinetic   802.63260   823.37642   822.58844     5.31602     2.97967    -0.71308
  Fock        0.00000     0.00000     0.00000     0.00000     0.00000     0.00000
  -------------------------------------------------------------------------------------
  Total      -2.09619    -2.09619    -0.58101     0.00000     0.00000     0.00000
  in kB     -20.94882   -20.94882    -5.80646     0.00000     0.00000     0.00000
  external pressure =      -15.90 kB  Pullay stress =        0.00 kB


 VOLUME and BASIS-vectors are now :
 -----------------------------------------------------------------------------
  energy-cutoff  :      415.00
  volume of cell :      160.32
      direct lattice vectors                 reciprocal lattice vectors
     2.795185513  0.000000000  0.000000000     0.357758008 -0.206551682  0.000000000
     1.397592758  2.420701664  0.000000000     0.000000000  0.413103364  0.000000000
     0.000000000  0.000000000 23.693556493     0.000000000  0.000000000  0.042205568

  length of vectors
     2.795185513  2.795185515 23.693556493     0.413103364  0.413103364  0.042205568


 FORCES acting on ions
    electron-ion (+dipol)            ewald-force                    non-local-force                 convergence-correction
 -----------------------------------------------------------------------------------------------
   0.363E-07 0.488E-07 0.281E+04   0.252E-07 -.238E-07 -.281E+04   0.000E+00 -.867E-18 -.125E+01   0.434E-10 0.246E-10 -.115E-02
   0.120E-06 0.692E-07 -.567E+03   -.700E-10 0.663E-10 0.567E+03   0.173E-17 0.000E+00 -.416E-01   -.132E-09 -.761E-10 0.132E-02
   0.751E-06 0.435E-06 0.170E+04   0.158E-08 -.629E-09 -.170E+04   -.434E-18 -.130E-17 -.697E-01   0.123E-09 0.710E-10 -.273E-02
   0.680E-06 0.392E-06 -.170E+04   -.468E-09 0.127E-08 0.170E+04   0.434E-18 0.130E-17 0.697E-01   -.122E-09 -.703E-10 0.272E-02
   -.447E-06 -.258E-06 0.567E+03   -.502E-09 -.397E-09 -.567E+03   -.217E-17 0.000E+00 0.416E-01   0.132E-09 0.758E-10 -.137E-02
   -.205E-06 -.146E-06 -.281E+04   -.257E-07 0.234E-07 0.281E+04   -.867E-18 0.000E+00 0.125E+01   -.457E-10 -.259E-10 0.117E-02
 -----------------------------------------------------------------------------------------------
   0.936E-06 0.540E-06 -.138E-02   0.166E-12 -.707E-13 0.000E+00   -.130E-17 -.867E-18 -.222E-15   -.166E-11 -.860E-12 -.437E-04
 
 
 POSITION                                       TOTAL-FORCE (eV/Angst)
 -----------------------------------------------------------------------------------
      0.00000      0.00000     -0.00077         0.000000      0.000000      0.051927
      0.00000      0.00000      6.84238         0.000000      0.000000     -0.014342
      1.39759      0.80690      2.29413         0.000000      0.000000     -0.036267
      1.39759      0.80690      9.11716         0.000000      0.000000      0.036267
      2.79519      1.61380      4.56891         0.000000      0.000000      0.014342
      2.79519      1.61380     11.41206         0.000000      0.000000     -0.051927
 -----------------------------------------------------------------------------------
    total drift:                                0.000001      0.000001     -0.001428


--------------------------------------------------------------------------------------------------------



  FREE ENERGIE OF THE ION-ELECTRON SYSTEM (eV)
  ---------------------------------------------------
  free  energy   TOTEN  =       -30.10070895 eV

  energy  without entropy=      -30.10070895  energy(sigma->0) =      -30.10070895
 
 d Force =-0.1216174E-03[-0.425E-03, 0.182E-03]  d Energy =-0.2732747E-04-0.943E-04
 d Force =-0.2139452E+02[-0.214E+02,-0.214E+02]  d Ewald  =-0.2139452E+02-0.190E-05


--------------------------------------------------------------------------------------------------------


    POTLOK:  cpu time    0.12: real time    0.11


--------------------------------------------------------------------------------------------------------




--------------------------------------------------------------------------------------------------------


    WAVPRE:  cpu time    0.03: real time    0.03
 FEWALD executed in parallel
    FEWALD:  cpu time    0.00: real time    0.00
    ORTHCH:  cpu time    0.10: real time    0.10
     LOOP+:  cpu time   17.90: real time   18.17


----------------------------------------- Iteration    7(   1)  ---------------------------------------


    POTLOK:  cpu time    0.10: real time    0.10
    SETDIJ:  cpu time    0.01: real time    0.01
     EDDAV:  cpu time    1.19: real time    1.19
 BZINTS: Fermi energy:  0.321594; 60.000000 electrons
         Band energy:-116.625813;  BLOECHL correction: -0.277440
       DOS:  cpu time    0.00: real time    0.00
    CHARGE:  cpu time    0.09: real time    0.09
    MIXING:  cpu time    0.00: real time    0.00
    --------------------------------------------
      LOOP:  cpu time    1.40: real time    1.41

 eigenvalue-minimisations  :   576
 total energy-change (2. order) : 0.4786025E-03  (-0.2593205E-01)
 number of electron      60.0000012 magnetization 
 augmentation part       25.4000381 magnetization 

 Broyden mixing:
  rms(total) = 0.60134E-02    rms(broyden)= 0.60056E-02
  rms(prec ) = 0.64486E-02
  weight for this iteration     100.00

 Free energy of the ion-electron system (eV)
  ---------------------------------------------------
  alpha Z        PSCENC =       305.72458370
  Ewald energy   TEWEN  =     12594.31169343
  -1/2 Hartree   DENC   =    -17858.37959279
  -exchange  EXHF       =         0.00000000
  -V(xc)+E(xc)   XCENC  =      -177.95286235
  PAW double counting   =      4154.03096636    -3789.68671736
  entropy T*S    EENTRO =         0.00000000
  eigenvalues    EBANDS =      -116.62581325
  atomic energy  EATOM  =      4858.47751158
  ---------------------------------------------------
  free energy    TOTEN  =       -30.10023069 eV

  energy without entropy =      -30.10023069  energy(sigma->0) =      -30.10023069


--------------------------------------------------------------------------------------------------------




----------------------------------------- Iteration    7(   2)  ---------------------------------------


    POTLOK:  cpu time    0.10: real time    0.10
    SETDIJ:  cpu time    0.01: real time    0.01
     EDDAV:  cpu time    1.60: real time    1.61
 BZINTS: Fermi energy:  0.320366; 60.000000 electrons
         Band energy:-116.705281;  BLOECHL correction: -0.277598
       DOS:  cpu time    0.00: real time    0.00
    CHARGE:  cpu time    0.09: real time    0.09
    MIXING:  cpu time    0.00: real time    0.00
    --------------------------------------------
      LOOP:  cpu time    1.81: real time    1.83

 eigenvalue-minimisations  :   860
 total energy-change (2. order) :-0.9023343E-03  (-0.8437667E-03)
 number of electron      60.0000012 magnetization 
 augmentation part       25.4005619 magnetization 

 Broyden mixing:
  rms(total) = 0.12258E-01    rms(broyden)= 0.12256E-01
  rms(prec ) = 0.18098E-01
  weight for this iteration     100.00

 eigenvalues of (default mixing * dielectric matrix)
  average eigenvalue GAMMA=   0.2897
  0.2897

 Free energy of the ion-electron system (eV)
  ---------------------------------------------------
  alpha Z        PSCENC =       305.72458370
  Ewald energy   TEWEN  =     12594.31169343
  -1/2 Hartree   DENC   =    -17858.30171093
  -exchange  EXHF       =         0.00000000
  -V(xc)+E(xc)   XCENC  =      -177.95303891
  PAW double counting   =      4154.04915438    -3789.70404545
  entropy T*S    EENTRO =         0.00000000
  eigenvalues    EBANDS =      -116.70528081
  atomic energy  EATOM  =      4858.47751158
  ---------------------------------------------------
  free energy    TOTEN  =       -30.10113302 eV

  energy without entropy =      -30.10113302  energy(sigma->0) =      -30.10113302


--------------------------------------------------------------------------------------------------------




----------------------------------------- Iteration    7(   3)  ---------------------------------------


    POTLOK:  cpu time    0.10: real time    0.10
    SETDIJ:  cpu time    0.01: real time    0.01
     EDDAV:  cpu time    1.60: real time    1.62
 BZINTS: Fermi energy:  0.324869; 60.000000 electrons
         Band energy:-116.430750;  BLOECHL correction: -0.277280
       DOS:  cpu time    0.00: real time    0.00
    CHARGE:  cpu time    0.09: real time    0.09
    MIXING:  cpu time    0.00: real time    0.00
    --------------------------------------------
      LOOP:  cpu time    1.82: real time    1.84

 eigenvalue-minimisations  :   856
 total energy-change (2. order) : 0.2305883E-03  (-0.3825653E-03)
 number of electron      60.0000012 magnetization 
 augmentation part       25.3993783 magnetization 

 Broyden mixing:
  rms(total) = 0.16634E-01    rms(broyden)= 0.16629E-01
  rms(prec ) = 0.24366E-01
  weight for this iteration     100.00

 eigenvalues of (default mixing * dielectric matrix)
  average eigenvalue GAMMA=   0.2921
  0.4993  0.0848

 Free energy of the ion-electron system (eV)
  ---------------------------------------------------
  alpha Z        PSCENC =       305.72458370
  Ewald energy   TEWEN  =     12594.31169343
  -1/2 Hartree   DENC   =    -17858.57600517
  -exchange  EXHF       =         0.00000000
  -V(xc)+E(xc)   XCENC  =      -177.95308042
  PAW double counting   =      4154.05514629    -3789.71000215
  entropy T*S    EENTRO =         0.00000000
  eigenvalues    EBANDS =      -116.43074969
  atomic energy  EATOM  =      4858.47751158
  ---------------------------------------------------
  free energy    TOTEN  =       -30.10090243 eV

  energy without entropy =      -30.10090243  energy(sigma->0) =      -30.10090243


--------------------------------------------------------------------------------------------------------




----------------------------------------- Iteration    7(   4)  ---------------------------------------


    POTLOK:  cpu time    0.10: real time    0.10
    SETDIJ:  cpu time    0.01: real time    0.01
     EDDAV:  cpu time    1.68: real time    1.69
 BZINTS: Fermi energy:  0.321814; 60.000000 electrons
         Band energy:-116.609574;  BLOECHL correction: -0.277496
       DOS:  cpu time    0.00: real time    0.00
    CHARGE:  cpu time    0.09: real time    0.09
    MIXING:  cpu time    0.00: real time    0.01
    --------------------------------------------
      LOOP:  cpu time    1.89: real time    1.92

 eigenvalue-minimisations  :   932
 total energy-change (2. order) : 0.5971789E-04  (-0.1588412E-03)
 number of electron      60.0000012 magnetization 
 augmentation part       25.4002270 magnetization 

 Broyden mixing:
  rms(total) = 0.39384E-02    rms(broyden)= 0.39329E-02
  rms(prec ) = 0.46032E-02
  weight for this iteration     100.00

 eigenvalues of (default mixing * dielectric matrix)
  average eigenvalue GAMMA=   0.3751
  0.5220  0.5220  0.0814

 Free energy of the ion-electron system (eV)
  ---------------------------------------------------
  alpha Z        PSCENC =       305.72458370
  Ewald energy   TEWEN  =     12594.31169343
  -1/2 Hartree   DENC   =    -17858.39707367
  -exchange  EXHF       =         0.00000000
  -V(xc)+E(xc)   XCENC  =      -177.95294762
  PAW double counting   =      4154.04680001    -3789.70183582
  entropy T*S    EENTRO =         0.00000000
  eigenvalues    EBANDS =      -116.60957431
  atomic energy  EATOM  =      4858.47751158
  ---------------------------------------------------
  free energy    TOTEN  =       -30.10084272 eV

  energy without entropy =      -30.10084272  energy(sigma->0) =      -30.10084272


--------------------------------------------------------------------------------------------------------




----------------------------------------- Iteration    7(   5)  ---------------------------------------


    POTLOK:  cpu time    0.10: real time    0.19
    SETDIJ:  cpu time    0.01: real time    0.01
     EDDAV:  cpu time    1.59: real time    1.60
 BZINTS: Fermi energy:  0.322482; 60.000000 electrons
         Band energy:-116.580968;  BLOECHL correction: -0.277504
       DOS:  cpu time    0.00: real time    0.00
    CHARGE:  cpu time    0.10: real time    0.10
    MIXING:  cpu time    0.00: real time    0.01
    --------------------------------------------
      LOOP:  cpu time    1.80: real time    1.91

 eigenvalue-minimisations  :   840
 total energy-change (2. order) :-0.4214381E-04  (-0.7918273E-05)
 number of electron      60.0000012 magnetization 
 augmentation part       25.4001401 magnetization 

 Broyden mixing:
  rms(total) = 0.37501E-02    rms(broyden)= 0.37498E-02
  rms(prec ) = 0.41819E-02
  weight for this iteration     100.00

 eigenvalues of (default mixing * dielectric matrix)
  average eigenvalue GAMMA=   0.7363
  1.7332  0.9562  0.0816  0.1740

 Free energy of the ion-electron system (eV)
  ---------------------------------------------------
  alpha Z        PSCENC =       305.72458370
  Ewald energy   TEWEN  =     12594.31169343
  -1/2 Hartree   DENC   =    -17858.42576676
  -exchange  EXHF       =         0.00000000
  -V(xc)+E(xc)   XCENC  =      -177.95297390
  PAW double counting   =      4154.04797093    -3789.70293629
  entropy T*S    EENTRO =         0.00000000
  eigenvalues    EBANDS =      -116.58096756
  atomic energy  EATOM  =      4858.47751158
  ---------------------------------------------------
  free energy    TOTEN  =       -30.10088486 eV

  energy without entropy =      -30.10088486  energy(sigma->0) =      -30.10088486


--------------------------------------------------------------------------------------------------------




----------------------------------------- Iteration    7(   6)  ---------------------------------------


    POTLOK:  cpu time    0.10: real time    0.10
    SETDIJ:  cpu time    0.01: real time    0.01
     EDDAV:  cpu time    1.71: real time    1.72
 BZINTS: Fermi energy:  0.322198; 60.000000 electrons
         Band energy:-116.591050;  BLOECHL correction: -0.277474
       DOS:  cpu time    0.00: real time    0.00
    CHARGE:  cpu time    0.09: real time    0.09
    MIXING:  cpu time    0.01: real time    0.01
    --------------------------------------------
      LOOP:  cpu time    1.93: real time    1.95

 eigenvalue-minimisations  :   868
 total energy-change (2. order) : 0.7699206E-04  (-0.1036287E-04)
 number of electron      60.0000012 magnetization 
 augmentation part       25.4001026 magnetization 

 Broyden mixing:
  rms(total) = 0.13997E-02    rms(broyden)= 0.13994E-02
  rms(prec ) = 0.17631E-02
  weight for this iteration     100.00

 eigenvalues of (default mixing * dielectric matrix)
  average eigenvalue GAMMA=   0.8090
  2.2833  0.7547  0.7547  0.0815  0.1708

 Free energy of the ion-electron system (eV)
  ---------------------------------------------------
  alpha Z        PSCENC =       305.72458370
  Ewald energy   TEWEN  =     12594.31169343
  -1/2 Hartree   DENC   =    -17858.41568765
  -exchange  EXHF       =         0.00000000
  -V(xc)+E(xc)   XCENC  =      -177.95282315
  PAW double counting   =      4154.04783288    -3789.70286893
  entropy T*S    EENTRO =         0.00000000
  eigenvalues    EBANDS =      -116.59104972
  atomic energy  EATOM  =      4858.47751158
  ---------------------------------------------------
  free energy    TOTEN  =       -30.10080787 eV

  energy without entropy =      -30.10080787  energy(sigma->0) =      -30.10080787


--------------------------------------------------------------------------------------------------------




----------------------------------------- Iteration    7(   7)  ---------------------------------------


    POTLOK:  cpu time    0.10: real time    0.10
    SETDIJ:  cpu time    0.01: real time    0.01
     EDDAV:  cpu time    1.66: real time    1.67
 BZINTS: Fermi energy:  0.322117; 60.000000 electrons
         Band energy:-116.597484;  BLOECHL correction: -0.277474
       DOS:  cpu time    0.00: real time    0.00
    CHARGE:  cpu time    0.10: real time    0.10
    MIXING:  cpu time    0.00: real time    0.01
    --------------------------------------------
      LOOP:  cpu time    1.87: real time    1.90

 eigenvalue-minimisations  :   852
 total energy-change (2. order) :-0.8929983E-06  (-0.1572258E-05)
 number of electron      60.0000012 magnetization 
 augmentation part       25.4001380 magnetization 

 Broyden mixing:
  rms(total) = 0.95777E-03    rms(broyden)= 0.95771E-03
  rms(prec ) = 0.13008E-02
  weight for this iteration     100.00

 eigenvalues of (default mixing * dielectric matrix)
  average eigenvalue GAMMA=   0.9187
  2.4593  1.0083  1.0083  0.7840  0.0815  0.1709

 Free energy of the ion-electron system (eV)
  ---------------------------------------------------
  alpha Z        PSCENC =       305.72458370
  Ewald energy   TEWEN  =     12594.31169343
  -1/2 Hartree   DENC   =    -17858.40902529
  -exchange  EXHF       =         0.00000000
  -V(xc)+E(xc)   XCENC  =      -177.95290988
  PAW double counting   =      4154.03850406    -3789.69368234
  entropy T*S    EENTRO =         0.00000000
  eigenvalues    EBANDS =      -116.59748403
  atomic energy  EATOM  =      4858.47751158
  ---------------------------------------------------
  free energy    TOTEN  =       -30.10080876 eV

  energy without entropy =      -30.10080876  energy(sigma->0) =      -30.10080876


--------------------------------------------------------------------------------------------------------




----------------------------------------- Iteration    7(   8)  ---------------------------------------


    POTLOK:  cpu time    0.10: real time    0.10
    SETDIJ:  cpu time    0.01: real time    0.01
     EDDAV:  cpu time    0.84: real time    0.85
 BZINTS: Fermi energy:  0.322224; 60.000000 electrons
         Band energy:-116.589847;  BLOECHL correction: -0.277460
       DOS:  cpu time    0.00: real time    0.00
    CHARGE:  cpu time    0.09: real time    0.09
    MIXING:  cpu time    0.00: real time    0.01
    --------------------------------------------
      LOOP:  cpu time    1.06: real time    1.08

 eigenvalue-minimisations  :   332
 total energy-change (2. order) : 0.1767597E-04  (-0.5439750E-06)
 number of electron      60.0000012 magnetization 
 augmentation part       25.4001045 magnetization 

 Broyden mixing:
  rms(total) = 0.34145E-03    rms(broyden)= 0.34098E-03
  rms(prec ) = 0.41200E-03
  weight for this iteration     100.00

 eigenvalues of (default mixing * dielectric matrix)
  average eigenvalue GAMMA=   1.0196
  2.4547  1.5034  1.0978  0.9146  0.9146  0.0815  0.1709

 Free energy of the ion-electron system (eV)
  ---------------------------------------------------
  alpha Z        PSCENC =       305.72458370
  Ewald energy   TEWEN  =     12594.31169343
  -1/2 Hartree   DENC   =    -17858.41666420
  -exchange  EXHF       =         0.00000000
  -V(xc)+E(xc)   XCENC  =      -177.95292373
  PAW double counting   =      4154.03748405    -3789.69262920
  entropy T*S    EENTRO =         0.00000000
  eigenvalues    EBANDS =      -116.58984671
  atomic energy  EATOM  =      4858.47751158
  ---------------------------------------------------
  free energy    TOTEN  =       -30.10079108 eV

  energy without entropy =      -30.10079108  energy(sigma->0) =      -30.10079108


--------------------------------------------------------------------------------------------------------




----------------------------------------- Iteration    7(   9)  ---------------------------------------


    POTLOK:  cpu time    0.10: real time    0.10
    SETDIJ:  cpu time    0.01: real time    0.01
     EDDAV:  cpu time    0.76: real time    0.77
 BZINTS: Fermi energy:  0.322211; 60.000000 electrons
         Band energy:-116.590555;  BLOECHL correction: -0.277463
       DOS:  cpu time    0.00: real time    0.00
    CHARGE:  cpu time    0.09: real time    0.09
    MIXING:  cpu time    0.01: real time    0.01
    --------------------------------------------
      LOOP:  cpu time    0.98: real time    1.00

 eigenvalue-minimisations  :   288
 total energy-change (2. order) :-0.2427131E-05  (-0.1222143E-06)
 number of electron      60.0000012 magnetization 
 augmentation part       25.4001013 magnetization 

 Broyden mixing:
  rms(total) = 0.11896E-03    rms(broyden)= 0.11896E-03
  rms(prec ) = 0.14507E-03
  weight for this iteration     100.00

 eigenvalues of (default mixing * dielectric matrix)
  average eigenvalue GAMMA=   0.9755
  2.4604  1.6393  1.1334  0.9071  0.9071  0.0815  0.1709  0.5043

 Free energy of the ion-electron system (eV)
  ---------------------------------------------------
  alpha Z        PSCENC =       305.72458370
  Ewald energy   TEWEN  =     12594.31169343
  -1/2 Hartree   DENC   =    -17858.41597613
  -exchange  EXHF       =         0.00000000
  -V(xc)+E(xc)   XCENC  =      -177.95293018
  PAW double counting   =      4154.03711800    -3789.69223867
  entropy T*S    EENTRO =         0.00000000
  eigenvalues    EBANDS =      -116.59055525
  atomic energy  EATOM  =      4858.47751158
  ---------------------------------------------------
  free energy    TOTEN  =       -30.10079351 eV

  energy without entropy =      -30.10079351  energy(sigma->0) =      -30.10079351


--------------------------------------------------------------------------------------------------------




----------------------------------------- Iteration    7(  10)  ---------------------------------------


    POTLOK:  cpu time    0.10: real time    0.10
    SETDIJ:  cpu time    0.01: real time    0.01
     EDDAV:  cpu time    0.78: real time    0.78
 BZINTS: Fermi energy:  0.322194; 60.000000 electrons
         Band energy:-116.591546;  BLOECHL correction: -0.277463
       DOS:  cpu time    0.00: real time    0.00
    --------------------------------------------
      LOOP:  cpu time    0.90: real time    0.91

 eigenvalue-minimisations  :   288
 total energy-change (2. order) :-0.9057385E-07  (-0.3369928E-07)
 number of electron      60.0000012 magnetization 
 augmentation part       25.4001013 magnetization 

 Free energy of the ion-electron system (eV)
  ---------------------------------------------------
  alpha Z        PSCENC =       305.72458370
  Ewald energy   TEWEN  =     12594.31169343
  -1/2 Hartree   DENC   =    -17858.41498106
  -exchange  EXHF       =         0.00000000
  -V(xc)+E(xc)   XCENC  =      -177.95293181
  PAW double counting   =      4154.03675368    -3789.69187683
  entropy T*S    EENTRO =         0.00000000
  eigenvalues    EBANDS =      -116.59154629
  atomic energy  EATOM  =      4858.47751158
  ---------------------------------------------------
  free energy    TOTEN  =       -30.10079360 eV

  energy without entropy =      -30.10079360  energy(sigma->0) =      -30.10079360


--------------------------------------------------------------------------------------------------------




 average (electrostatic) potential at core
  the test charge radii are     1.1199
  (the norm of the test charge is              1.0000)
       1 -50.8738       2 -51.2125       3 -51.1774       4 -51.1777       5 -51.2124
       6 -50.8741
 
 
 
 E-fermi :   0.3222     XC(G=0):  -8.1507     alpha+bet : -6.5480


 k-point   1 :       0.0000    0.0000    0.0000
  band No.  band energies     occupation 
      1      -6.2507      2.00000
      2      -5.6385      2.00000
      3      -4.9137      2.00000
      4      -4.5948      2.00000
      5      -4.3475      2.00000
      6      -4.3438      2.00000
      7      -2.3763      2.00000
      8      -2.3565      2.00000
      9      -2.2758      2.00000
     10      -2.2758      2.00000
     11      -2.2208      2.00000
     12      -2.2208      2.00000
     13      -2.1468      2.00000
     14      -2.1223      2.00000
     15      -2.1223      2.00000
     16      -2.0465      2.00000
     17      -2.0465      2.00000
     18      -1.8906      2.00000
     19      -1.8906      2.00000
     20      -1.8573      2.00000
     21      -1.8573      2.00000
     22      -1.5553      2.00000
     23      -0.8162      2.00000
     24      -0.8162      2.00000
     25      -0.7699      2.00000
     26      -0.7699      2.00000
     27      -0.5665      2.00000
     28      -0.5665      2.00000
     29      -0.2997      2.00000
     30      -0.2298      2.00000
     31      -0.2298      2.00000
     32       0.1103      2.00000
     33       0.1103      2.00000
     34       0.2828      2.00000
     35       0.2828      0.05497
     36       1.2562      0.00000

 k-point   2 :       0.1429    0.0000    0.0000
  band No.  band energies     occupation 
      1      -5.6538      2.00000
      2      -5.0734      2.00000
      3      -4.3788      2.00000
      4      -4.1531      2.00000
      5      -3.8960      2.00000
      6      -3.8369      2.00000
      7      -2.8276      2.00000
      8      -2.6525      2.00000
      9      -2.5859      2.00000
     10      -2.4674      2.00000
     11      -2.3801      2.00000
     12      -2.1875      2.00000
     13      -2.0320      2.00000
     14      -2.0064      2.00000
     15      -1.9794      2.00000
     16      -1.9079      2.00000
     17      -1.8972      2.00000
     18      -1.8065      2.00000
     19      -1.7411      2.00000
     20      -1.7305      2.00000
     21      -1.5507      2.00000
     22      -1.5400      2.00000
     23      -1.4948      2.00000
     24      -1.1106      2.00000
     25      -1.0708      2.00000
     26      -0.9056      2.00000
     27      -0.7665      2.00000
     28      -0.7303      2.00000
     29      -0.5318      2.00000
     30      -0.4318      2.00000
     31      -0.2243      2.00000
     32       0.1218      2.00000
     33       0.2382      2.00728
     34       0.3113      0.84574
     35       1.2981     -0.00765
     36       2.6095      0.00000

 k-point   3 :       0.2857    0.0000    0.0000
  band No.  band energies     occupation 
      1      -4.5055      2.00000
      2      -4.1923      2.00000
      3      -4.0357      2.00000
      4      -3.8689      2.00000
      5      -3.6797      2.00000
      6      -3.5400      2.00000
      7      -3.3449      2.00000
      8      -3.2642      2.00000
      9      -2.9052      2.00000
     10      -2.5253      2.00000
     11      -2.4633      2.00000
     12      -2.1568      2.00000
     13      -2.0791      2.00000
     14      -1.9801      2.00000
     15      -1.9601      2.00000
     16      -1.7002      2.00000
     17      -1.5982      2.00000
     18      -1.3905      2.00000
     19      -1.2207      2.00000
     20      -1.1958      2.00000
     21      -1.0691      2.00000
     22      -0.9372      2.00000
     23      -0.7478      2.00000
     24      -0.7356      2.00000
     25      -0.6226      2.00000
     26      -0.6011      2.00000
     27      -0.4912      2.04510
     28      -0.4182      2.11927
     29      -0.2812      2.23177
     30      -0.1532      2.16859
     31       0.0776      1.28657
     32       0.1351      1.11700
     33       0.3636      0.58218
     34       1.3482     -0.00281
     35       2.8915      0.00000
     36       4.5720      0.00000

 k-point   4 :       0.4286    0.0000    0.0000
  band No.  band energies     occupation 
      1      -4.4784      2.00000
      2      -4.4339      2.00000
      3      -4.2336      2.00000
      4      -4.1679      2.00000
      5      -4.0559      2.00000
      6      -3.8305      2.00000
      7      -3.8059      2.00000
      8      -3.6891      2.00000
      9      -3.1945      2.00000
     10      -2.6645      2.00000
     11      -2.4036      2.00000
     12      -2.3105      2.00000
     13      -2.1728      2.00000
     14      -1.7513      2.00000
     15      -1.7014      2.00000
     16      -1.4006      2.00000
     17      -1.1882      2.00000
     18      -0.9282      2.00000
     19      -0.5826      2.00000
     20      -0.4692      2.00000
     21      -0.1023      2.00000
     22      -0.0722      2.00000
     23       0.1875      2.00000
     24       0.1945      2.00000
     25       0.2474      2.00000
     26       0.2725      2.00000
     27       0.3475      1.45652
     28       0.4145      0.71626
     29       0.4672      0.21571
     30       0.5159      0.12551
     31       1.1373     -0.02656
     32       1.8462     -0.02870
     33       2.2146      0.00000
     34       3.0385      0.00000
     35       4.4027      0.00000
     36       5.6921      0.00000

 k-point   5 :       0.2857    0.1429    0.0000
  band No.  band energies     occupation 
      1      -4.6627      2.00000
      2      -4.2472      2.00000
      3      -3.7316      2.00000
      4      -3.5226      2.00000
      5      -3.4090      2.00000
      6      -3.2769      2.00000
      7      -3.1390      2.00000
      8      -3.1070      2.00000
      9      -2.9352      2.00000
     10      -2.8404      2.00000
     11      -2.5783      2.00000
     12      -2.5025      2.00000
     13      -2.3971      2.00000
     14      -2.2833      2.00000
     15      -2.1132      2.00000
     16      -2.0185      2.00000
     17      -1.9492      2.00000
     18      -1.7235      2.00000
     19      -1.5561      2.00000
     20      -1.3792      2.00000
     21      -1.2560      2.00000
     22      -1.1317      2.00000
     23      -1.1180      2.00000
     24      -0.8679      2.00000
     25      -0.7845      2.00000
     26      -0.5741      2.00000
     27      -0.5160      2.00000
     28      -0.4551      2.00000
     29      -0.2603      2.00000
     30      -0.2292      2.13913
     31      -0.0521      1.63881
     32       0.1330      1.42053
     33       0.1579      1.34600
     34       1.1535     -0.15038
     35       2.5086      0.00000
     36       4.0721      0.00000

 k-point   6 :       0.4286    0.1429    0.0000
  band No.  band energies     occupation 
      1      -4.0559      2.00000
      2      -4.0209      2.00000
      3      -3.8284      2.00000
      4      -3.6889      2.00000
      5      -3.6510      2.00000
      6      -3.5075      2.00000
      7      -3.3930      2.00000
      8      -3.1423      2.00000
      9      -3.0477      2.00000
     10      -2.7954      2.00000
     11      -2.4458      2.00000
     12      -2.4131      2.00000
     13      -2.2839      2.00000
     14      -2.0042      2.00000
     15      -1.9489      2.00000
     16      -1.8610      2.00000
     17      -1.5756      2.00000
     18      -1.4564      2.00000
     19      -1.3411      2.00000
     20      -1.2043      2.00000
     21      -0.9970      2.00000
     22      -0.7699      2.00000
     23      -0.7328      2.00000
     24      -0.5459      2.00000
     25      -0.2788      2.00000
     26      -0.2544      2.00000
     27       0.1900      2.00836
     28       0.2088      1.99214
     29       0.3096      1.52084
     30       0.4421      0.48555
     31       1.3143     -0.11538
     32       1.4932     -0.13868
     33       1.9095     -0.12146
     34       2.9454      0.00000
     35       4.4192      0.00000
     36       6.1000      0.00000

 k-point   7 :      -0.4286    0.1429    0.0000
  band No.  band energies     occupation 
      1      -4.2855      2.00000
      2      -4.1378      2.00000
      3      -4.0182      2.00000
      4      -3.8964      2.00000
      5      -3.7390      2.00000
      6      -3.6899      2.00000
      7      -3.5148      2.00000
      8      -3.3528      2.00000
      9      -3.1346      2.00000
     10      -2.8342      2.00000
     11      -2.6921      2.00000
     12      -2.1938      2.00000
     13      -2.1597      2.00000
     14      -2.0198      2.00000
     15      -1.8206      2.00000
     16      -1.6421      2.00000
     17      -1.3331      2.00000
     18      -1.0985      2.00000
     19      -1.0421      2.00000
     20      -0.6421      2.00000
     21      -0.5556      2.00000
     22      -0.5032      2.00000
     23      -0.2205      2.00000
     24      -0.0613      2.00000
     25       0.0915      2.00000
     26       0.1003      2.00000
     27       0.1806      2.14238
     28       0.2127      1.96398
     29       0.3754      0.02746
     30       0.4813      0.00000
     31       3.4683      0.00000
     32       3.9951      0.00000
     33       4.4486      0.00000
     34       4.7813      0.00000
     35       5.0511      0.00000
     36       5.2031      0.00000

 k-point   8 :      -0.4286    0.2857    0.0000
  band No.  band energies     occupation 
      1      -3.7835      2.00000
      2      -3.7805      2.00000
      3      -3.5641      2.00000
      4      -3.3928      2.00000
      5      -3.3141      2.00000
      6      -3.1778      2.00000
      7      -3.1582      2.00000
      8      -3.0145      2.00000
      9      -3.0066      2.00000
     10      -2.7570      2.00000
     11      -2.7477      2.00000
     12      -2.4363      2.00000
     13      -2.3862      2.00000
     14      -2.1831      2.00000
     15      -2.0171      2.00000
     16      -1.7927      2.00000
     17      -1.7446      2.00000
     18      -1.6161      2.00000
     19      -1.5871      2.00000
     20      -1.1714      2.00000
     21      -1.0833      2.00000
     22      -0.8927      2.00000
     23      -0.7475      2.00000
     24      -0.6893      2.00000
     25      -0.3472      2.00000
     26      -0.0883      2.00000
     27       0.1641      2.00000
     28       0.2399      2.00000
     29       0.2753      2.01508
     30       0.4311      0.00000
     31       4.1135      0.00000
     32       4.4982      0.00000
     33       5.1309      0.00000
     34       6.0558      0.00000
     35       7.1853      0.00000
     36       7.8583      0.00000


--------------------------------------------------------------------------------------------------------


 soft charge-density along one line, spin component           1
         0         1         2         3         4         5         6         7         8         9
 total charge-density along one line
 
 pseudopotential strength for first ion, spin component:           1
-11.401   0.000   0.000   0.000   0.000   0.000  -0.011   0.000   0.000   0.000   0.110   0.000   0.000   0.000   0.000   0.000
  0.000   0.000 -11.287   0.000   0.000   0.000   0.000   0.000  -0.011   0.000   0.000   0.000   0.092   0.000   0.000   0.000
  0.000   0.000   0.000   0.000 -11.269   0.000   0.000   0.000   0.000   0.000   0.000   0.000   0.000   0.000   0.089   0.000
 -0.011   0.000   0.000   0.000   0.000   0.000 -11.287   0.000   0.000   0.000   0.002   0.000   0.000   0.000   0.000   0.000
  0.000   0.000  -0.011   0.000   0.000   0.000   0.000   0.000 -11.401   0.000   0.000   0.000   0.002   0.000   0.000   0.000
  0.110   0.000   0.000   0.000   0.000   0.000   0.002   0.000   0.000   0.000   0.323   0.000   0.000   0.000   0.000   0.000
  0.000   0.000   0.092   0.000   0.000   0.000   0.000   0.000   0.002   0.000   0.000   0.000   0.326   0.000   0.000   0.000
  0.000   0.000   0.000   0.000   0.089   0.000   0.000   0.000   0.000   0.000   0.000   0.000   0.000   0.000   0.327   0.000
  0.002   0.000   0.000   0.000   0.000   0.000   0.092   0.000   0.000   0.000   0.000   0.000   0.000   0.000   0.000   0.000
  0.000   0.000   0.002   0.000   0.000   0.000   0.000   0.000   0.110   0.000   0.000   0.000   0.000   0.000   0.000   0.000
  0.000   0.000   0.000   0.000  -0.029   0.000   0.000   0.000   0.000   0.000   0.000   0.000   0.000   0.000   0.004   0.000
  0.000   0.000   0.000   0.000   0.003   0.000   0.000   0.000   0.000   0.000   0.000   0.000   0.000   0.000   0.000   0.000
  0.000   0.000  -0.011   0.000   0.000   0.000   0.000   0.000   0.000   0.000   0.000   0.000   0.002   0.000   0.000   0.000
  0.000   0.000   0.000   0.000  -0.012   0.000   0.000   0.000   0.000   0.000   0.000   0.000   0.000   0.000   0.002   0.000
  0.000   0.000   0.000   0.000   0.000   0.000  -0.011   0.000   0.000   0.000   0.000   0.000   0.000   0.000   0.000   0.000
  0.000   0.000   0.010   0.000   0.000   0.000   0.000   0.000   0.000   0.000   0.000   0.000  -0.002   0.000   0.000   0.000
  0.000   0.000   0.000   0.000   0.010   0.000   0.000   0.000   0.000   0.000   0.000   0.000   0.000   0.000  -0.002   0.000
  0.000   0.000   0.000   0.000   0.000   0.000   0.010   0.000   0.000   0.000   0.000   0.000   0.000   0.000   0.000   0.000
 total augmentation occupancy for first ion, spin component:           1
  1.723   0.000   0.000  -0.041   0.000   0.132   0.000   0.000   0.020   0.000   0.000   0.000   0.000   0.000   0.003   0.000
  0.000   1.855   0.000   0.000  -0.041   0.000   0.051   0.000   0.000   0.022   0.000   0.000  -0.015   0.000   0.000  -0.015
  0.000   0.000   1.832   0.000   0.000   0.000   0.000   0.078   0.000   0.000   0.015  -0.064   0.000   0.025   0.000   0.000
 -0.041   0.000   0.000   1.855   0.000   0.022   0.000   0.000   0.051   0.000   0.000   0.000   0.000   0.000  -0.015   0.000
  0.000  -0.041   0.000   0.000   1.723   0.000   0.020   0.000   0.000   0.132   0.000   0.000   0.003   0.000   0.000   0.001
  0.132   0.000   0.000   0.022   0.000   0.113   0.000   0.000   0.003   0.000   0.000   0.000   0.000   0.000   0.006   0.000
  0.000   0.051   0.000   0.000   0.020   0.000   0.089   0.000   0.000   0.003   0.000   0.000   0.033   0.000   0.000  -0.001
  0.000   0.000   0.078   0.000   0.000   0.000   0.000   0.117   0.000   0.000  -0.113   0.029   0.000   0.044   0.000   0.000
  0.020   0.000   0.000   0.051   0.000   0.003   0.000   0.000   0.089   0.000   0.000   0.000   0.000   0.000   0.033   0.000
  0.000   0.022   0.000   0.000   0.132   0.000   0.003   0.000   0.000   0.113   0.000   0.000   0.006   0.000   0.000   0.000
  0.000   0.000   0.015   0.000   0.000   0.000   0.000  -0.113   0.000   0.000   0.998  -0.325   0.000   0.072   0.000   0.000
  0.000   0.000  -0.064   0.000   0.000   0.000   0.000   0.029   0.000   0.000  -0.325   0.121   0.000  -0.039   0.000   0.000
  0.000  -0.015   0.000   0.000   0.003   0.000   0.033   0.000   0.000   0.006   0.000   0.000   0.110   0.000   0.000  -0.002
  0.000   0.000   0.025   0.000   0.000   0.000   0.000   0.044   0.000   0.000   0.072  -0.039   0.000   0.061   0.000   0.000
  0.003   0.000   0.000  -0.015   0.000   0.006   0.000   0.000   0.033   0.000   0.000   0.000   0.000   0.000   0.110   0.000
  0.000  -0.015   0.000   0.000   0.001   0.000  -0.001   0.000   0.000   0.000   0.000   0.000  -0.002   0.000   0.000   0.000
  0.000   0.000  -0.020   0.000   0.000   0.000   0.000  -0.001   0.000   0.000  -0.004   0.002   0.000  -0.001   0.000   0.000
  0.001   0.000   0.000  -0.015   0.000   0.000   0.000   0.000  -0.001   0.000   0.000   0.000   0.000   0.000  -0.002   0.000


------------------------ aborting loop because EDIFF is reached ----------------------------------------


    CHARGE:  cpu time    0.09: real time    0.09
    FORLOC:  cpu time    0.01: real time    0.01
    FORNL :  cpu time    0.45: real time    0.45
    STRESS:  cpu time    0.77: real time    0.78
    FORCOR:  cpu time    0.12: real time    0.12
    FORHAR:  cpu time    0.04: real time    0.04
    MIXING:  cpu time    0.01: real time    0.01

  FORCE on cell =-STRESS in cart. coord.  units (eV):
  Direction    XX          YY          ZZ          XY          YZ          ZX
  --------------------------------------------------------------------------------------
  Alpha Z   305.72458   305.72458   305.72458
  Ewald   15920.46295 15920.46295-19246.61428     0.00000     0.00000     0.00000
  Hartree 17372.62239 17372.62239-16886.84719     0.00000     0.00000     0.00000
  E(xc)    -313.67935  -313.67936  -314.84440     0.00001     0.00000     0.00000
  Local  -34036.11496-34036.11524 35382.65403     0.00024     0.00000     0.00000
  n-local  -332.70855  -308.71806  -323.35503     5.24673    -3.07027     1.50200
  augment   256.59430   256.59455   260.11564    -0.00021     0.00000     0.00000
  Kinetic   802.63146   823.38124   822.58863     5.31950     2.98401    -0.71612
  Fock        0.00000     0.00000     0.00000     0.00000     0.00000     0.00000
  -------------------------------------------------------------------------------------
  Total      -2.09706    -2.09706    -0.57802     0.00000     0.00000     0.00000
  in kB     -20.95750   -20.95750    -5.77659     0.00000     0.00000     0.00000
  external pressure =      -15.90 kB  Pullay stress =        0.00 kB


 VOLUME and BASIS-vectors are now :
 -----------------------------------------------------------------------------
  energy-cutoff  :      415.00
  volume of cell :      160.32
      direct lattice vectors                 reciprocal lattice vectors
     2.795185513  0.000000000  0.000000000     0.357758008 -0.206551682  0.000000000
     1.397592758  2.420701664  0.000000000     0.000000000  0.413103364  0.000000000
     0.000000000  0.000000000 23.693556493     0.000000000  0.000000000  0.042205568

  length of vectors
     2.795185513  2.795185515 23.693556493     0.413103364  0.413103364  0.042205568


 FORCES acting on ions
    electron-ion (+dipol)            ewald-force                    non-local-force                 convergence-correction
 -----------------------------------------------------------------------------------------------
   0.781E-07 0.732E-07 0.281E+04   0.254E-07 -.240E-07 -.281E+04   -.173E-17 -.173E-17 -.125E+01   -.137E-10 -.738E-11 0.352E-03
   -.664E-07 -.384E-07 -.566E+03   -.441E-10 0.417E-10 0.566E+03   0.434E-18 0.000E+00 -.447E-01   0.816E-10 0.465E-10 -.551E-02
   0.714E-06 0.413E-06 0.170E+04   0.116E-08 -.238E-09 -.170E+04   -.434E-18 0.434E-18 -.485E-01   -.249E-09 -.144E-09 0.515E-02
   0.708E-06 0.408E-06 -.170E+04   -.458E-10 0.883E-09 0.170E+04   0.867E-18 -.434E-18 0.485E-01   0.247E-09 0.142E-09 -.515E-02
   -.423E-06 -.244E-06 0.566E+03   -.524E-09 -.370E-09 -.566E+03   -.434E-18 0.000E+00 0.447E-01   -.796E-10 -.453E-10 0.554E-02
   -.271E-06 -.185E-06 -.281E+04   -.260E-07 0.237E-07 0.281E+04   0.347E-17 0.260E-17 0.125E+01   0.109E-10 0.577E-11 -.360E-03
 -----------------------------------------------------------------------------------------------
   0.740E-06 0.427E-06 -.147E-02   0.166E-12 -.707E-13 0.909E-12   0.217E-17 0.867E-18 0.000E+00   -.315E-11 -.179E-11 0.182E-04
 
 
 POSITION                                       TOTAL-FORCE (eV/Angst)
 -----------------------------------------------------------------------------------
      0.00000      0.00000     -0.00049         0.000000      0.000000      0.031883
      0.00000      0.00000      6.84399         0.000000      0.000000     -0.017570
      1.39759      0.80690      2.28979         0.000000      0.000000     -0.000983
      1.39759      0.80690      9.12150         0.000000      0.000000      0.000983
      2.79519      1.61380      4.56731         0.000000      0.000000      0.017570
      2.79519      1.61380     11.41178         0.000000      0.000000     -0.031883
 -----------------------------------------------------------------------------------
    total drift:                                0.000001      0.000000     -0.001448


--------------------------------------------------------------------------------------------------------



  FREE ENERGIE OF THE ION-ELECTRON SYSTEM (eV)
  ---------------------------------------------------
  free  energy   TOTEN  =       -30.10079360 eV

  energy  without entropy=      -30.10079360  energy(sigma->0) =      -30.10079360
 
 d Force = 0.1338513E-03[-0.300E-04, 0.298E-03]  d Energy = 0.8465076E-04 0.492E-04
 d Force = 0.1498943E+02[ 0.150E+02, 0.150E+02]  d Ewald  = 0.1498943E+02 0.649E-06


--------------------------------------------------------------------------------------------------------


    POTLOK:  cpu time    0.12: real time    0.12


--------------------------------------------------------------------------------------------------------




--------------------------------------------------------------------------------------------------------


    WAVPRE:  cpu time    0.03: real time    0.03
 FEWALD executed in parallel
    FEWALD:  cpu time    0.00: real time    0.00
    ORTHCH:  cpu time    0.10: real time    0.10
     LOOP+:  cpu time   17.22: real time   17.55


----------------------------------------- Iteration    8(   1)  ---------------------------------------


    POTLOK:  cpu time    0.10: real time    0.10
    SETDIJ:  cpu time    0.01: real time    0.01
     EDDAV:  cpu time    1.18: real time    1.19
 BZINTS: Fermi energy:  0.322352; 60.000000 electrons
         Band energy:-116.612655;  BLOECHL correction: -0.277186
       DOS:  cpu time    0.00: real time    0.00
    CHARGE:  cpu time    0.09: real time    0.09
    MIXING:  cpu time    0.00: real time    0.00
    --------------------------------------------
      LOOP:  cpu time    1.39: real time    1.40

 eigenvalue-minimisations  :   576
 total energy-change (2. order) : 0.1945989E-03  (-0.2311660E-02)
 number of electron      60.0000013 magnetization 
 augmentation part       25.3999559 magnetization 

 Broyden mixing:
  rms(total) = 0.19180E-02    rms(broyden)= 0.19164E-02
  rms(prec ) = 0.22594E-02
  weight for this iteration     100.00

 Free energy of the ion-electron system (eV)
  ---------------------------------------------------
  alpha Z        PSCENC =       305.72458370
  Ewald energy   TEWEN  =     12602.64954074
  -1/2 Hartree   DENC   =    -17866.73456277
  -exchange  EXHF       =         0.00000000
  -V(xc)+E(xc)   XCENC  =      -177.94989396
  PAW double counting   =      4154.03642836    -3789.69155177
  entropy T*S    EENTRO =         0.00000000
  eigenvalues    EBANDS =      -116.61265479
  atomic energy  EATOM  =      4858.47751158
  ---------------------------------------------------
  free energy    TOTEN  =       -30.10059891 eV

  energy without entropy =      -30.10059891  energy(sigma->0) =      -30.10059891


--------------------------------------------------------------------------------------------------------




----------------------------------------- Iteration    8(   2)  ---------------------------------------


    POTLOK:  cpu time    0.11: real time    0.11
    SETDIJ:  cpu time    0.01: real time    0.01
     EDDAV:  cpu time    1.62: real time    1.63
 BZINTS: Fermi energy:  0.324841; 60.000000 electrons
         Band energy:-116.471117;  BLOECHL correction: -0.277164
       DOS:  cpu time    0.00: real time    0.00
    CHARGE:  cpu time    0.10: real time    0.10
    MIXING:  cpu time    0.00: real time    0.00
    --------------------------------------------
      LOOP:  cpu time    1.84: real time    1.86

 eigenvalue-minimisations  :   868
 total energy-change (2. order) :-0.1308793E-03  (-0.1224657E-03)
 number of electron      60.0000013 magnetization 
 augmentation part       25.3994655 magnetization 

 Broyden mixing:
  rms(total) = 0.91574E-02    rms(broyden)= 0.91564E-02
  rms(prec ) = 0.14296E-01
  weight for this iteration     100.00

 eigenvalues of (default mixing * dielectric matrix)
  average eigenvalue GAMMA=   0.1206
  0.1206

 Free energy of the ion-electron system (eV)
  ---------------------------------------------------
  alpha Z        PSCENC =       305.72458370
  Ewald energy   TEWEN  =     12602.64954074
  -1/2 Hartree   DENC   =    -17866.87361776
  -exchange  EXHF       =         0.00000000
  -V(xc)+E(xc)   XCENC  =      -177.95024653
  PAW double counting   =      4154.06570248    -3789.72308728
  entropy T*S    EENTRO =         0.00000000
  eigenvalues    EBANDS =      -116.47111671
  atomic energy  EATOM  =      4858.47751158
  ---------------------------------------------------
  free energy    TOTEN  =       -30.10072979 eV

  energy without entropy =      -30.10072979  energy(sigma->0) =      -30.10072979


--------------------------------------------------------------------------------------------------------




----------------------------------------- Iteration    8(   3)  ---------------------------------------


    POTLOK:  cpu time    0.10: real time    0.11
    SETDIJ:  cpu time    0.02: real time    0.01
     EDDAV:  cpu time    1.42: real time    1.43
 BZINTS: Fermi energy:  0.322558; 60.000000 electrons
         Band energy:-116.602653;  BLOECHL correction: -0.277291
       DOS:  cpu time    0.00: real time    0.00
    CHARGE:  cpu time    0.09: real time    0.10
    MIXING:  cpu time    0.01: real time    0.00
    --------------------------------------------
      LOOP:  cpu time    1.65: real time    1.67

 eigenvalue-minimisations  :   736
 total energy-change (2. order) :-0.2942713E-04  (-0.6929013E-04)
 number of electron      60.0000013 magnetization 
 augmentation part       25.3999776 magnetization 

 Broyden mixing:
  rms(total) = 0.30211E-02    rms(broyden)= 0.30175E-02
  rms(prec ) = 0.38769E-02
  weight for this iteration     100.00

 eigenvalues of (default mixing * dielectric matrix)
  average eigenvalue GAMMA=   0.2574
  0.4327  0.0822

 Free energy of the ion-electron system (eV)
  ---------------------------------------------------
  alpha Z        PSCENC =       305.72458370
  Ewald energy   TEWEN  =     12602.64954074
  -1/2 Hartree   DENC   =    -17866.74200881
  -exchange  EXHF       =         0.00000000
  -V(xc)+E(xc)   XCENC  =      -177.95018355
  PAW double counting   =      4154.06344182    -3789.72099173
  entropy T*S    EENTRO =         0.00000000
  eigenvalues    EBANDS =      -116.60265296
  atomic energy  EATOM  =      4858.47751158
  ---------------------------------------------------
  free energy    TOTEN  =       -30.10075922 eV

  energy without entropy =      -30.10075922  energy(sigma->0) =      -30.10075922


--------------------------------------------------------------------------------------------------------




----------------------------------------- Iteration    8(   4)  ---------------------------------------


    POTLOK:  cpu time    0.10: real time    0.10
    SETDIJ:  cpu time    0.01: real time    0.01
     EDDAV:  cpu time    1.50: real time    1.51
 BZINTS: Fermi energy:  0.322321; 60.000000 electrons
         Band energy:-116.607487;  BLOECHL correction: -0.277198
       DOS:  cpu time    0.00: real time    0.00
    CHARGE:  cpu time    0.09: real time    0.09
    MIXING:  cpu time    0.00: real time    0.01
    --------------------------------------------
      LOOP:  cpu time    1.72: real time    1.74

 eigenvalue-minimisations  :   788
 total energy-change (2. order) : 0.1218608E-03  (-0.9236763E-05)
 number of electron      60.0000013 magnetization 
 augmentation part       25.3999399 magnetization 

 Broyden mixing:
  rms(total) = 0.21962E-02    rms(broyden)= 0.21954E-02
  rms(prec ) = 0.25354E-02
  weight for this iteration     100.00

 eigenvalues of (default mixing * dielectric matrix)
  average eigenvalue GAMMA=   0.2176
  0.3920  0.1796  0.0812

 Free energy of the ion-electron system (eV)
  ---------------------------------------------------
  alpha Z        PSCENC =       305.72458370
  Ewald energy   TEWEN  =     12602.64954074
  -1/2 Hartree   DENC   =    -17866.73678952
  -exchange  EXHF       =         0.00000000
  -V(xc)+E(xc)   XCENC  =      -177.95015000
  PAW double counting   =      4154.07006079    -3789.72790791
  entropy T*S    EENTRO =         0.00000000
  eigenvalues    EBANDS =      -116.60748673
  atomic energy  EATOM  =      4858.47751158
  ---------------------------------------------------
  free energy    TOTEN  =       -30.10063736 eV

  energy without entropy =      -30.10063736  energy(sigma->0) =      -30.10063736


--------------------------------------------------------------------------------------------------------




----------------------------------------- Iteration    8(   5)  ---------------------------------------


    POTLOK:  cpu time    0.10: real time    0.10
    SETDIJ:  cpu time    0.02: real time    0.01
     EDDAV:  cpu time    1.10: real time    1.11
 BZINTS: Fermi energy:  0.322556; 60.000000 electrons
         Band energy:-116.601320;  BLOECHL correction: -0.277242
       DOS:  cpu time    0.00: real time    0.00
    CHARGE:  cpu time    0.09: real time    0.09
    MIXING:  cpu time    0.00: real time    0.01
    --------------------------------------------
      LOOP:  cpu time    1.32: real time    1.33

 eigenvalue-minimisations  :   520
 total energy-change (2. order) :-0.5903677E-04  (-0.2208795E-05)
 number of electron      60.0000013 magnetization 
 augmentation part       25.3999560 magnetization 

 Broyden mixing:
  rms(total) = 0.11555E-02    rms(broyden)= 0.11552E-02
  rms(prec ) = 0.12440E-02
  weight for this iteration     100.00

 eigenvalues of (default mixing * dielectric matrix)
  average eigenvalue GAMMA=   0.7057
  1.5945  0.9887  0.0816  0.1580

 Free energy of the ion-electron system (eV)
  ---------------------------------------------------
  alpha Z        PSCENC =       305.72458370
  Ewald energy   TEWEN  =     12602.64954074
  -1/2 Hartree   DENC   =    -17866.74286338
  -exchange  EXHF       =         0.00000000
  -V(xc)+E(xc)   XCENC  =      -177.95017693
  PAW double counting   =      4154.07293811    -3789.73091032
  entropy T*S    EENTRO =         0.00000000
  eigenvalues    EBANDS =      -116.60131989
  atomic energy  EATOM  =      4858.47751158
  ---------------------------------------------------
  free energy    TOTEN  =       -30.10069639 eV

  energy without entropy =      -30.10069639  energy(sigma->0) =      -30.10069639


--------------------------------------------------------------------------------------------------------




----------------------------------------- Iteration    8(   6)  ---------------------------------------


    POTLOK:  cpu time    0.10: real time    0.10
    SETDIJ:  cpu time    0.02: real time    0.01
     EDDAV:  cpu time    1.31: real time    1.32
 BZINTS: Fermi energy:  0.322492; 60.000000 electrons
         Band energy:-116.606263;  BLOECHL correction: -0.277244
       DOS:  cpu time    0.00: real time    0.00
    CHARGE:  cpu time    0.09: real time    0.09
    MIXING:  cpu time    0.01: real time    0.01
    --------------------------------------------
      LOOP:  cpu time    1.52: real time    1.55

 eigenvalue-minimisations  :   652
 total energy-change (2. order) : 0.1372537E-06  (-0.1339268E-05)
 number of electron      60.0000013 magnetization 
 augmentation part       25.3999453 magnetization 

 Broyden mixing:
  rms(total) = 0.64282E-03    rms(broyden)= 0.64278E-03
  rms(prec ) = 0.87508E-03
  weight for this iteration     100.00

 eigenvalues of (default mixing * dielectric matrix)
  average eigenvalue GAMMA=   0.8060
  2.1504  0.8188  0.8188  0.0815  0.1605

 Free energy of the ion-electron system (eV)
  ---------------------------------------------------
  alpha Z        PSCENC =       305.72458370
  Ewald energy   TEWEN  =     12602.64954074
  -1/2 Hartree   DENC   =    -17866.73710832
  -exchange  EXHF       =         0.00000000
  -V(xc)+E(xc)   XCENC  =      -177.95014451
  PAW double counting   =      4154.09799158    -3789.75680792
  entropy T*S    EENTRO =         0.00000000
  eigenvalues    EBANDS =      -116.60626310
  atomic energy  EATOM  =      4858.47751158
  ---------------------------------------------------
  free energy    TOTEN  =       -30.10069626 eV

  energy without entropy =      -30.10069626  energy(sigma->0) =      -30.10069626


--------------------------------------------------------------------------------------------------------




----------------------------------------- Iteration    8(   7)  ---------------------------------------


    POTLOK:  cpu time    0.10: real time    0.10
    SETDIJ:  cpu time    0.01: real time    0.01
     EDDAV:  cpu time    0.76: real time    0.76
 BZINTS: Fermi energy:  0.322439; 60.000000 electrons
         Band energy:-116.608152;  BLOECHL correction: -0.277245
       DOS:  cpu time    0.00: real time    0.00
    CHARGE:  cpu time    0.09: real time    0.09
    MIXING:  cpu time    0.01: real time    0.01
    --------------------------------------------
      LOOP:  cpu time    0.97: real time    0.99

 eigenvalue-minimisations  :   288
 total energy-change (2. order) : 0.3517005E-05  (-0.2091927E-06)
 number of electron      60.0000013 magnetization 
 augmentation part       25.3999524 magnetization 

 Broyden mixing:
  rms(total) = 0.23718E-03    rms(broyden)= 0.23712E-03
  rms(prec ) = 0.32591E-03
  weight for this iteration     100.00

 eigenvalues of (default mixing * dielectric matrix)
  average eigenvalue GAMMA=   0.8738
  2.3854  0.8503  0.8827  0.8827  0.0815  0.1604

 Free energy of the ion-electron system (eV)
  ---------------------------------------------------
  alpha Z        PSCENC =       305.72458370
  Ewald energy   TEWEN  =     12602.64954074
  -1/2 Hartree   DENC   =    -17866.73460855
  -exchange  EXHF       =         0.00000000
  -V(xc)+E(xc)   XCENC  =      -177.95013964
  PAW double counting   =      4154.11634465    -3789.77577294
  entropy T*S    EENTRO =         0.00000000
  eigenvalues    EBANDS =      -116.60815228
  atomic energy  EATOM  =      4858.47751158
  ---------------------------------------------------
  free energy    TOTEN  =       -30.10069274 eV

  energy without entropy =      -30.10069274  energy(sigma->0) =      -30.10069274


--------------------------------------------------------------------------------------------------------




----------------------------------------- Iteration    8(   8)  ---------------------------------------


    POTLOK:  cpu time    0.11: real time    0.11
    SETDIJ:  cpu time    0.01: real time    0.01
     EDDAV:  cpu time    0.82: real time    0.82
 BZINTS: Fermi energy:  0.322340; 60.000000 electrons
         Band energy:-116.614481;  BLOECHL correction: -0.277247
       DOS:  cpu time    0.00: real time    0.00
    CHARGE:  cpu time    0.09: real time    0.09
    MIXING:  cpu time    0.01: real time    0.01
    --------------------------------------------
      LOOP:  cpu time    1.04: real time    1.06

 eigenvalue-minimisations  :   320
 total energy-change (2. order) :-0.2948627E-05  (-0.1663942E-06)
 number of electron      60.0000013 magnetization 
 augmentation part       25.3999831 magnetization 

 Broyden mixing:
  rms(total) = 0.95495E-04    rms(broyden)= 0.95399E-04
  rms(prec ) = 0.10724E-03
  weight for this iteration     100.00

 eigenvalues of (default mixing * dielectric matrix)
  average eigenvalue GAMMA=   0.8608
  2.4051  1.0180  1.0180  0.8085  0.0815  0.1604  0.5343

 Free energy of the ion-electron system (eV)
  ---------------------------------------------------
  alpha Z        PSCENC =       305.72458370
  Ewald energy   TEWEN  =     12602.64954074
  -1/2 Hartree   DENC   =    -17866.72806093
  -exchange  EXHF       =         0.00000000
  -V(xc)+E(xc)   XCENC  =      -177.95014860
  PAW double counting   =      4154.12094425    -3789.78058534
  entropy T*S    EENTRO =         0.00000000
  eigenvalues    EBANDS =      -116.61448109
  atomic energy  EATOM  =      4858.47751158
  ---------------------------------------------------
  free energy    TOTEN  =       -30.10069569 eV

  energy without entropy =      -30.10069569  energy(sigma->0) =      -30.10069569


--------------------------------------------------------------------------------------------------------




----------------------------------------- Iteration    8(   9)  ---------------------------------------


    POTLOK:  cpu time    0.10: real time    0.10
    SETDIJ:  cpu time    0.01: real time    0.01
     EDDAV:  cpu time    0.78: real time    0.78
 BZINTS: Fermi energy:  0.322361; 60.000000 electrons
         Band energy:-116.613208;  BLOECHL correction: -0.277247
       DOS:  cpu time    0.00: real time    0.00
    --------------------------------------------
      LOOP:  cpu time    0.90: real time    0.91

 eigenvalue-minimisations  :   288
 total energy-change (2. order) :-0.7131930E-06  (-0.5077221E-07)
 number of electron      60.0000013 magnetization 
 augmentation part       25.3999831 magnetization 

 Free energy of the ion-electron system (eV)
  ---------------------------------------------------
  alpha Z        PSCENC =       305.72458370
  Ewald energy   TEWEN  =     12602.64954074
  -1/2 Hartree   DENC   =    -17866.72929320
  -exchange  EXHF       =         0.00000000
  -V(xc)+E(xc)   XCENC  =      -177.95015662
  PAW double counting   =      4154.12163199    -3789.78130614
  entropy T*S    EENTRO =         0.00000000
  eigenvalues    EBANDS =      -116.61320844
  atomic energy  EATOM  =      4858.47751158
  ---------------------------------------------------
  free energy    TOTEN  =       -30.10069640 eV

  energy without entropy =      -30.10069640  energy(sigma->0) =      -30.10069640


--------------------------------------------------------------------------------------------------------




 average (electrostatic) potential at core
  the test charge radii are     1.1199
  (the norm of the test charge is              1.0000)
       1 -50.8738       2 -51.2131       3 -51.1773       4 -51.1776       5 -51.2130
       6 -50.8742
 
 
 
 E-fermi :   0.3224     XC(G=0):  -8.1489     alpha+bet : -6.5480


 k-point   1 :       0.0000    0.0000    0.0000
  band No.  band energies     occupation 
      1      -6.2519      2.00000
      2      -5.6386      2.00000
      3      -4.9145      2.00000
      4      -4.5961      2.00000
      5      -4.3477      2.00000
      6      -4.3440      2.00000
      7      -2.3756      2.00000
      8      -2.3568      2.00000
      9      -2.2766      2.00000
     10      -2.2766      2.00000
     11      -2.2221      2.00000
     12      -2.2221      2.00000
     13      -2.1465      2.00000
     14      -2.1223      2.00000
     15      -2.1223      2.00000
     16      -2.0467      2.00000
     17      -2.0467      2.00000
     18      -1.8909      2.00000
     19      -1.8908      2.00000
     20      -1.8575      2.00000
     21      -1.8575      2.00000
     22      -1.5554      2.00000
     23      -0.8168      2.00000
     24      -0.8168      2.00000
     25      -0.7700      2.00000
     26      -0.7700      2.00000
     27      -0.5673      2.00000
     28      -0.5673      2.00000
     29      -0.2990      2.00000
     30      -0.2297      2.00000
     31      -0.2297      2.00000
     32       0.1104      2.00000
     33       0.1104      2.00000
     34       0.2831      2.00000
     35       0.2831      0.05460
     36       1.2567      0.00000

 k-point   2 :       0.1429    0.0000    0.0000
  band No.  band energies     occupation 
      1      -5.6550      2.00000
      2      -5.0736      2.00000
      3      -4.3797      2.00000
      4      -4.1545      2.00000
      5      -3.8962      2.00000
      6      -3.8372      2.00000
      7      -2.8283      2.00000
      8      -2.6534      2.00000
      9      -2.5868      2.00000
     10      -2.4676      2.00000
     11      -2.3801      2.00000
     12      -2.1875      2.00000
     13      -2.0323      2.00000
     14      -2.0079      2.00000
     15      -1.9794      2.00000
     16      -1.9078      2.00000
     17      -1.8981      2.00000
     18      -1.8064      2.00000
     19      -1.7412      2.00000
     20      -1.7305      2.00000
     21      -1.5513      2.00000
     22      -1.5397      2.00000
     23      -1.4952      2.00000
     24      -1.1110      2.00000
     25      -1.0714      2.00000
     26      -0.9056      2.00000
     27      -0.7664      2.00000
     28      -0.7302      2.00000
     29      -0.5325      2.00000
     30      -0.4314      2.00000
     31      -0.2240      2.00000
     32       0.1219      2.00000
     33       0.2380      2.00743
     34       0.3118      0.84501
     35       1.2989     -0.00761
     36       2.6102      0.00000

 k-point   3 :       0.2857    0.0000    0.0000
  band No.  band energies     occupation 
      1      -4.5068      2.00000
      2      -4.1929      2.00000
      3      -4.0366      2.00000
      4      -3.8696      2.00000
      5      -3.6804      2.00000
      6      -3.5407      2.00000
      7      -3.3455      2.00000
      8      -3.2645      2.00000
      9      -2.9063      2.00000
     10      -2.5259      2.00000
     11      -2.4635      2.00000
     12      -2.1566      2.00000
     13      -2.0795      2.00000
     14      -1.9804      2.00000
     15      -1.9619      2.00000
     16      -1.7004      2.00000
     17      -1.5983      2.00000
     18      -1.3908      2.00000
     19      -1.2209      2.00000
     20      -1.1972      2.00000
     21      -1.0689      2.00000
     22      -0.9377      2.00000
     23      -0.7481      2.00000
     24      -0.7354      2.00000
     25      -0.6231      2.00000
     26      -0.6008      2.00000
     27      -0.4912      2.04463
     28      -0.4181      2.11928
     29      -0.2812      2.23170
     30      -0.1528      2.16835
     31       0.0780      1.28638
     32       0.1353      1.11704
     33       0.3641      0.58000
     34       1.3489     -0.00274
     35       2.8924      0.00000
     36       4.5733      0.00000

 k-point   4 :       0.4286    0.0000    0.0000
  band No.  band energies     occupation 
      1      -4.4798      2.00000
      2      -4.4352      2.00000
      3      -4.2349      2.00000
      4      -4.1680      2.00000
      5      -4.0562      2.00000
      6      -3.8308      2.00000
      7      -3.8064      2.00000
      8      -3.6894      2.00000
      9      -3.1959      2.00000
     10      -2.6646      2.00000
     11      -2.4037      2.00000
     12      -2.3101      2.00000
     13      -2.1746      2.00000
     14      -1.7515      2.00000
     15      -1.7019      2.00000
     16      -1.4012      2.00000
     17      -1.1898      2.00000
     18      -0.9283      2.00000
     19      -0.5823      2.00000
     20      -0.4691      2.00000
     21      -0.1025      2.00000
     22      -0.0722      2.00000
     23       0.1877      2.00000
     24       0.1939      2.00000
     25       0.2477      2.00000
     26       0.2725      2.00000
     27       0.3474      1.46068
     28       0.4146      0.71598
     29       0.4672      0.21593
     30       0.5162      0.12526
     31       1.1370     -0.02655
     32       1.8464     -0.02870
     33       2.2145      0.00000
     34       3.0392      0.00000
     35       4.4031      0.00000
     36       5.6929      0.00000

 k-point   5 :       0.2857    0.1429    0.0000
  band No.  band energies     occupation 
      1      -4.6640      2.00000
      2      -4.2476      2.00000
      3      -3.7326      2.00000
      4      -3.5240      2.00000
      5      -3.4095      2.00000
      6      -3.2770      2.00000
      7      -3.1405      2.00000
      8      -3.1072      2.00000
      9      -2.9362      2.00000
     10      -2.8410      2.00000
     11      -2.5785      2.00000
     12      -2.5027      2.00000
     13      -2.3974      2.00000
     14      -2.2833      2.00000
     15      -2.1134      2.00000
     16      -2.0185      2.00000
     17      -1.9508      2.00000
     18      -1.7231      2.00000
     19      -1.5563      2.00000
     20      -1.3794      2.00000
     21      -1.2561      2.00000
     22      -1.1320      2.00000
     23      -1.1187      2.00000
     24      -0.8679      2.00000
     25      -0.7848      2.00000
     26      -0.5745      2.00000
     27      -0.5157      2.00000
     28      -0.4551      2.00000
     29      -0.2602      2.00000
     30      -0.2291      2.13912
     31      -0.0520      1.63897
     32       0.1333      1.42044
     33       0.1583      1.34540
     34       1.1541     -0.15038
     35       2.5095      0.00000
     36       4.0732      0.00000

 k-point   6 :       0.4286    0.1429    0.0000
  band No.  band energies     occupation 
      1      -4.0573      2.00000
      2      -4.0224      2.00000
      3      -3.8295      2.00000
      4      -3.6891      2.00000
      5      -3.6514      2.00000
      6      -3.5077      2.00000
      7      -3.3940      2.00000
      8      -3.1428      2.00000
      9      -3.0488      2.00000
     10      -2.7959      2.00000
     11      -2.4469      2.00000
     12      -2.4133      2.00000
     13      -2.2849      2.00000
     14      -2.0045      2.00000
     15      -1.9492      2.00000
     16      -1.8609      2.00000
     17      -1.5759      2.00000
     18      -1.4572      2.00000
     19      -1.3415      2.00000
     20      -1.2042      2.00000
     21      -0.9975      2.00000
     22      -0.7699      2.00000
     23      -0.7324      2.00000
     24      -0.5457      2.00000
     25      -0.2784      2.00000
     26      -0.2544      2.00000
     27       0.1899      2.00832
     28       0.2091      1.99218
     29       0.3097      1.52129
     30       0.4424      0.48527
     31       1.3141     -0.11538
     32       1.4933     -0.13868
     33       1.9095     -0.12121
     34       2.9463      0.00000
     35       4.4199      0.00000
     36       6.1014      0.00000

 k-point   7 :      -0.4286    0.1429    0.0000
  band No.  band energies     occupation 
      1      -4.2870      2.00000
      2      -4.1392      2.00000
      3      -4.0195      2.00000
      4      -3.8965      2.00000
      5      -3.7392      2.00000
      6      -3.6900      2.00000
      7      -3.5158      2.00000
      8      -3.3533      2.00000
      9      -3.1359      2.00000
     10      -2.8344      2.00000
     11      -2.6935      2.00000
     12      -2.1941      2.00000
     13      -2.1596      2.00000
     14      -2.0198      2.00000
     15      -1.8218      2.00000
     16      -1.6426      2.00000
     17      -1.3336      2.00000
     18      -1.0983      2.00000
     19      -1.0427      2.00000
     20      -0.6424      2.00000
     21      -0.5553      2.00000
     22      -0.5032      2.00000
     23      -0.2205      2.00000
     24      -0.0611      2.00000
     25       0.0919      2.00000
     26       0.1006      2.00000
     27       0.1805      2.14274
     28       0.2132      1.96358
     29       0.3757      0.02728
     30       0.4816      0.00000
     31       3.4680      0.00000
     32       3.9951      0.00000
     33       4.4484      0.00000
     34       4.7816      0.00000
     35       5.0512      0.00000
     36       5.2035      0.00000

 k-point   8 :      -0.4286    0.2857    0.0000
  band No.  band energies     occupation 
      1      -3.7855      2.00000
      2      -3.7818      2.00000
      3      -3.5648      2.00000
      4      -3.3933      2.00000
      5      -3.3150      2.00000
      6      -3.1783      2.00000
      7      -3.1601      2.00000
      8      -3.0150      2.00000
      9      -3.0073      2.00000
     10      -2.7583      2.00000
     11      -2.7486      2.00000
     12      -2.4367      2.00000
     13      -2.3861      2.00000
     14      -2.1834      2.00000
     15      -2.0178      2.00000
     16      -1.7929      2.00000
     17      -1.7447      2.00000
     18      -1.6163      2.00000
     19      -1.5871      2.00000
     20      -1.1709      2.00000
     21      -1.0833      2.00000
     22      -0.8924      2.00000
     23      -0.7471      2.00000
     24      -0.6890      2.00000
     25      -0.3470      2.00000
     26      -0.0881      2.00000
     27       0.1643      2.00000
     28       0.2403      2.00000
     29       0.2754      2.01481
     30       0.4314      0.00000
     31       4.1131      0.00000
     32       4.4983      0.00000
     33       5.1309      0.00000
     34       6.0564      0.00000
     35       7.1857      0.00000
     36       7.8580      0.00000


--------------------------------------------------------------------------------------------------------


 soft charge-density along one line, spin component           1
         0         1         2         3         4         5         6         7         8         9
 total charge-density along one line
 
 pseudopotential strength for first ion, spin component:           1
-11.401   0.000   0.000   0.000   0.000   0.000  -0.011   0.000   0.000   0.000   0.110   0.000   0.000   0.000   0.000   0.000
  0.000   0.000 -11.287   0.000   0.000   0.000   0.000   0.000  -0.011   0.000   0.000   0.000   0.092   0.000   0.000   0.000
  0.000   0.000   0.000   0.000 -11.269   0.000   0.000   0.000   0.000   0.000   0.000   0.000   0.000   0.000   0.089   0.000
 -0.011   0.000   0.000   0.000   0.000   0.000 -11.287   0.000   0.000   0.000   0.002   0.000   0.000   0.000   0.000   0.000
  0.000   0.000  -0.011   0.000   0.000   0.000   0.000   0.000 -11.401   0.000   0.000   0.000   0.002   0.000   0.000   0.000
  0.110   0.000   0.000   0.000   0.000   0.000   0.002   0.000   0.000   0.000   0.323   0.000   0.000   0.000   0.000   0.000
  0.000   0.000   0.092   0.000   0.000   0.000   0.000   0.000   0.002   0.000   0.000   0.000   0.326   0.000   0.000   0.000
  0.000   0.000   0.000   0.000   0.089   0.000   0.000   0.000   0.000   0.000   0.000   0.000   0.000   0.000   0.327   0.000
  0.002   0.000   0.000   0.000   0.000   0.000   0.092   0.000   0.000   0.000   0.000   0.000   0.000   0.000   0.000   0.000
  0.000   0.000   0.002   0.000   0.000   0.000   0.000   0.000   0.110   0.000   0.000   0.000   0.000   0.000   0.000   0.000
  0.000   0.000   0.000   0.000  -0.029   0.000   0.000   0.000   0.000   0.000   0.000   0.000   0.000   0.000   0.004   0.000
  0.000   0.000   0.000   0.000   0.003   0.000   0.000   0.000   0.000   0.000   0.000   0.000   0.000   0.000   0.000   0.000
  0.000   0.000  -0.011   0.000   0.000   0.000   0.000   0.000   0.000   0.000   0.000   0.000   0.002   0.000   0.000   0.000
  0.000   0.000   0.000   0.000  -0.012   0.000   0.000   0.000   0.000   0.000   0.000   0.000   0.000   0.000   0.002   0.000
  0.000   0.000   0.000   0.000   0.000   0.000  -0.011   0.000   0.000   0.000   0.000   0.000   0.000   0.000   0.000   0.000
  0.000   0.000   0.010   0.000   0.000   0.000   0.000   0.000   0.000   0.000   0.000   0.000  -0.002   0.000   0.000   0.000
  0.000   0.000   0.000   0.000   0.010   0.000   0.000   0.000   0.000   0.000   0.000   0.000   0.000   0.000  -0.002   0.000
  0.000   0.000   0.000   0.000   0.000   0.000   0.010   0.000   0.000   0.000   0.000   0.000   0.000   0.000   0.000   0.000
 total augmentation occupancy for first ion, spin component:           1
  1.724   0.000   0.000  -0.041   0.000   0.132   0.000   0.000   0.020   0.000   0.000   0.000   0.000   0.000   0.003   0.000
  0.000   1.855   0.000   0.000  -0.041   0.000   0.051   0.000   0.000   0.022   0.000   0.000  -0.015   0.000   0.000  -0.015
  0.000   0.000   1.833   0.000   0.000   0.000   0.000   0.078   0.000   0.000   0.015  -0.064   0.000   0.025   0.000   0.000
 -0.041   0.000   0.000   1.855   0.000   0.022   0.000   0.000   0.051   0.000   0.000   0.000   0.000   0.000  -0.015   0.000
  0.000  -0.041   0.000   0.000   1.724   0.000   0.020   0.000   0.000   0.132   0.000   0.000   0.003   0.000   0.000   0.001
  0.132   0.000   0.000   0.022   0.000   0.113   0.000   0.000   0.003   0.000   0.000   0.000   0.000   0.000   0.006   0.000
  0.000   0.051   0.000   0.000   0.020   0.000   0.089   0.000   0.000   0.003   0.000   0.000   0.033   0.000   0.000  -0.001
  0.000   0.000   0.078   0.000   0.000   0.000   0.000   0.117   0.000   0.000  -0.113   0.029   0.000   0.045   0.000   0.000
  0.020   0.000   0.000   0.051   0.000   0.003   0.000   0.000   0.089   0.000   0.000   0.000   0.000   0.000   0.033   0.000
  0.000   0.022   0.000   0.000   0.132   0.000   0.003   0.000   0.000   0.113   0.000   0.000   0.006   0.000   0.000   0.000
  0.000   0.000   0.015   0.000   0.000   0.000   0.000  -0.113   0.000   0.000   0.998  -0.325   0.000   0.072   0.000   0.000
  0.000   0.000  -0.064   0.000   0.000   0.000   0.000   0.029   0.000   0.000  -0.325   0.121   0.000  -0.039   0.000   0.000
  0.000  -0.015   0.000   0.000   0.003   0.000   0.033   0.000   0.000   0.006   0.000   0.000   0.110   0.000   0.000  -0.002
  0.000   0.000   0.025   0.000   0.000   0.000   0.000   0.045   0.000   0.000   0.072  -0.039   0.000   0.062   0.000   0.000
  0.003   0.000   0.000  -0.015   0.000   0.006   0.000   0.000   0.033   0.000   0.000   0.000   0.000   0.000   0.110   0.000
  0.000  -0.015   0.000   0.000   0.001   0.000  -0.001   0.000   0.000   0.000   0.000   0.000  -0.002   0.000   0.000   0.000
  0.000   0.000  -0.020   0.000   0.000   0.000   0.000  -0.001   0.000   0.000  -0.004   0.002   0.000  -0.001   0.000   0.000
  0.001   0.000   0.000  -0.015   0.000   0.000   0.000   0.000  -0.001   0.000   0.000   0.000   0.000   0.000  -0.002   0.000


------------------------ aborting loop because EDIFF is reached ----------------------------------------


    CHARGE:  cpu time    0.09: real time    0.09
    FORLOC:  cpu time    0.01: real time    0.01
    FORNL :  cpu time    0.46: real time    0.45
    STRESS:  cpu time    0.79: real time    0.79
    FORCOR:  cpu time    0.11: real time    0.11
    FORHAR:  cpu time    0.04: real time    0.03
    MIXING:  cpu time    0.00: real time    0.01

  FORCE on cell =-STRESS in cart. coord.  units (eV):
  Direction    XX          YY          ZZ          XY          YZ          ZX
  --------------------------------------------------------------------------------------
  Alpha Z   305.72458   305.72458   305.72458
  Ewald   15928.86139 15928.86139-19255.07333     0.00000     0.00000     0.00000
  Hartree 17381.02100 17381.02100-16895.27538     0.00000     0.00000     0.00000
  E(xc)    -313.68292  -313.68294  -314.84656     0.00001     0.00000     0.00000
  Local  -34052.92527-34052.92555 35399.55538     0.00024     0.00000     0.00000
  n-local  -332.69571  -308.70820  -323.32838     5.24668    -3.07192     1.50294
  augment   256.59821   256.59846   260.10694    -0.00021     0.00000     0.00000
  Kinetic   802.64833   823.38864   822.57893     5.31486     2.98499    -0.71841
  Fock        0.00000     0.00000     0.00000     0.00000     0.00000     0.00000
  -------------------------------------------------------------------------------------
  Total      -2.08651    -2.08651    -0.55781     0.00000     0.00000     0.00000
  in kB     -20.85204   -20.85204    -5.57465     0.00000     0.00000     0.00000
  external pressure =      -15.76 kB  Pullay stress =        0.00 kB


 VOLUME and BASIS-vectors are now :
 -----------------------------------------------------------------------------
  energy-cutoff  :      415.00
  volume of cell :      160.32
      direct lattice vectors                 reciprocal lattice vectors
     2.795185513  0.000000000  0.000000000     0.357758008 -0.206551682  0.000000000
     1.397592758  2.420701664  0.000000000     0.000000000  0.413103364  0.000000000
     0.000000000  0.000000000 23.693556493     0.000000000  0.000000000  0.042205568

  length of vectors
     2.795185513  2.795185515 23.693556493     0.413103364  0.413103364  0.042205568


 FORCES acting on ions
    electron-ion (+dipol)            ewald-force                    non-local-force                 convergence-correction
 -----------------------------------------------------------------------------------------------
   0.546E-07 0.597E-07 0.281E+04   0.254E-07 -.240E-07 -.281E+04   -.173E-17 0.520E-17 -.125E+01   0.456E-10 0.262E-10 -.833E-02
   0.837E-09 0.320E-09 -.567E+03   -.147E-09 0.139E-09 0.567E+03   0.434E-18 -.173E-17 -.434E-01   -.315E-09 -.182E-09 0.651E-02
   0.638E-06 0.369E-06 0.170E+04   0.113E-08 -.203E-09 -.170E+04   -.130E-17 -.867E-18 -.476E-01   0.291E-10 0.162E-10 -.758E-02
   0.738E-06 0.426E-06 -.170E+04   -.886E-11 0.849E-09 0.170E+04   0.651E-18 0.867E-18 0.476E-01   -.183E-10 -.997E-11 0.758E-02
   -.496E-06 -.286E-06 0.567E+03   -.421E-09 -.467E-09 -.567E+03   -.867E-18 0.173E-17 0.434E-01   0.311E-09 0.180E-09 -.652E-02
   -.228E-06 -.160E-06 -.281E+04   -.260E-07 0.237E-07 0.281E+04   0.867E-18 -.434E-17 0.125E+01   -.447E-10 -.257E-10 0.834E-02
 -----------------------------------------------------------------------------------------------
   0.708E-06 0.409E-06 -.147E-02   0.166E-12 -.707E-13 0.455E-12   -.195E-17 0.867E-18 0.222E-15   0.748E-11 0.430E-11 0.768E-05
 
 
 POSITION                                       TOTAL-FORCE (eV/Angst)
 -----------------------------------------------------------------------------------
      0.00000      0.00000      0.00050         0.000000      0.000000      0.031873
      0.00000      0.00000      6.84320         0.000000      0.000000     -0.010261
      1.39759      0.80690      2.29036         0.000000      0.000000      0.001268
      1.39759      0.80690      9.12094         0.000000      0.000000     -0.001268
      2.79519      1.61380      4.56809         0.000000      0.000000      0.010261
      2.79519      1.61380     11.41080         0.000000      0.000000     -0.031873
 -----------------------------------------------------------------------------------
    total drift:                                0.000001      0.000000     -0.001462


--------------------------------------------------------------------------------------------------------



  FREE ENERGIE OF THE ION-ELECTRON SYSTEM (eV)
  ---------------------------------------------------
  free  energy   TOTEN  =       -30.10069640 eV

  energy  without entropy=      -30.10069640  energy(sigma->0) =      -30.10069640
 
 d Force = 0.8462253E-04[ 0.802E-04, 0.891E-04]  d Energy =-0.9719946E-04 0.182E-03
 d Force =-0.8337847E+01[-0.834E+01,-0.834E+01]  d Ewald  =-0.8337847E+01 0.228E-07


--------------------------------------------------------------------------------------------------------


    POTLOK:  cpu time    0.12: real time    0.11


--------------------------------------------------------------------------------------------------------


 Conjugate gradient step on ions:
 trial-energy change:    0.000097  1 .order   -0.000085   -0.000089   -0.000080
  (g-gl).g = 0.110E-04      g.g   = 0.128E-04  gl.gl    = 0.315E-04
 g(Force)  = 0.128E-04   g(Stress)= 0.000E+00 ortho     = 0.179E-05
 gamma     =   0.34922
 trial     =   6.63833
 opt step  =  26.55333  (harmonic =  66.20369) maximal distance =0.00392965
 next E    =   -30.101238   (d E  =  -0.00044)


--------------------------------------------------------------------------------------------------------


    WAVPRE:  cpu time    0.04: real time    0.03
 FEWALD executed in parallel
    FEWALD:  cpu time    0.00: real time    0.00
    ORTHCH:  cpu time    0.10: real time    0.10
     LOOP+:  cpu time   14.12: real time   14.32


----------------------------------------- Iteration    9(   1)  ---------------------------------------


    POTLOK:  cpu time    0.10: real time    0.10
    SETDIJ:  cpu time    0.01: real time    0.01
     EDDAV:  cpu time    1.18: real time    1.19
 BZINTS: Fermi energy:  0.322823; 60.000000 electrons
         Band energy:-116.677536;  BLOECHL correction: -0.276408
       DOS:  cpu time    0.00: real time    0.00
    CHARGE:  cpu time    0.09: real time    0.09
    MIXING:  cpu time    0.00: real time    0.00
    --------------------------------------------
      LOOP:  cpu time    1.40: real time    1.41

 eigenvalue-minimisations  :   576
 total energy-change (2. order) : 0.9896718E-03  (-0.2080610E-01)
 number of electron      60.0000013 magnetization 
 augmentation part       25.3992675 magnetization 

 Broyden mixing:
  rms(total) = 0.58221E-02    rms(broyden)= 0.58175E-02
  rms(prec ) = 0.68434E-02
  weight for this iteration     100.00

 Free energy of the ion-electron system (eV)
  ---------------------------------------------------
  alpha Z        PSCENC =       305.72458370
  Ewald energy   TEWEN  =     12627.67806166
  -1/2 Hartree   DENC   =    -17891.70164848
  -exchange  EXHF       =         0.00000000
  -V(xc)+E(xc)   XCENC  =      -177.94100163
  PAW double counting   =      4154.12165231    -3789.78132872
  entropy T*S    EENTRO =         0.00000000
  eigenvalues    EBANDS =      -116.67753642
  atomic energy  EATOM  =      4858.47751158
  ---------------------------------------------------
  free energy    TOTEN  =       -30.09970602 eV

  energy without entropy =      -30.09970602  energy(sigma->0) =      -30.09970602


--------------------------------------------------------------------------------------------------------




----------------------------------------- Iteration    9(   2)  ---------------------------------------


    POTLOK:  cpu time    0.10: real time    0.10
    SETDIJ:  cpu time    0.01: real time    0.01
     EDDAV:  cpu time    1.62: real time    1.62
 BZINTS: Fermi energy:  0.330281; 60.000000 electrons
         Band energy:-116.257028;  BLOECHL correction: -0.276193
       DOS:  cpu time    0.00: real time    0.00
    CHARGE:  cpu time    0.09: real time    0.09
    MIXING:  cpu time    0.00: real time    0.00
    --------------------------------------------
      LOOP:  cpu time    1.83: real time    1.84

 eigenvalue-minimisations  :   868
 total energy-change (2. order) :-0.1133093E-02  (-0.1116140E-02)
 number of electron      60.0000013 magnetization 
 augmentation part       25.3981101 magnetization 

 Broyden mixing:
  rms(total) = 0.27858E-01    rms(broyden)= 0.27855E-01
  rms(prec ) = 0.43446E-01
  weight for this iteration     100.00

 eigenvalues of (default mixing * dielectric matrix)
  average eigenvalue GAMMA=   0.1209
  0.1209

 Free energy of the ion-electron system (eV)
  ---------------------------------------------------
  alpha Z        PSCENC =       305.72458370
  Ewald energy   TEWEN  =     12627.67806166
  -1/2 Hartree   DENC   =    -17892.11543833
  -exchange  EXHF       =         0.00000000
  -V(xc)+E(xc)   XCENC  =      -177.94220226
  PAW double counting   =      4154.20548049    -3789.87180744
  entropy T*S    EENTRO =         0.00000000
  eigenvalues    EBANDS =      -116.25702849
  atomic energy  EATOM  =      4858.47751158
  ---------------------------------------------------
  free energy    TOTEN  =       -30.10083911 eV

  energy without entropy =      -30.10083911  energy(sigma->0) =      -30.10083911


--------------------------------------------------------------------------------------------------------




----------------------------------------- Iteration    9(   3)  ---------------------------------------


    POTLOK:  cpu time    0.11: real time    0.11
    SETDIJ:  cpu time    0.01: real time    0.01
     EDDAV:  cpu time    1.42: real time    1.43
 BZINTS: Fermi energy:  0.323317; 60.000000 electrons
         Band energy:-116.654970;  BLOECHL correction: -0.276746
       DOS:  cpu time    0.00: real time    0.00
    CHARGE:  cpu time    0.09: real time    0.09
    MIXING:  cpu time    0.01: real time    0.00
    --------------------------------------------
      LOOP:  cpu time    1.64: real time    1.66

 eigenvalue-minimisations  :   736
 total energy-change (2. order) : 0.2353181E-03  (-0.6440375E-03)
 number of electron      60.0000013 magnetization 
 augmentation part       25.3997071 magnetization 

 Broyden mixing:
  rms(total) = 0.91993E-02    rms(broyden)= 0.91885E-02
  rms(prec ) = 0.11853E-01
  weight for this iteration     100.00

 eigenvalues of (default mixing * dielectric matrix)
  average eigenvalue GAMMA=   0.2564
  0.4311  0.0817

 Free energy of the ion-electron system (eV)
  ---------------------------------------------------
  alpha Z        PSCENC =       305.72458370
  Ewald energy   TEWEN  =     12627.67806166
  -1/2 Hartree   DENC   =    -17891.71698757
  -exchange  EXHF       =         0.00000000
  -V(xc)+E(xc)   XCENC  =      -177.94199723
  PAW double counting   =      4154.19966265    -3789.86646880
  entropy T*S    EENTRO =         0.00000000
  eigenvalues    EBANDS =      -116.65496977
  atomic energy  EATOM  =      4858.47751158
  ---------------------------------------------------
  free energy    TOTEN  =       -30.10060379 eV

  energy without entropy =      -30.10060379  energy(sigma->0) =      -30.10060379


--------------------------------------------------------------------------------------------------------




----------------------------------------- Iteration    9(   4)  ---------------------------------------


    POTLOK:  cpu time    0.11: real time    0.11
    SETDIJ:  cpu time    0.01: real time    0.01
     EDDAV:  cpu time    1.59: real time    1.63
 BZINTS: Fermi energy:  0.322648; 60.000000 electrons
         Band energy:-116.665479;  BLOECHL correction: -0.276439
       DOS:  cpu time    0.00: real time    0.00
    CHARGE:  cpu time    0.09: real time    0.09
    MIXING:  cpu time    0.00: real time    0.01
    --------------------------------------------
      LOOP:  cpu time    1.81: real time    1.86

 eigenvalue-minimisations  :   820
 total energy-change (2. order) : 0.4263476E-03  (-0.8842615E-04)
 number of electron      60.0000013 magnetization 
 augmentation part       25.3995524 magnetization 

 Broyden mixing:
  rms(total) = 0.67751E-02    rms(broyden)= 0.67727E-02
  rms(prec ) = 0.78392E-02
  weight for this iteration     100.00

 eigenvalues of (default mixing * dielectric matrix)
  average eigenvalue GAMMA=   0.2186
  0.3976  0.1773  0.0808

 Free energy of the ion-electron system (eV)
  ---------------------------------------------------
  alpha Z        PSCENC =       305.72458370
  Ewald energy   TEWEN  =     12627.67806166
  -1/2 Hartree   DENC   =    -17891.70535966
  -exchange  EXHF       =         0.00000000
  -V(xc)+E(xc)   XCENC  =      -177.94184968
  PAW double counting   =      4154.22341976    -3789.89106550
  entropy T*S    EENTRO =         0.00000000
  eigenvalues    EBANDS =      -116.66547930
  atomic energy  EATOM  =      4858.47751158
  ---------------------------------------------------
  free energy    TOTEN  =       -30.10017744 eV

  energy without entropy =      -30.10017744  energy(sigma->0) =      -30.10017744


--------------------------------------------------------------------------------------------------------




----------------------------------------- Iteration    9(   5)  ---------------------------------------


    POTLOK:  cpu time    0.10: real time    0.10
    SETDIJ:  cpu time    0.01: real time    0.01
     EDDAV:  cpu time    1.60: real time    1.61
 BZINTS: Fermi energy:  0.323366; 60.000000 electrons
         Band energy:-116.646887;  BLOECHL correction: -0.276579
       DOS:  cpu time    0.00: real time    0.00
    CHARGE:  cpu time    0.09: real time    0.09
    MIXING:  cpu time    0.00: real time    0.01
    --------------------------------------------
      LOOP:  cpu time    1.82: real time    1.83

 eigenvalue-minimisations  :   832
 total energy-change (2. order) :-0.1624845E-03  (-0.2203201E-04)
 number of electron      60.0000013 magnetization 
 augmentation part       25.3995881 magnetization 

 Broyden mixing:
  rms(total) = 0.33469E-02    rms(broyden)= 0.33458E-02
  rms(prec ) = 0.35944E-02
  weight for this iteration     100.00

 eigenvalues of (default mixing * dielectric matrix)
  average eigenvalue GAMMA=   0.7278
  1.7629  0.9085  0.0812  0.1585

 Free energy of the ion-electron system (eV)
  ---------------------------------------------------
  alpha Z        PSCENC =       305.72458370
  Ewald energy   TEWEN  =     12627.67806166
  -1/2 Hartree   DENC   =    -17891.72364182
  -exchange  EXHF       =         0.00000000
  -V(xc)+E(xc)   XCENC  =      -177.94192121
  PAW double counting   =      4154.23317203    -3789.90121837
  entropy T*S    EENTRO =         0.00000000
  eigenvalues    EBANDS =      -116.64688749
  atomic energy  EATOM  =      4858.47751158
  ---------------------------------------------------
  free energy    TOTEN  =       -30.10033993 eV

  energy without entropy =      -30.10033993  energy(sigma->0) =      -30.10033993


--------------------------------------------------------------------------------------------------------




----------------------------------------- Iteration    9(   6)  ---------------------------------------


    POTLOK:  cpu time    0.10: real time    0.10
    SETDIJ:  cpu time    0.02: real time    0.01
     EDDAV:  cpu time    1.58: real time    1.59
 BZINTS: Fermi energy:  0.323291; 60.000000 electrons
         Band energy:-116.653553;  BLOECHL correction: -0.276572
       DOS:  cpu time    0.00: real time    0.00
    CHARGE:  cpu time    0.09: real time    0.09
    MIXING:  cpu time    0.01: real time    0.01
    --------------------------------------------
      LOOP:  cpu time    1.80: real time    1.81

 eigenvalue-minimisations  :   836
 total energy-change (2. order) : 0.3128387E-04  (-0.9224295E-05)
 number of electron      60.0000013 magnetization 
 augmentation part       25.3994513 magnetization 

 Broyden mixing:
  rms(total) = 0.20813E-02    rms(broyden)= 0.20812E-02
  rms(prec ) = 0.29467E-02
  weight for this iteration     100.00

 eigenvalues of (default mixing * dielectric matrix)
  average eigenvalue GAMMA=   0.8354
  2.2425  0.8468  0.8468  0.0810  0.1598

 Free energy of the ion-electron system (eV)
  ---------------------------------------------------
  alpha Z        PSCENC =       305.72458370
  Ewald energy   TEWEN  =     12627.67806166
  -1/2 Hartree   DENC   =    -17891.71457581
  -exchange  EXHF       =         0.00000000
  -V(xc)+E(xc)   XCENC  =      -177.94173348
  PAW double counting   =      4154.31576221    -3789.98636514
  entropy T*S    EENTRO =         0.00000000
  eigenvalues    EBANDS =      -116.65355335
  atomic energy  EATOM  =      4858.47751158
  ---------------------------------------------------
  free energy    TOTEN  =       -30.10030865 eV

  energy without entropy =      -30.10030865  energy(sigma->0) =      -30.10030865


--------------------------------------------------------------------------------------------------------




----------------------------------------- Iteration    9(   7)  ---------------------------------------


    POTLOK:  cpu time    0.10: real time    0.10
    SETDIJ:  cpu time    0.01: real time    0.01
     EDDAV:  cpu time    1.63: real time    1.65
 BZINTS: Fermi energy:  0.323001; 60.000000 electrons
         Band energy:-116.670255;  BLOECHL correction: -0.276601
       DOS:  cpu time    0.00: real time    0.00
    CHARGE:  cpu time    0.10: real time    0.10
    MIXING:  cpu time    0.01: real time    0.01
    --------------------------------------------
      LOOP:  cpu time    1.85: real time    1.89

 eigenvalue-minimisations  :   872
 total energy-change (2. order) :-0.1777381E-04  (-0.3727269E-05)
 number of electron      60.0000013 magnetization 
 augmentation part       25.3995174 magnetization 

 Broyden mixing:
  rms(total) = 0.28299E-03    rms(broyden)= 0.28168E-03
  rms(prec ) = 0.29475E-03
  weight for this iteration     100.00

 eigenvalues of (default mixing * dielectric matrix)
  average eigenvalue GAMMA=   0.9026
  2.3727  1.0065  1.0065  0.7893  0.0810  0.1598

 Free energy of the ion-electron system (eV)
  ---------------------------------------------------
  alpha Z        PSCENC =       305.72458370
  Ewald energy   TEWEN  =     12627.67806166
  -1/2 Hartree   DENC   =    -17891.69549919
  -exchange  EXHF       =         0.00000000
  -V(xc)+E(xc)   XCENC  =      -177.94177149
  PAW double counting   =      4154.37447735    -3790.04743479
  entropy T*S    EENTRO =         0.00000000
  eigenvalues    EBANDS =      -116.67025522
  atomic energy  EATOM  =      4858.47751158
  ---------------------------------------------------
  free energy    TOTEN  =       -30.10032642 eV

  energy without entropy =      -30.10032642  energy(sigma->0) =      -30.10032642


--------------------------------------------------------------------------------------------------------




----------------------------------------- Iteration    9(   8)  ---------------------------------------


    POTLOK:  cpu time    0.10: real time    0.10
    SETDIJ:  cpu time    0.02: real time    0.01
     EDDAV:  cpu time    0.79: real time    0.80
 BZINTS: Fermi energy:  0.322826; 60.000000 electrons
         Band energy:-116.679975;  BLOECHL correction: -0.276594
       DOS:  cpu time    0.00: real time    0.00
    CHARGE:  cpu time    0.10: real time    0.09
    MIXING:  cpu time    0.01: real time    0.01
    --------------------------------------------
      LOOP:  cpu time    1.01: real time    1.02

 eigenvalue-minimisations  :   300
 total energy-change (2. order) : 0.7531593E-05  (-0.6733096E-07)
 number of electron      60.0000013 magnetization 
 augmentation part       25.3995883 magnetization 

 Broyden mixing:
  rms(total) = 0.26175E-03    rms(broyden)= 0.26171E-03
  rms(prec ) = 0.28850E-03
  weight for this iteration     100.00

 eigenvalues of (default mixing * dielectric matrix)
  average eigenvalue GAMMA=   0.9629
  2.3655  0.0810  0.1597  1.2356  1.2356  0.8316  0.8316

 Free energy of the ion-electron system (eV)
  ---------------------------------------------------
  alpha Z        PSCENC =       305.72458370
  Ewald energy   TEWEN  =     12627.67806166
  -1/2 Hartree   DENC   =    -17891.68538172
  -exchange  EXHF       =         0.00000000
  -V(xc)+E(xc)   XCENC  =      -177.94183323
  PAW double counting   =      4154.37831158    -3790.05159778
  entropy T*S    EENTRO =         0.00000000
  eigenvalues    EBANDS =      -116.67997467
  atomic energy  EATOM  =      4858.47751158
  ---------------------------------------------------
  free energy    TOTEN  =       -30.10031889 eV

  energy without entropy =      -30.10031889  energy(sigma->0) =      -30.10031889


--------------------------------------------------------------------------------------------------------




----------------------------------------- Iteration    9(   9)  ---------------------------------------


    POTLOK:  cpu time    0.10: real time    0.10
    SETDIJ:  cpu time    0.01: real time    0.01
     EDDAV:  cpu time    0.76: real time    0.76
 BZINTS: Fermi energy:  0.322793; 60.000000 electrons
         Band energy:-116.682023;  BLOECHL correction: -0.276593
       DOS:  cpu time    0.00: real time    0.00
    --------------------------------------------
      LOOP:  cpu time    0.87: real time    0.89

 eigenvalue-minimisations  :   288
 total energy-change (2. order) : 0.9699597E-06  (-0.2868591E-07)
 number of electron      60.0000013 magnetization 
 augmentation part       25.3995883 magnetization 

 Free energy of the ion-electron system (eV)
  ---------------------------------------------------
  alpha Z        PSCENC =       305.72458370
  Ewald energy   TEWEN  =     12627.67806166
  -1/2 Hartree   DENC   =    -17891.68322687
  -exchange  EXHF       =         0.00000000
  -V(xc)+E(xc)   XCENC  =      -177.94185733
  PAW double counting   =      4154.38121044    -3790.05457770
  entropy T*S    EENTRO =         0.00000000
  eigenvalues    EBANDS =      -116.68202338
  atomic energy  EATOM  =      4858.47751158
  ---------------------------------------------------
  free energy    TOTEN  =       -30.10031792 eV

  energy without entropy =      -30.10031792  energy(sigma->0) =      -30.10031792


--------------------------------------------------------------------------------------------------------




 average (electrostatic) potential at core
  the test charge radii are     1.1199
  (the norm of the test charge is              1.0000)
       1 -50.8741       2 -51.2151       3 -51.1772       4 -51.1775       5 -51.2150
       6 -50.8744
 
 
 
 E-fermi :   0.3228     XC(G=0):  -8.1443     alpha+bet : -6.5480


 k-point   1 :       0.0000    0.0000    0.0000
  band No.  band energies     occupation 
      1      -6.2557      2.00000
      2      -5.6391      2.00000
      3      -4.9169      2.00000
      4      -4.6001      2.00000
      5      -4.3482      2.00000
      6      -4.3447      2.00000
      7      -2.3736      2.00000
      8      -2.3578      2.00000
      9      -2.2793      2.00000
     10      -2.2793      2.00000
     11      -2.2259      2.00000
     12      -2.2259      2.00000
     13      -2.1454      2.00000
     14      -2.1224      2.00000
     15      -2.1224      2.00000
     16      -2.0472      2.00000
     17      -2.0472      2.00000
     18      -1.8918      2.00000
     19      -1.8918      2.00000
     20      -1.8582      2.00000
     21      -1.8582      2.00000
     22      -1.5556      2.00000
     23      -0.8185      2.00000
     24      -0.8185      2.00000
     25      -0.7701      2.00000
     26      -0.7701      2.00000
     27      -0.5696      2.00000
     28      -0.5696      2.00000
     29      -0.2969      2.00000
     30      -0.2294      2.00000
     31      -0.2294      2.00000
     32       0.1105      2.00000
     33       0.1105      2.00000
     34       0.2842      2.00000
     35       0.2842      0.05346
     36       1.2581      0.00000

 k-point   2 :       0.1429    0.0000    0.0000
  band No.  band energies     occupation 
      1      -5.6589      2.00000
      2      -5.0742      2.00000
      3      -4.3823      2.00000
      4      -4.1585      2.00000
      5      -3.8969      2.00000
      6      -3.8381      2.00000
      7      -2.8303      2.00000
      8      -2.6562      2.00000
      9      -2.5897      2.00000
     10      -2.4685      2.00000
     11      -2.3805      2.00000
     12      -2.1876      2.00000
     13      -2.0332      2.00000
     14      -2.0125      2.00000
     15      -1.9797      2.00000
     16      -1.9073      2.00000
     17      -1.9009      2.00000
     18      -1.8062      2.00000
     19      -1.7414      2.00000
     20      -1.7304      2.00000
     21      -1.5530      2.00000
     22      -1.5389      2.00000
     23      -1.4963      2.00000
     24      -1.1122      2.00000
     25      -1.0730      2.00000
     26      -0.9057      2.00000
     27      -0.7660      2.00000
     28      -0.7300      2.00000
     29      -0.5344      2.00000
     30      -0.4301      2.00000
     31      -0.2232      2.00000
     32       0.1222      2.00000
     33       0.2373      2.00791
     34       0.3130      0.84278
     35       1.3011     -0.00747
     36       2.6122      0.00000

 k-point   3 :       0.2857    0.0000    0.0000
  band No.  band energies     occupation 
      1      -4.5108      2.00000
      2      -4.1948      2.00000
      3      -4.0394      2.00000
      4      -3.8718      2.00000
      5      -3.6825      2.00000
      6      -3.5426      2.00000
      7      -3.3473      2.00000
      8      -3.2652      2.00000
      9      -2.9097      2.00000
     10      -2.5278      2.00000
     11      -2.4643      2.00000
     12      -2.1562      2.00000
     13      -2.0806      2.00000
     14      -1.9812      2.00000
     15      -1.9675      2.00000
     16      -1.7010      2.00000
     17      -1.5989      2.00000
     18      -1.3919      2.00000
     19      -1.2212      2.00000
     20      -1.2015      2.00000
     21      -1.0685      2.00000
     22      -0.9393      2.00000
     23      -0.7492      2.00000
     24      -0.7348      2.00000
     25      -0.6246      2.00000
     26      -0.6001      2.00000
     27      -0.4913      2.04318
     28      -0.4176      2.11933
     29      -0.2810      2.23145
     30      -0.1516      2.16761
     31       0.0792      1.28580
     32       0.1356      1.11716
     33       0.3657      0.57339
     34       1.3509     -0.00253
     35       2.8951      0.00000
     36       4.5770      0.00000

 k-point   4 :       0.4286    0.0000    0.0000
  band No.  band energies     occupation 
      1      -4.4840      2.00000
      2      -4.4392      2.00000
      3      -4.2391      2.00000
      4      -4.1685      2.00000
      5      -4.0570      2.00000
      6      -3.8319      2.00000
      7      -3.8080      2.00000
      8      -3.6903      2.00000
      9      -3.2000      2.00000
     10      -2.6648      2.00000
     11      -2.4039      2.00000
     12      -2.3091      2.00000
     13      -2.1801      2.00000
     14      -1.7519      2.00000
     15      -1.7035      2.00000
     16      -1.4030      2.00000
     17      -1.1949      2.00000
     18      -0.9287      2.00000
     19      -0.5814      2.00000
     20      -0.4688      2.00000
     21      -0.1031      2.00000
     22      -0.0723      2.00000
     23       0.1881      2.00000
     24       0.1923      2.00000
     25       0.2485      2.00000
     26       0.2724      2.00000
     27       0.3471      1.47352
     28       0.4148      0.71491
     29       0.4674      0.21655
     30       0.5170      0.12451
     31       1.1362     -0.02651
     32       1.8472     -0.02873
     33       2.2140      0.00000
     34       3.0413      0.00000
     35       4.4044      0.00000
     36       5.6952      0.00000

 k-point   5 :       0.2857    0.1429    0.0000
  band No.  band energies     occupation 
      1      -4.6681      2.00000
      2      -4.2490      2.00000
      3      -3.7355      2.00000
      4      -3.5284      2.00000
      5      -3.4111      2.00000
      6      -3.2774      2.00000
      7      -3.1453      2.00000
      8      -3.1078      2.00000
      9      -2.9392      2.00000
     10      -2.8428      2.00000
     11      -2.5792      2.00000
     12      -2.5032      2.00000
     13      -2.3983      2.00000
     14      -2.2833      2.00000
     15      -2.1140      2.00000
     16      -2.0185      2.00000
     17      -1.9556      2.00000
     18      -1.7220      2.00000
     19      -1.5568      2.00000
     20      -1.3801      2.00000
     21      -1.2566      2.00000
     22      -1.1332      2.00000
     23      -1.1209      2.00000
     24      -0.8681      2.00000
     25      -0.7856      2.00000
     26      -0.5755      2.00000
     27      -0.5150      2.00000
     28      -0.4549      2.00000
     29      -0.2600      2.00000
     30      -0.2286      2.13908
     31      -0.0518      1.63945
     32       0.1341      1.42015
     33       0.1595      1.34351
     34       1.1560     -0.15036
     35       2.5121      0.00000
     36       4.0764      0.00000

 k-point   6 :       0.4286    0.1429    0.0000
  band No.  band energies     occupation 
      1      -4.0615      2.00000
      2      -4.0271      2.00000
      3      -3.8331      2.00000
      4      -3.6896      2.00000
      5      -3.6526      2.00000
      6      -3.5083      2.00000
      7      -3.3973      2.00000
      8      -3.1444      2.00000
      9      -3.0519      2.00000
     10      -2.7974      2.00000
     11      -2.4502      2.00000
     12      -2.4140      2.00000
     13      -2.2879      2.00000
     14      -2.0054      2.00000
     15      -1.9499      2.00000
     16      -1.8605      2.00000
     17      -1.5770      2.00000
     18      -1.4595      2.00000
     19      -1.3425      2.00000
     20      -1.2039      2.00000
     21      -0.9989      2.00000
     22      -0.7700      2.00000
     23      -0.7312      2.00000
     24      -0.5451      2.00000
     25      -0.2770      2.00000
     26      -0.2544      2.00000
     27       0.1894      2.00817
     28       0.2098      1.99225
     29       0.3099      1.52269
     30       0.4431      0.48440
     31       1.3136     -0.11536
     32       1.4934     -0.13869
     33       1.9093     -0.12043
     34       2.9487      0.00000
     35       4.4222      0.00000
     36       6.1054      0.00000

 k-point   7 :      -0.4286    0.1429    0.0000
  band No.  band energies     occupation 
      1      -4.2918      2.00000
      2      -4.1434      2.00000
      3      -4.0234      2.00000
      4      -3.8970      2.00000
      5      -3.7399      2.00000
      6      -3.6905      2.00000
      7      -3.5190      2.00000
      8      -3.3545      2.00000
      9      -3.1399      2.00000
     10      -2.8352      2.00000
     11      -2.6975      2.00000
     12      -2.1953      2.00000
     13      -2.1591      2.00000
     14      -2.0199      2.00000
     15      -1.8255      2.00000
     16      -1.6441      2.00000
     17      -1.3351      2.00000
     18      -1.0977      2.00000
     19      -1.0445      2.00000
     20      -0.6434      2.00000
     21      -0.5546      2.00000
     22      -0.5033      2.00000
     23      -0.2208      2.00000
     24      -0.0608      2.00000
     25       0.0929      2.00000
     26       0.1014      2.00000
     27       0.1799      2.14380
     28       0.2145      1.96229
     29       0.3766      0.02685
     30       0.4823      0.00000
     31       3.4670      0.00000
     32       3.9951      0.00000
     33       4.4478      0.00000
     34       4.7825      0.00000
     35       5.0514      0.00000
     36       5.2046      0.00000

 k-point   8 :      -0.4286    0.2857    0.0000
  band No.  band energies     occupation 
      1      -3.7915      2.00000
      2      -3.7856      2.00000
      3      -3.5670      2.00000
      4      -3.3946      2.00000
      5      -3.3179      2.00000
      6      -3.1798      2.00000
      7      -3.1659      2.00000
      8      -3.0165      2.00000
      9      -3.0094      2.00000
     10      -2.7621      2.00000
     11      -2.7516      2.00000
     12      -2.4379      2.00000
     13      -2.3861      2.00000
     14      -2.1843      2.00000
     15      -2.0198      2.00000
     16      -1.7935      2.00000
     17      -1.7450      2.00000
     18      -1.6167      2.00000
     19      -1.5874      2.00000
     20      -1.1697      2.00000
     21      -1.0835      2.00000
     22      -0.8914      2.00000
     23      -0.7459      2.00000
     24      -0.6882      2.00000
     25      -0.3463      2.00000
     26      -0.0875      2.00000
     27       0.1648      2.00000
     28       0.2416      2.00000
     29       0.2755      2.01403
     30       0.4324      0.00000
     31       4.1121      0.00000
     32       4.4984      0.00000
     33       5.1309      0.00000
     34       6.0578      0.00000
     35       7.1867      0.00000
     36       7.8573      0.00000


--------------------------------------------------------------------------------------------------------


 soft charge-density along one line, spin component           1
         0         1         2         3         4         5         6         7         8         9
 total charge-density along one line
 
 pseudopotential strength for first ion, spin component:           1
-11.401   0.000   0.000   0.000   0.000   0.000  -0.011   0.000   0.000   0.000   0.110   0.000   0.000   0.000   0.000   0.000
  0.000   0.000 -11.288   0.000   0.000   0.000   0.000   0.000  -0.011   0.000   0.000   0.000   0.092   0.000   0.000   0.000
  0.000   0.000   0.000   0.000 -11.269   0.000   0.000   0.000   0.000   0.000   0.000   0.000   0.000   0.000   0.089   0.000
 -0.011   0.000   0.000   0.000   0.000   0.000 -11.288   0.000   0.000   0.000   0.002   0.000   0.000   0.000   0.000   0.000
  0.000   0.000  -0.011   0.000   0.000   0.000   0.000   0.000 -11.401   0.000   0.000   0.000   0.002   0.000   0.000   0.000
  0.110   0.000   0.000   0.000   0.000   0.000   0.002   0.000   0.000   0.000   0.323   0.000   0.000   0.000   0.000   0.000
  0.000   0.000   0.092   0.000   0.000   0.000   0.000   0.000   0.002   0.000   0.000   0.000   0.326   0.000   0.000   0.000
  0.000   0.000   0.000   0.000   0.089   0.000   0.000   0.000   0.000   0.000   0.000   0.000   0.000   0.000   0.327   0.000
  0.002   0.000   0.000   0.000   0.000   0.000   0.092   0.000   0.000   0.000   0.000   0.000   0.000   0.000   0.000   0.000
  0.000   0.000   0.002   0.000   0.000   0.000   0.000   0.000   0.110   0.000   0.000   0.000   0.000   0.000   0.000   0.000
  0.000   0.000   0.000   0.000  -0.029   0.000   0.000   0.000   0.000   0.000   0.000   0.000   0.000   0.000   0.004   0.000
  0.000   0.000   0.000   0.000   0.003   0.000   0.000   0.000   0.000   0.000   0.000   0.000   0.000   0.000   0.000   0.000
  0.000   0.000  -0.011   0.000   0.000   0.000   0.000   0.000   0.000   0.000   0.000   0.000   0.002   0.000   0.000   0.000
  0.000   0.000   0.000   0.000  -0.012   0.000   0.000   0.000   0.000   0.000   0.000   0.000   0.000   0.000   0.002   0.000
  0.000   0.000   0.000   0.000   0.000   0.000  -0.011   0.000   0.000   0.000   0.000   0.000   0.000   0.000   0.000   0.000
  0.000   0.000   0.010   0.000   0.000   0.000   0.000   0.000   0.000   0.000   0.000   0.000  -0.002   0.000   0.000   0.000
  0.000   0.000   0.000   0.000   0.010   0.000   0.000   0.000   0.000   0.000   0.000   0.000   0.000   0.000  -0.002   0.000
  0.000   0.000   0.000   0.000   0.000   0.000   0.010   0.000   0.000   0.000   0.000   0.000   0.000   0.000   0.000   0.000
 total augmentation occupancy for first ion, spin component:           1
  1.724   0.000   0.000  -0.041   0.000   0.132   0.000   0.000   0.021   0.000   0.000   0.000   0.000   0.000   0.003   0.000
  0.000   1.855   0.000   0.000  -0.041   0.000   0.051   0.000   0.000   0.022   0.000   0.000  -0.015   0.000   0.000  -0.015
  0.000   0.000   1.833   0.000   0.000   0.000   0.000   0.078   0.000   0.000   0.016  -0.064   0.000   0.025   0.000   0.000
 -0.041   0.000   0.000   1.855   0.000   0.022   0.000   0.000   0.051   0.000   0.000   0.000   0.000   0.000  -0.015   0.000
  0.000  -0.041   0.000   0.000   1.724   0.000   0.021   0.000   0.000   0.132   0.000   0.000   0.003   0.000   0.000   0.001
  0.132   0.000   0.000   0.022   0.000   0.113   0.000   0.000   0.003   0.000   0.000   0.000   0.000   0.000   0.006   0.000
  0.000   0.051   0.000   0.000   0.021   0.000   0.089   0.000   0.000   0.003   0.000   0.000   0.033   0.000   0.000  -0.001
  0.000   0.000   0.078   0.000   0.000   0.000   0.000   0.117   0.000   0.000  -0.113   0.029   0.000   0.045   0.000   0.000
  0.021   0.000   0.000   0.051   0.000   0.003   0.000   0.000   0.089   0.000   0.000   0.000   0.000   0.000   0.033   0.000
  0.000   0.022   0.000   0.000   0.132   0.000   0.003   0.000   0.000   0.113   0.000   0.000   0.006   0.000   0.000   0.000
  0.000   0.000   0.016   0.000   0.000   0.000   0.000  -0.113   0.000   0.000   0.999  -0.326   0.000   0.072   0.000   0.000
  0.000   0.000  -0.064   0.000   0.000   0.000   0.000   0.029   0.000   0.000  -0.326   0.121   0.000  -0.039   0.000   0.000
  0.000  -0.015   0.000   0.000   0.003   0.000   0.033   0.000   0.000   0.006   0.000   0.000   0.110   0.000   0.000  -0.002
  0.000   0.000   0.025   0.000   0.000   0.000   0.000   0.045   0.000   0.000   0.072  -0.039   0.000   0.062   0.000   0.000
  0.003   0.000   0.000  -0.015   0.000   0.006   0.000   0.000   0.033   0.000   0.000   0.000   0.000   0.000   0.110   0.000
  0.000  -0.015   0.000   0.000   0.001   0.000  -0.001   0.000   0.000   0.000   0.000   0.000  -0.002   0.000   0.000   0.000
  0.000   0.000  -0.020   0.000   0.000   0.000   0.000  -0.001   0.000   0.000  -0.004   0.002   0.000  -0.001   0.000   0.000
  0.001   0.000   0.000  -0.015   0.000   0.000   0.000   0.000  -0.001   0.000   0.000   0.000   0.000   0.000  -0.002   0.000


------------------------ aborting loop because EDIFF is reached ----------------------------------------


    CHARGE:  cpu time    0.09: real time    0.09
    FORLOC:  cpu time    0.01: real time    0.01
    FORNL :  cpu time    0.46: real time    0.46
    STRESS:  cpu time    0.79: real time    0.79
    FORCOR:  cpu time    0.11: real time    0.11
    FORHAR:  cpu time    0.03: real time    0.03
    MIXING:  cpu time    0.01: real time    0.01

  FORCE on cell =-STRESS in cart. coord.  units (eV):
  Direction    XX          YY          ZZ          XY          YZ          ZX
  --------------------------------------------------------------------------------------
  Alpha Z   305.72458   305.72458   305.72458
  Ewald   15954.07284 15954.07284-19280.46771     0.00000     0.00000     0.00000
  Hartree 17406.12737 17406.12737-16920.47077     0.00000     0.00000     0.00000
  E(xc)    -313.69367  -313.69368  -314.85300     0.00001     0.00000     0.00000
  Local  -34103.28284-34103.28312 35450.18794     0.00024     0.00000     0.00000
  n-local  -332.65745  -308.67927  -323.24853     5.24646    -3.07693     1.50576
  augment   256.60998   256.61023   260.08103    -0.00022     0.00000     0.00000
  Kinetic   802.69912   823.41112   822.54964     5.30103     2.98783    -0.72517
  Fock        0.00000     0.00000     0.00000     0.00000     0.00000     0.00000
  -------------------------------------------------------------------------------------
  Total      -2.05499    -2.05499    -0.49680     0.00000     0.00000     0.00000
  in kB     -20.53710   -20.53710    -4.96491     0.00000     0.00000     0.00000
  external pressure =      -15.35 kB  Pullay stress =        0.00 kB


 VOLUME and BASIS-vectors are now :
 -----------------------------------------------------------------------------
  energy-cutoff  :      415.00
  volume of cell :      160.32
      direct lattice vectors                 reciprocal lattice vectors
     2.795185513  0.000000000  0.000000000     0.357758008 -0.206551682  0.000000000
     1.397592758  2.420701664  0.000000000     0.000000000  0.413103364  0.000000000
     0.000000000  0.000000000 23.693556493     0.000000000  0.000000000  0.042205568

  length of vectors
     2.795185513  2.795185515 23.693556493     0.413103364  0.413103364  0.042205568


 FORCES acting on ions
    electron-ion (+dipol)            ewald-force                    non-local-force                 convergence-correction
 -----------------------------------------------------------------------------------------------
   -.532E-07 -.246E-08 0.282E+04   0.255E-07 -.241E-07 -.281E+04   0.165E-16 0.867E-18 -.125E+01   -.243E-10 -.143E-10 -.175E-01
   0.181E-06 0.104E-06 -.568E+03   -.459E-09 0.435E-09 0.568E+03   0.000E+00 -.173E-17 -.307E-01   -.270E-09 -.156E-09 0.120E-01
   0.619E-06 0.358E-06 0.170E+04   0.102E-08 -.100E-09 -.170E+04   0.217E-18 0.000E+00 -.472E-01   0.392E-10 0.211E-10 -.189E-01
   0.763E-06 0.440E-06 -.170E+04   0.103E-09 0.746E-09 0.170E+04   -.434E-18 0.000E+00 0.472E-01   -.449E-10 -.244E-10 0.189E-01
   -.667E-06 -.385E-06 0.568E+03   -.108E-09 -.762E-09 -.568E+03   -.434E-18 0.173E-17 0.307E-01   0.263E-09 0.152E-09 -.120E-01
   -.245E-06 -.170E-06 -.282E+04   -.261E-07 0.238E-07 0.281E+04   -.954E-17 0.000E+00 0.125E+01   0.184E-10 0.110E-10 0.176E-01
 -----------------------------------------------------------------------------------------------
   0.598E-06 0.345E-06 -.144E-02   0.166E-12 -.707E-13 0.455E-12   0.629E-17 0.867E-18 0.000E+00   -.187E-10 -.108E-10 -.140E-04
 
 
 POSITION                                       TOTAL-FORCE (eV/Angst)
 -----------------------------------------------------------------------------------
      0.00000      0.00000      0.00344         0.000000      0.000000      0.023478
      0.00000      0.00000      6.84085         0.000000      0.000000      0.015032
      1.39759      0.80690      2.29206         0.000000      0.000000      0.007945
      1.39759      0.80690      9.11923         0.000000      0.000000     -0.007945
      2.79519      1.61380      4.57045         0.000000      0.000000     -0.015032
      2.79519      1.61380     11.40785         0.000000      0.000000     -0.023478
 -----------------------------------------------------------------------------------
    total drift:                                0.000001      0.000000     -0.001450


--------------------------------------------------------------------------------------------------------



  FREE ENERGIE OF THE ION-ELECTRON SYSTEM (eV)
  ---------------------------------------------------
  free  energy   TOTEN  =       -30.10031792 eV

  energy  without entropy=      -30.10031792  energy(sigma->0) =      -30.10031792
 
 d Force = 0.1675776E-03[ 0.947E-04, 0.240E-03]  d Energy =-0.3784843E-03 0.546E-03
 d Force =-0.2502852E+02[-0.250E+02,-0.250E+02]  d Ewald  =-0.2502852E+02 0.620E-06


--------------------------------------------------------------------------------------------------------


    POTLOK:  cpu time    0.11: real time    0.11


--------------------------------------------------------------------------------------------------------




--------------------------------------------------------------------------------------------------------


    WAVPRE:  cpu time    0.03: real time    0.03
 FEWALD executed in parallel
    FEWALD:  cpu time    0.00: real time    0.00
    ORTHCH:  cpu time    0.10: real time    0.10
     LOOP+:  cpu time   15.79: real time   16.02


----------------------------------------- Iteration   10(   1)  ---------------------------------------


    POTLOK:  cpu time    0.11: real time    0.11
    SETDIJ:  cpu time    0.01: real time    0.01
     EDDAV:  cpu time    1.19: real time    1.20
 BZINTS: Fermi energy:  0.323764; 60.000000 electrons
         Band energy:-116.811414;  BLOECHL correction: -0.274892
       DOS:  cpu time    0.00: real time    0.00
    CHARGE:  cpu time    0.09: real time    0.09
    MIXING:  cpu time    0.00: real time    0.00
    --------------------------------------------
      LOOP:  cpu time    1.41: real time    1.42

 eigenvalue-minimisations  :   576
 total energy-change (2. order) : 0.3312836E-02  (-0.8331662E-01)
 number of electron      60.0000014 magnetization 
 augmentation part       25.3974012 magnetization 

 Broyden mixing:
  rms(total) = 0.11494E-01    rms(broyden)= 0.11484E-01
  rms(prec ) = 0.13503E-01
  weight for this iteration     100.00

 Free energy of the ion-electron system (eV)
  ---------------------------------------------------
  alpha Z        PSCENC =       305.72458370
  Ewald energy   TEWEN  =     12677.80248414
  -1/2 Hartree   DENC   =    -17941.69339641
  -exchange  EXHF       =         0.00000000
  -V(xc)+E(xc)   XCENC  =      -177.92339411
  PAW double counting   =      4154.38271531    -3790.05609625
  entropy T*S    EENTRO =         0.00000000
  eigenvalues    EBANDS =      -116.81141400
  atomic energy  EATOM  =      4858.47751158
  ---------------------------------------------------
  free energy    TOTEN  =       -30.09700605 eV

  energy without entropy =      -30.09700605  energy(sigma->0) =      -30.09700605


--------------------------------------------------------------------------------------------------------




----------------------------------------- Iteration   10(   2)  ---------------------------------------


    POTLOK:  cpu time    0.10: real time    0.10
    SETDIJ:  cpu time    0.01: real time    0.01
     EDDAV:  cpu time    1.64: real time    1.65
 BZINTS: Fermi energy:  0.338265; 60.000000 electrons
         Band energy:-116.000037;  BLOECHL correction: -0.274000
       DOS:  cpu time    0.00: real time    0.00
    CHARGE:  cpu time    0.10: real time    0.10
    MIXING:  cpu time    0.00: real time    0.00
    --------------------------------------------
      LOOP:  cpu time    1.86: real time    1.88

 eigenvalue-minimisations  :   868
 total energy-change (2. order) :-0.4393000E-02  (-0.4455790E-02)
 number of electron      60.0000014 magnetization 
 augmentation part       25.3961058 magnetization 

 Broyden mixing:
  rms(total) = 0.55924E-01    rms(broyden)= 0.55918E-01
  rms(prec ) = 0.87075E-01
  weight for this iteration     100.00

 eigenvalues of (default mixing * dielectric matrix)
  average eigenvalue GAMMA=   0.1191
  0.1191

 Free energy of the ion-electron system (eV)
  ---------------------------------------------------
  alpha Z        PSCENC =       305.72458370
  Ewald energy   TEWEN  =     12677.80248414
  -1/2 Hartree   DENC   =    -17942.49349965
  -exchange  EXHF       =         0.00000000
  -V(xc)+E(xc)   XCENC  =      -177.92616937
  PAW double counting   =      4154.53737938    -3790.22365232
  entropy T*S    EENTRO =         0.00000000
  eigenvalues    EBANDS =      -116.00003651
  atomic energy  EATOM  =      4858.47751158
  ---------------------------------------------------
  free energy    TOTEN  =       -30.10139905 eV

  energy without entropy =      -30.10139905  energy(sigma->0) =      -30.10139905


--------------------------------------------------------------------------------------------------------




----------------------------------------- Iteration   10(   3)  ---------------------------------------


    POTLOK:  cpu time    0.10: real time    0.10
    SETDIJ:  cpu time    0.01: real time    0.01
     EDDAV:  cpu time    1.44: real time    1.44
 BZINTS: Fermi energy:  0.324395; 60.000000 electrons
         Band energy:-116.785595;  BLOECHL correction: -0.275632
       DOS:  cpu time    0.00: real time    0.00
    CHARGE:  cpu time    0.09: real time    0.09
    MIXING:  cpu time    0.00: real time    0.00
    --------------------------------------------
      LOOP:  cpu time    1.65: real time    1.66

 eigenvalue-minimisations  :   736
 total energy-change (2. order) : 0.1354007E-02  (-0.2585507E-02)
 number of electron      60.0000014 magnetization 
 augmentation part       25.3993817 magnetization 

 Broyden mixing:
  rms(total) = 0.18156E-01    rms(broyden)= 0.18135E-01
  rms(prec ) = 0.23314E-01
  weight for this iteration     100.00

 eigenvalues of (default mixing * dielectric matrix)
  average eigenvalue GAMMA=   0.2525
  0.4237  0.0812

 Free energy of the ion-electron system (eV)
  ---------------------------------------------------
  alpha Z        PSCENC =       305.72458370
  Ewald energy   TEWEN  =     12677.80248414
  -1/2 Hartree   DENC   =    -17941.70613760
  -exchange  EXHF       =         0.00000000
  -V(xc)+E(xc)   XCENC  =      -177.92572058
  PAW double counting   =      4154.52919466    -3790.21636579
  entropy T*S    EENTRO =         0.00000000
  eigenvalues    EBANDS =      -116.78559515
  atomic energy  EATOM  =      4858.47751158
  ---------------------------------------------------
  free energy    TOTEN  =       -30.10004505 eV

  energy without entropy =      -30.10004505  energy(sigma->0) =      -30.10004505


--------------------------------------------------------------------------------------------------------




----------------------------------------- Iteration   10(   4)  ---------------------------------------


    POTLOK:  cpu time    0.10: real time    0.10
    SETDIJ:  cpu time    0.01: real time    0.01
     EDDAV:  cpu time    1.59: real time    1.60
 BZINTS: Fermi energy:  0.323247; 60.000000 electrons
         Band energy:-116.796023;  BLOECHL correction: -0.274956
       DOS:  cpu time    0.00: real time    0.00
    CHARGE:  cpu time    0.10: real time    0.10
    MIXING:  cpu time    0.00: real time    0.00
    --------------------------------------------
      LOOP:  cpu time    1.81: real time    1.82

 eigenvalue-minimisations  :   820
 total energy-change (2. order) : 0.1006875E-02  (-0.3434822E-03)
 number of electron      60.0000014 magnetization 
 augmentation part       25.3989847 magnetization 

 Broyden mixing:
  rms(total) = 0.13445E-01    rms(broyden)= 0.13441E-01
  rms(prec ) = 0.15551E-01
  weight for this iteration     100.00

 eigenvalues of (default mixing * dielectric matrix)
  average eigenvalue GAMMA=   0.2156
  0.3880  0.1787  0.0801

 Free energy of the ion-electron system (eV)
  ---------------------------------------------------
  alpha Z        PSCENC =       305.72458370
  Ewald energy   TEWEN  =     12677.80248414
  -1/2 Hartree   DENC   =    -17941.69358372
  -exchange  EXHF       =         0.00000000
  -V(xc)+E(xc)   XCENC  =      -177.92529972
  PAW double counting   =      4154.58816342    -3790.27687428
  entropy T*S    EENTRO =         0.00000000
  eigenvalues    EBANDS =      -116.79602328
  atomic energy  EATOM  =      4858.47751158
  ---------------------------------------------------
  free energy    TOTEN  =       -30.09903817 eV

  energy without entropy =      -30.09903817  energy(sigma->0) =      -30.09903817


--------------------------------------------------------------------------------------------------------




----------------------------------------- Iteration   10(   5)  ---------------------------------------


    POTLOK:  cpu time    0.10: real time    0.11
    SETDIJ:  cpu time    0.01: real time    0.01
     EDDAV:  cpu time    1.62: real time    1.63
 BZINTS: Fermi energy:  0.324621; 60.000000 electrons
         Band energy:-116.761019;  BLOECHL correction: -0.275248
       DOS:  cpu time    0.00: real time    0.00
    CHARGE:  cpu time    0.09: real time    0.09
    MIXING:  cpu time    0.01: real time    0.01
    --------------------------------------------
      LOOP:  cpu time    1.84: real time    1.87

 eigenvalue-minimisations  :   832
 total energy-change (2. order) :-0.2654786E-03  (-0.8501507E-04)
 number of electron      60.0000014 magnetization 
 augmentation part       25.3990443 magnetization 

 Broyden mixing:
  rms(total) = 0.68025E-02    rms(broyden)= 0.68006E-02
  rms(prec ) = 0.72856E-02
  weight for this iteration     100.00

 eigenvalues of (default mixing * dielectric matrix)
  average eigenvalue GAMMA=   0.7144
  1.6956  0.9226  0.0805  0.1591

 Free energy of the ion-electron system (eV)
  ---------------------------------------------------
  alpha Z        PSCENC =       305.72458370
  Ewald energy   TEWEN  =     12677.80248414
  -1/2 Hartree   DENC   =    -17941.72793715
  -exchange  EXHF       =         0.00000000
  -V(xc)+E(xc)   XCENC  =      -177.92539962
  PAW double counting   =      4154.61006921    -3790.29959651
  entropy T*S    EENTRO =         0.00000000
  eigenvalues    EBANDS =      -116.76101899
  atomic energy  EATOM  =      4858.47751158
  ---------------------------------------------------
  free energy    TOTEN  =       -30.09930365 eV

  energy without entropy =      -30.09930365  energy(sigma->0) =      -30.09930365


--------------------------------------------------------------------------------------------------------




----------------------------------------- Iteration   10(   6)  ---------------------------------------


    POTLOK:  cpu time    0.10: real time    0.10
    SETDIJ:  cpu time    0.01: real time    0.01
     EDDAV:  cpu time    1.64: real time    1.64
 BZINTS: Fermi energy:  0.324682; 60.000000 electrons
         Band energy:-116.764563;  BLOECHL correction: -0.275214
       DOS:  cpu time    0.00: real time    0.00
    CHARGE:  cpu time    0.10: real time    0.09
    MIXING:  cpu time    0.00: real time    0.01
    --------------------------------------------
      LOOP:  cpu time    1.85: real time    1.87

 eigenvalue-minimisations  :   844
 total energy-change (2. order) : 0.1236731E-03  (-0.3967790E-04)
 number of electron      60.0000014 magnetization 
 augmentation part       25.3984925 magnetization 

 Broyden mixing:
  rms(total) = 0.44259E-02    rms(broyden)= 0.44255E-02
  rms(prec ) = 0.63142E-02
  weight for this iteration     100.00

 eigenvalues of (default mixing * dielectric matrix)
  average eigenvalue GAMMA=   0.8335
  2.2512  0.8379  0.8379  0.0804  0.1602

 Free energy of the ion-electron system (eV)
  ---------------------------------------------------
  alpha Z        PSCENC =       305.72458370
  Ewald energy   TEWEN  =     12677.80248414
  -1/2 Hartree   DENC   =    -17941.71925445
  -exchange  EXHF       =         0.00000000
  -V(xc)+E(xc)   XCENC  =      -177.92478434
  PAW double counting   =      4154.78831700    -3790.48347410
  entropy T*S    EENTRO =         0.00000000
  eigenvalues    EBANDS =      -116.76456349
  atomic energy  EATOM  =      4858.47751158
  ---------------------------------------------------
  free energy    TOTEN  =       -30.09917998 eV

  energy without entropy =      -30.09917998  energy(sigma->0) =      -30.09917998


--------------------------------------------------------------------------------------------------------




----------------------------------------- Iteration   10(   7)  ---------------------------------------


    POTLOK:  cpu time    0.10: real time    0.11
    SETDIJ:  cpu time    0.01: real time    0.01
     EDDAV:  cpu time    1.68: real time    1.68
 BZINTS: Fermi energy:  0.324058; 60.000000 electrons
         Band energy:-116.800630;  BLOECHL correction: -0.275281
       DOS:  cpu time    0.00: real time    0.00
    CHARGE:  cpu time    0.10: real time    0.09
    MIXING:  cpu time    0.00: real time    0.01
    --------------------------------------------
      LOOP:  cpu time    1.90: real time    1.92

 eigenvalue-minimisations  :   876
 total energy-change (2. order) :-0.3220389E-04  (-0.1548474E-04)
 number of electron      60.0000014 magnetization 
 augmentation part       25.3986319 magnetization 

 Broyden mixing:
  rms(total) = 0.59673E-03    rms(broyden)= 0.59415E-03
  rms(prec ) = 0.65376E-03
  weight for this iteration     100.00

 eigenvalues of (default mixing * dielectric matrix)
  average eigenvalue GAMMA=   0.9010
  2.3754  1.0010  1.0010  0.7882  0.0804  0.1601

 Free energy of the ion-electron system (eV)
  ---------------------------------------------------
  alpha Z        PSCENC =       305.72458370
  Ewald energy   TEWEN  =     12677.80248414
  -1/2 Hartree   DENC   =    -17941.67792067
  -exchange  EXHF       =         0.00000000
  -V(xc)+E(xc)   XCENC  =      -177.92488991
  PAW double counting   =      4154.89669946    -3790.59705038
  entropy T*S    EENTRO =         0.00000000
  eigenvalues    EBANDS =      -116.80063009
  atomic energy  EATOM  =      4858.47751158
  ---------------------------------------------------
  free energy    TOTEN  =       -30.09921218 eV

  energy without entropy =      -30.09921218  energy(sigma->0) =      -30.09921218


--------------------------------------------------------------------------------------------------------




----------------------------------------- Iteration   10(   8)  ---------------------------------------


    POTLOK:  cpu time    0.10: real time    0.10
    SETDIJ:  cpu time    0.01: real time    0.01
     EDDAV:  cpu time    0.96: real time    0.97
 BZINTS: Fermi energy:  0.323700; 60.000000 electrons
         Band energy:-116.820385;  BLOECHL correction: -0.275268
       DOS:  cpu time    0.00: real time    0.00
    CHARGE:  cpu time    0.10: real time    0.09
    MIXING:  cpu time    0.00: real time    0.01
    --------------------------------------------
      LOOP:  cpu time    1.18: real time    1.20

 eigenvalue-minimisations  :   396
 total energy-change (2. order) : 0.1577521E-04  (-0.3046326E-06)
 number of electron      60.0000014 magnetization 
 augmentation part       25.3987731 magnetization 

 Broyden mixing:
  rms(total) = 0.52382E-03    rms(broyden)= 0.52371E-03
  rms(prec ) = 0.56614E-03
  weight for this iteration     100.00

 eigenvalues of (default mixing * dielectric matrix)
  average eigenvalue GAMMA=   0.9662
  2.3517  1.2453  1.2453  0.8404  0.8404  0.0804  0.1601

 Free energy of the ion-electron system (eV)
  ---------------------------------------------------
  alpha Z        PSCENC =       305.72458370
  Ewald energy   TEWEN  =     12677.80248414
  -1/2 Hartree   DENC   =    -17941.65739232
  -exchange  EXHF       =         0.00000000
  -V(xc)+E(xc)   XCENC  =      -177.92501586
  PAW double counting   =      4154.90671533    -3790.60769780
  entropy T*S    EENTRO =         0.00000000
  eigenvalues    EBANDS =      -116.82038516
  atomic energy  EATOM  =      4858.47751158
  ---------------------------------------------------
  free energy    TOTEN  =       -30.09919640 eV

  energy without entropy =      -30.09919640  energy(sigma->0) =      -30.09919640


--------------------------------------------------------------------------------------------------------




----------------------------------------- Iteration   10(   9)  ---------------------------------------


    POTLOK:  cpu time    0.10: real time    0.10
    SETDIJ:  cpu time    0.01: real time    0.01
     EDDAV:  cpu time    0.82: real time    0.82
 BZINTS: Fermi energy:  0.323614; 60.000000 electrons
         Band energy:-116.825448;  BLOECHL correction: -0.275267
       DOS:  cpu time    0.00: real time    0.00
    CHARGE:  cpu time    0.09: real time    0.09
    MIXING:  cpu time    0.01: real time    0.01
    --------------------------------------------
      LOOP:  cpu time    1.04: real time    1.06

 eigenvalue-minimisations  :   288
 total energy-change (2. order) : 0.2251432E-05  (-0.1367865E-06)
 number of electron      60.0000014 magnetization 
 augmentation part       25.3987636 magnetization 

 Broyden mixing:
  rms(total) = 0.27395E-03    rms(broyden)= 0.27391E-03
  rms(prec ) = 0.34088E-03
  weight for this iteration     100.00

 eigenvalues of (default mixing * dielectric matrix)
  average eigenvalue GAMMA=   0.9765
  2.3756  1.3607  1.3607  0.0804  0.1601  0.8656  0.8656  0.7432

 Free energy of the ion-electron system (eV)
  ---------------------------------------------------
  alpha Z        PSCENC =       305.72458370
  Ewald energy   TEWEN  =     12677.80248414
  -1/2 Hartree   DENC   =    -17941.65217577
  -exchange  EXHF       =         0.00000000
  -V(xc)+E(xc)   XCENC  =      -177.92508244
  PAW double counting   =      4154.91261219    -3790.61367945
  entropy T*S    EENTRO =         0.00000000
  eigenvalues    EBANDS =      -116.82544809
  atomic energy  EATOM  =      4858.47751158
  ---------------------------------------------------
  free energy    TOTEN  =       -30.09919415 eV

  energy without entropy =      -30.09919415  energy(sigma->0) =      -30.09919415


--------------------------------------------------------------------------------------------------------




----------------------------------------- Iteration   10(  10)  ---------------------------------------


    POTLOK:  cpu time    0.10: real time    0.11
    SETDIJ:  cpu time    0.01: real time    0.01
     EDDAV:  cpu time    0.80: real time    0.81
 BZINTS: Fermi energy:  0.323592; 60.000000 electrons
         Band energy:-116.826598;  BLOECHL correction: -0.275267
       DOS:  cpu time    0.00: real time    0.00
    --------------------------------------------
      LOOP:  cpu time    0.93: real time    0.94

 eigenvalue-minimisations  :   296
 total energy-change (2. order) :-0.1639110E-06  (-0.9737276E-07)
 number of electron      60.0000014 magnetization 
 augmentation part       25.3987636 magnetization 

 Free energy of the ion-electron system (eV)
  ---------------------------------------------------
  alpha Z        PSCENC =       305.72458370
  Ewald energy   TEWEN  =     12677.80248414
  -1/2 Hartree   DENC   =    -17941.65096758
  -exchange  EXHF       =         0.00000000
  -V(xc)+E(xc)   XCENC  =      -177.92513068
  PAW double counting   =      4154.91528365    -3790.61636083
  entropy T*S    EENTRO =         0.00000000
  eigenvalues    EBANDS =      -116.82659829
  atomic energy  EATOM  =      4858.47751158
  ---------------------------------------------------
  free energy    TOTEN  =       -30.09919432 eV

  energy without entropy =      -30.09919432  energy(sigma->0) =      -30.09919432


--------------------------------------------------------------------------------------------------------




 average (electrostatic) potential at core
  the test charge radii are     1.1199
  (the norm of the test charge is              1.0000)
       1 -50.8746       2 -51.2191       3 -51.1769       4 -51.1772       5 -51.2190
       6 -50.8749
 
 
 
 E-fermi :   0.3236     XC(G=0):  -8.1372     alpha+bet : -6.5480


 k-point   1 :       0.0000    0.0000    0.0000
  band No.  band energies     occupation 
      1      -6.2634      2.00000
      2      -5.6400      2.00000
      3      -4.9218      2.00000
      4      -4.6083      2.00000
      5      -4.3495      2.00000
      6      -4.3460      2.00000
      7      -2.3694      2.00000
      8      -2.3600      2.00000
      9      -2.2851      2.00000
     10      -2.2851      2.00000
     11      -2.2340      2.00000
     12      -2.2340      2.00000
     13      -2.1432      2.00000
     14      -2.1225      2.00000
     15      -2.1225      2.00000
     16      -2.0484      2.00000
     17      -2.0484      2.00000
     18      -1.8937      2.00000
     19      -1.8937      2.00000
     20      -1.8597      2.00000
     21      -1.8597      2.00000
     22      -1.5561      2.00000
     23      -0.8221      2.00000
     24      -0.8221      2.00000
     25      -0.7704      2.00000
     26      -0.7704      2.00000
     27      -0.5743      2.00000
     28      -0.5743      2.00000
     29      -0.2929      2.00000
     30      -0.2287      2.00000
     31      -0.2287      2.00000
     32       0.1107      2.00000
     33       0.1107      2.00000
     34       0.2864      2.00000
     35       0.2864      0.05117
     36       1.2606      0.00000

 k-point   2 :       0.1429    0.0000    0.0000
  band No.  band energies     occupation 
      1      -5.6667      2.00000
      2      -5.0754      2.00000
      3      -4.3875      2.00000
      4      -4.1668      2.00000
      5      -3.8984      2.00000
      6      -3.8401      2.00000
      7      -2.8347      2.00000
      8      -2.6618      2.00000
      9      -2.5954      2.00000
     10      -2.4704      2.00000
     11      -2.3812      2.00000
     12      -2.1879      2.00000
     13      -2.0351      2.00000
     14      -2.0222      2.00000
     15      -1.9804      2.00000
     16      -1.9067      2.00000
     17      -1.9065      2.00000
     18      -1.8059      2.00000
     19      -1.7418      2.00000
     20      -1.7304      2.00000
     21      -1.5566      2.00000
     22      -1.5372      2.00000
     23      -1.4986      2.00000
     24      -1.1146      2.00000
     25      -1.0762      2.00000
     26      -0.9059      2.00000
     27      -0.7653      2.00000
     28      -0.7298      2.00000
     29      -0.5383      2.00000
     30      -0.4277      2.00000
     31      -0.2217      2.00000
     32       0.1226      2.00000
     33       0.2358      2.00888
     34       0.3155      0.83825
     35       1.3056     -0.00720
     36       2.6161      0.00000

 k-point   3 :       0.2857    0.0000    0.0000
  band No.  band energies     occupation 
      1      -4.5191      2.00000
      2      -4.1989      2.00000
      3      -4.0452      2.00000
      4      -3.8764      2.00000
      5      -3.6871      2.00000
      6      -3.5465      2.00000
      7      -3.3511      2.00000
      8      -3.2668      2.00000
      9      -2.9166      2.00000
     10      -2.5317      2.00000
     11      -2.4658      2.00000
     12      -2.1554      2.00000
     13      -2.0831      2.00000
     14      -1.9826      2.00000
     15      -1.9790      2.00000
     16      -1.7023      2.00000
     17      -1.6002      2.00000
     18      -1.3942      2.00000
     19      -1.2221      2.00000
     20      -1.2102      2.00000
     21      -1.0678      2.00000
     22      -0.9428      2.00000
     23      -0.7513      2.00000
     24      -0.7337      2.00000
     25      -0.6278      2.00000
     26      -0.5987      2.00000
     27      -0.4916      2.04028
     28      -0.4168      2.11944
     29      -0.2807      2.23094
     30      -0.1494      2.16610
     31       0.0815      1.28463
     32       0.1362      1.11739
     33       0.3689      0.56011
     34       1.3547     -0.00209
     35       2.9004      0.00000
     36       4.5841      0.00000

 k-point   4 :       0.4286    0.0000    0.0000
  band No.  band energies     occupation 
      1      -4.4927      2.00000
      2      -4.4473      2.00000
      3      -4.2476      2.00000
      4      -4.1695      2.00000
      5      -4.0588      2.00000
      6      -3.8343      2.00000
      7      -3.8112      2.00000
      8      -3.6924      2.00000
      9      -3.2083      2.00000
     10      -2.6651      2.00000
     11      -2.4044      2.00000
     12      -2.3071      2.00000
     13      -2.1915      2.00000
     14      -1.7529      2.00000
     15      -1.7068      2.00000
     16      -1.4067      2.00000
     17      -1.2051      2.00000
     18      -0.9295      2.00000
     19      -0.5797      2.00000
     20      -0.4685      2.00000
     21      -0.1043      2.00000
     22      -0.0727      2.00000
     23       0.1865      2.00000
     24       0.1912      2.00000
     25       0.2501      2.00000
     26       0.2722      2.00000
     27       0.3463      1.49894
     28       0.4150      0.71292
     29       0.4675      0.21790
     30       0.5187      0.12298
     31       1.1346     -0.02645
     32       1.8486     -0.02877
     33       2.2131      0.00000
     34       3.0455      0.00000
     35       4.4069      0.00000
     36       5.6997      0.00000

 k-point   5 :       0.2857    0.1429    0.0000
  band No.  band energies     occupation 
      1      -4.6764      2.00000
      2      -4.2519      2.00000
      3      -3.7414      2.00000
      4      -3.5375      2.00000
      5      -3.4145      2.00000
      6      -3.2783      2.00000
      7      -3.1548      2.00000
      8      -3.1092      2.00000
      9      -2.9452      2.00000
     10      -2.8466      2.00000
     11      -2.5807      2.00000
     12      -2.5044      2.00000
     13      -2.4004      2.00000
     14      -2.2835      2.00000
     15      -2.1154      2.00000
     16      -2.0185      2.00000
     17      -1.9655      2.00000
     18      -1.7198      2.00000
     19      -1.5581      2.00000
     20      -1.3817      2.00000
     21      -1.2578      2.00000
     22      -1.1358      2.00000
     23      -1.1253      2.00000
     24      -0.8685      2.00000
     25      -0.7873      2.00000
     26      -0.5778      2.00000
     27      -0.5136      2.00000
     28      -0.4548      2.00000
     29      -0.2596      2.00000
     30      -0.2279      2.13901
     31      -0.0516      1.64047
     32       0.1356      1.41954
     33       0.1618      1.33951
     34       1.1595     -0.15032
     35       2.5173      0.00000
     36       4.0827      0.00000

 k-point   6 :       0.4286    0.1429    0.0000
  band No.  band energies     occupation 
      1      -4.0703      2.00000
      2      -4.0366      2.00000
      3      -3.8405      2.00000
      4      -3.6908      2.00000
      5      -3.6551      2.00000
      6      -3.5097      2.00000
      7      -3.4038      2.00000
      8      -3.1477      2.00000
      9      -3.0582      2.00000
     10      -2.8007      2.00000
     11      -2.4571      2.00000
     12      -2.4154      2.00000
     13      -2.2942      2.00000
     14      -2.0073      2.00000
     15      -1.9515      2.00000
     16      -1.8598      2.00000
     17      -1.5793      2.00000
     18      -1.4641      2.00000
     19      -1.3448      2.00000
     20      -1.2035      2.00000
     21      -1.0019      2.00000
     22      -0.7703      2.00000
     23      -0.7289      2.00000
     24      -0.5439      2.00000
     25      -0.2744      2.00000
     26      -0.2545      2.00000
     27       0.1883      2.00787
     28       0.2114      1.99239
     29       0.3103      1.52566
     30       0.4446      0.48266
     31       1.3123     -0.11531
     32       1.4935     -0.13869
     33       1.9087     -0.11886
     34       2.9535      0.00000
     35       4.4266      0.00000
     36       6.1134      0.00000

 k-point   7 :      -0.4286    0.1429    0.0000
  band No.  band energies     occupation 
      1      -4.3015      2.00000
      2      -4.1520      2.00000
      3      -4.0316      2.00000
      4      -3.8980      2.00000
      5      -3.7413      2.00000
      6      -3.6915      2.00000
      7      -3.5255      2.00000
      8      -3.3572      2.00000
      9      -3.1479      2.00000
     10      -2.8368      2.00000
     11      -2.7059      2.00000
     12      -2.1977      2.00000
     13      -2.1583      2.00000
     14      -2.0201      2.00000
     15      -1.8330      2.00000
     16      -1.6470      2.00000
     17      -1.3381      2.00000
     18      -1.0967      2.00000
     19      -1.0481      2.00000
     20      -0.6455      2.00000
     21      -0.5533      2.00000
     22      -0.5036      2.00000
     23      -0.2213      2.00000
     24      -0.0602      2.00000
     25       0.0949      2.00000
     26       0.1029      2.00000
     27       0.1788      2.14570
     28       0.2170      1.95978
     29       0.3783      0.02618
     30       0.4837      0.00000
     31       3.4649      0.00000
     32       3.9950      0.00000
     33       4.4464      0.00000
     34       4.7842      0.00000
     35       5.0518      0.00000
     36       5.2069      0.00000

 k-point   8 :      -0.4286    0.2857    0.0000
  band No.  band energies     occupation 
      1      -3.8039      2.00000
      2      -3.7935      2.00000
      3      -3.5717      2.00000
      4      -3.3973      2.00000
      5      -3.3239      2.00000
      6      -3.1829      2.00000
      7      -3.1776      2.00000
      8      -3.0197      2.00000
      9      -3.0135      2.00000
     10      -2.7698      2.00000
     11      -2.7576      2.00000
     12      -2.4405      2.00000
     13      -2.3860      2.00000
     14      -2.1862      2.00000
     15      -2.0240      2.00000
     16      -1.7949      2.00000
     17      -1.7458      2.00000
     18      -1.6176      2.00000
     19      -1.5880      2.00000
     20      -1.1674      2.00000
     21      -1.0841      2.00000
     22      -0.8894      2.00000
     23      -0.7435      2.00000
     24      -0.6867      2.00000
     25      -0.3451      2.00000
     26      -0.0865      2.00000
     27       0.1657      2.00000
     28       0.2441      2.00000
     29       0.2757      2.01257
     30       0.4342      0.00000
     31       4.1100      0.00000
     32       4.4987      0.00000
     33       5.1308      0.00000
     34       6.0607      0.00000
     35       7.1886      0.00000
     36       7.8556      0.00000


--------------------------------------------------------------------------------------------------------


 soft charge-density along one line, spin component           1
         0         1         2         3         4         5         6         7         8         9
 total charge-density along one line
 
 pseudopotential strength for first ion, spin component:           1
-11.401   0.000   0.000   0.000   0.000   0.000  -0.011   0.000   0.000   0.000   0.110   0.000   0.000   0.000   0.000   0.000
  0.000   0.000 -11.288   0.000   0.000   0.000   0.000   0.000  -0.011   0.000   0.000   0.000   0.092   0.000   0.000   0.000
  0.000   0.000   0.000   0.000 -11.270   0.000   0.000   0.000   0.000   0.000   0.000   0.000   0.000   0.000   0.089   0.000
 -0.011   0.000   0.000   0.000   0.000   0.000 -11.288   0.000   0.000   0.000   0.002   0.000   0.000   0.000   0.000   0.000
  0.000   0.000  -0.011   0.000   0.000   0.000   0.000   0.000 -11.401   0.000   0.000   0.000   0.002   0.000   0.000   0.000
  0.110   0.000   0.000   0.000   0.000   0.000   0.002   0.000   0.000   0.000   0.323   0.000   0.000   0.000   0.000   0.000
  0.000   0.000   0.092   0.000   0.000   0.000   0.000   0.000   0.002   0.000   0.000   0.000   0.326   0.000   0.000   0.000
  0.000   0.000   0.000   0.000   0.089   0.000   0.000   0.000   0.000   0.000   0.000   0.000   0.000   0.000   0.327   0.000
  0.002   0.000   0.000   0.000   0.000   0.000   0.092   0.000   0.000   0.000   0.000   0.000   0.000   0.000   0.000   0.000
  0.000   0.000   0.002   0.000   0.000   0.000   0.000   0.000   0.110   0.000   0.000   0.000   0.000   0.000   0.000   0.000
  0.000   0.000   0.000   0.000  -0.029   0.000   0.000   0.000   0.000   0.000   0.000   0.000   0.000   0.000   0.004   0.000
  0.000   0.000   0.000   0.000   0.003   0.000   0.000   0.000   0.000   0.000   0.000   0.000   0.000   0.000   0.000   0.000
  0.000   0.000  -0.011   0.000   0.000   0.000   0.000   0.000   0.000   0.000   0.000   0.000   0.002   0.000   0.000   0.000
  0.000   0.000   0.000   0.000  -0.012   0.000   0.000   0.000   0.000   0.000   0.000   0.000   0.000   0.000   0.002   0.000
  0.000   0.000   0.000   0.000   0.000   0.000  -0.011   0.000   0.000   0.000   0.000   0.000   0.000   0.000   0.000   0.000
  0.000   0.000   0.010   0.000   0.000   0.000   0.000   0.000   0.000   0.000   0.000   0.000  -0.002   0.000   0.000   0.000
  0.000   0.000   0.000   0.000   0.010   0.000   0.000   0.000   0.000   0.000   0.000   0.000   0.000   0.000  -0.002   0.000
  0.000   0.000   0.000   0.000   0.000   0.000   0.010   0.000   0.000   0.000   0.000   0.000   0.000   0.000   0.000   0.000
 total augmentation occupancy for first ion, spin component:           1
  1.724   0.000   0.000  -0.041   0.000   0.132   0.000   0.000   0.021   0.000   0.000   0.000   0.000   0.000   0.003   0.000
  0.000   1.854   0.000   0.000  -0.041   0.000   0.051   0.000   0.000   0.022   0.000   0.000  -0.015   0.000   0.000  -0.015
  0.000   0.000   1.833   0.000   0.000   0.000   0.000   0.078   0.000   0.000   0.016  -0.063   0.000   0.025   0.000   0.000
 -0.041   0.000   0.000   1.854   0.000   0.022   0.000   0.000   0.051   0.000   0.000   0.000   0.000   0.000  -0.015   0.000
  0.000  -0.041   0.000   0.000   1.724   0.000   0.021   0.000   0.000   0.132   0.000   0.000   0.003   0.000   0.000   0.001
  0.132   0.000   0.000   0.022   0.000   0.113   0.000   0.000   0.003   0.000   0.000   0.000   0.000   0.000   0.006   0.000
  0.000   0.051   0.000   0.000   0.021   0.000   0.090   0.000   0.000   0.003   0.000   0.000   0.033   0.000   0.000  -0.001
  0.000   0.000   0.078   0.000   0.000   0.000   0.000   0.117   0.000   0.000  -0.112   0.029   0.000   0.045   0.000   0.000
  0.021   0.000   0.000   0.051   0.000   0.003   0.000   0.000   0.090   0.000   0.000   0.000   0.000   0.000   0.033   0.000
  0.000   0.022   0.000   0.000   0.132   0.000   0.003   0.000   0.000   0.113   0.000   0.000   0.006   0.000   0.000   0.000
  0.000   0.000   0.016   0.000   0.000   0.000   0.000  -0.112   0.000   0.000   0.999  -0.326   0.000   0.073   0.000   0.000
  0.000   0.000  -0.063   0.000   0.000   0.000   0.000   0.029   0.000   0.000  -0.326   0.121   0.000  -0.039   0.000   0.000
  0.000  -0.015   0.000   0.000   0.003   0.000   0.033   0.000   0.000   0.006   0.000   0.000   0.110   0.000   0.000  -0.002
  0.000   0.000   0.025   0.000   0.000   0.000   0.000   0.045   0.000   0.000   0.073  -0.039   0.000   0.062   0.000   0.000
  0.003   0.000   0.000  -0.015   0.000   0.006   0.000   0.000   0.033   0.000   0.000   0.000   0.000   0.000   0.110   0.000
  0.000  -0.015   0.000   0.000   0.001   0.000  -0.001   0.000   0.000   0.000   0.000   0.000  -0.002   0.000   0.000   0.000
  0.000   0.000  -0.019   0.000   0.000   0.000   0.000  -0.001   0.000   0.000  -0.004   0.002   0.000  -0.001   0.000   0.000
  0.001   0.000   0.000  -0.015   0.000   0.000   0.000   0.000  -0.001   0.000   0.000   0.000   0.000   0.000  -0.002   0.000


------------------------ aborting loop because EDIFF is reached ----------------------------------------


    CHARGE:  cpu time    0.09: real time    0.09
    FORLOC:  cpu time    0.01: real time    0.01
    FORNL :  cpu time    0.46: real time    0.45
    STRESS:  cpu time    0.80: real time    0.81
    FORCOR:  cpu time    0.12: real time    0.12
    FORHAR:  cpu time    0.04: real time    0.04
    MIXING:  cpu time    0.01: real time    0.01

  FORCE on cell =-STRESS in cart. coord.  units (eV):
  Direction    XX          YY          ZZ          XY          YZ          ZX
  --------------------------------------------------------------------------------------
  Alpha Z   305.72458   305.72458   305.72458
  Ewald   16004.56823 16004.56823-19331.33410     0.00000     0.00000     0.00000
  Hartree 17456.22101 17456.22101-16970.74215     0.00000     0.00000     0.00000
  E(xc)    -313.71527  -313.71528  -314.86602     0.00001     0.00000     0.00000
  Local  -34203.94940-34203.94968 35551.41350     0.00024     0.00000     0.00000
  n-local  -332.57819  -308.61751  -323.08519     5.24624    -3.08712     1.51143
  augment   256.63400   256.63425   260.02947    -0.00022     0.00000     0.00000
  Kinetic   802.80216   823.45453   822.49107     5.27265     2.99399    -0.73920
  Fock        0.00000     0.00000     0.00000     0.00000     0.00000     0.00000
  -------------------------------------------------------------------------------------
  Total      -1.98638    -1.98638    -0.36885     0.00000     0.00000     0.00000
  in kB     -19.85141   -19.85141    -3.68618     0.00000     0.00000     0.00000
  external pressure =      -14.46 kB  Pullay stress =        0.00 kB


 VOLUME and BASIS-vectors are now :
 -----------------------------------------------------------------------------
  energy-cutoff  :      415.00
  volume of cell :      160.32
      direct lattice vectors                 reciprocal lattice vectors
     2.795185513  0.000000000  0.000000000     0.357758008 -0.206551682  0.000000000
     1.397592758  2.420701664  0.000000000     0.000000000  0.413103364  0.000000000
     0.000000000  0.000000000 23.693556493     0.000000000  0.000000000  0.042205568

  length of vectors
     2.795185513  2.795185515 23.693556493     0.413103364  0.413103364  0.042205568


 FORCES acting on ions
    electron-ion (+dipol)            ewald-force                    non-local-force                 convergence-correction
 -----------------------------------------------------------------------------------------------
   0.834E-07 0.765E-07 0.282E+04   0.256E-07 -.242E-07 -.282E+04   0.867E-18 0.781E-17 -.126E+01   0.604E-10 0.344E-10 -.865E-02
   0.163E-06 0.931E-07 -.571E+03   -.109E-08 0.103E-08 0.571E+03   0.520E-17 0.173E-17 -.108E-01   -.299E-09 -.173E-09 0.111E-01
   0.501E-06 0.289E-06 0.170E+04   0.795E-09 0.106E-09 -.170E+04   -.434E-18 0.000E+00 -.410E-01   0.372E-10 0.195E-10 -.148E-01
   0.693E-06 0.400E-06 -.170E+04   0.325E-09 0.541E-09 0.170E+04   0.130E-17 0.000E+00 0.410E-01   -.336E-10 -.174E-10 0.148E-01
   -.548E-06 -.315E-06 0.571E+03   0.526E-09 -.136E-08 -.571E+03   -.477E-17 -.173E-17 0.108E-01   0.294E-09 0.170E-09 -.113E-01
   -.386E-06 -.251E-06 -.282E+04   -.262E-07 0.239E-07 0.282E+04   -.347E-17 -.520E-17 0.126E+01   -.675E-10 -.385E-10 0.869E-02
 -----------------------------------------------------------------------------------------------
   0.507E-06 0.293E-06 -.119E-02   0.166E-12 -.707E-13 0.000E+00   -.130E-17 0.260E-17 -.222E-15   -.888E-11 -.517E-11 -.981E-04
 
 
 POSITION                                       TOTAL-FORCE (eV/Angst)
 -----------------------------------------------------------------------------------
      0.00000      0.00000      0.00934         0.000000      0.000000      0.010263
      0.00000      0.00000      6.83615         0.000000      0.000000      0.063970
      1.39759      0.80690      2.29546         0.000000      0.000000      0.023670
      1.39759      0.80690      9.11583         0.000000      0.000000     -0.023670
      2.79519      1.61380      4.57515         0.000000      0.000000     -0.063970
      2.79519      1.61380     11.40196         0.000000      0.000000     -0.010263
 -----------------------------------------------------------------------------------
    total drift:                                0.000001      0.000000     -0.001285


--------------------------------------------------------------------------------------------------------



  FREE ENERGIE OF THE ION-ELECTRON SYSTEM (eV)
  ---------------------------------------------------
  free  energy   TOTEN  =       -30.09919432 eV

  energy  without entropy=      -30.09919432  energy(sigma->0) =      -30.09919432
 
 d Force =-0.6530075E-04[-0.320E-03, 0.189E-03]  d Energy =-0.1123601E-02 0.106E-02
 d Force =-0.5012442E+02[-0.502E+02,-0.501E+02]  d Ewald  =-0.5012442E+02 0.504E-05


--------------------------------------------------------------------------------------------------------


    POTLOK:  cpu time    0.12: real time    0.11


--------------------------------------------------------------------------------------------------------




--------------------------------------------------------------------------------------------------------


    WAVPRE:  cpu time    0.03: real time    0.03
 FEWALD executed in parallel
    FEWALD:  cpu time    0.00: real time    0.00
    ORTHCH:  cpu time    0.12: real time    0.12
     LOOP+:  cpu time   17.28: real time   17.49


----------------------------------------- Iteration   11(   1)  ---------------------------------------


    POTLOK:  cpu time    0.11: real time    0.11
    SETDIJ:  cpu time    0.01: real time    0.01
     EDDAV:  cpu time    1.23: real time    1.23
 BZINTS: Fermi energy:  0.322985; 60.000000 electrons
         Band energy:-116.745664;  BLOECHL correction: -0.276321
       DOS:  cpu time    0.00: real time    0.00
    CHARGE:  cpu time    0.09: real time    0.10
    MIXING:  cpu time    0.01: real time    0.00
    --------------------------------------------
      LOOP:  cpu time    1.45: real time    1.46

 eigenvalue-minimisations  :   576
 total energy-change (2. order) :-0.1746167E-03  (-0.3284352E-01)
 number of electron      60.0000014 magnetization 
 augmentation part       25.3986158 magnetization 

 Broyden mixing:
  rms(total) = 0.71446E-02    rms(broyden)= 0.71387E-02
  rms(prec ) = 0.83820E-02
  weight for this iteration     100.00

 Free energy of the ion-electron system (eV)
  ---------------------------------------------------
  alpha Z        PSCENC =       305.72458370
  Ewald energy   TEWEN  =     12646.30363567
  -1/2 Hartree   DENC   =    -17910.22163010
  -exchange  EXHF       =         0.00000000
  -V(xc)+E(xc)   XCENC  =      -177.93673135
  PAW double counting   =      4154.91827687    -3790.61935064
  entropy T*S    EENTRO =         0.00000000
  eigenvalues    EBANDS =      -116.74566448
  atomic energy  EATOM  =      4858.47751158
  ---------------------------------------------------
  free energy    TOTEN  =       -30.09936877 eV

  energy without entropy =      -30.09936877  energy(sigma->0) =      -30.09936877


--------------------------------------------------------------------------------------------------------




----------------------------------------- Iteration   11(   2)  ---------------------------------------


    POTLOK:  cpu time    0.11: real time    0.11
    SETDIJ:  cpu time    0.01: real time    0.01
     EDDAV:  cpu time    1.66: real time    1.72
 BZINTS: Fermi energy:  0.313659; 60.000000 electrons
         Band energy:-117.287507;  BLOECHL correction: -0.276162
       DOS:  cpu time    0.00: real time    0.00
    CHARGE:  cpu time    0.10: real time    0.09
    MIXING:  cpu time    0.00: real time    0.00
    --------------------------------------------
      LOOP:  cpu time    1.88: real time    1.95

 eigenvalue-minimisations  :   868
 total energy-change (2. order) :-0.1754100E-02  (-0.1670604E-02)
 number of electron      60.0000014 magnetization 
 augmentation part       25.4013579 magnetization 

 Broyden mixing:
  rms(total) = 0.32204E-01    rms(broyden)= 0.32200E-01
  rms(prec ) = 0.50272E-01
  weight for this iteration     100.00

 eigenvalues of (default mixing * dielectric matrix)
  average eigenvalue GAMMA=   0.1290
  0.1290

 Free energy of the ion-electron system (eV)
  ---------------------------------------------------
  alpha Z        PSCENC =       305.72458370
  Ewald energy   TEWEN  =     12646.30363567
  -1/2 Hartree   DENC   =    -17909.69160896
  -exchange  EXHF       =         0.00000000
  -V(xc)+E(xc)   XCENC  =      -177.93579435
  PAW double counting   =      4154.78642721    -3790.47837119
  entropy T*S    EENTRO =         0.00000000
  eigenvalues    EBANDS =      -117.28750652
  atomic energy  EATOM  =      4858.47751158
  ---------------------------------------------------
  free energy    TOTEN  =       -30.10112287 eV

  energy without entropy =      -30.10112287  energy(sigma->0) =      -30.10112287


--------------------------------------------------------------------------------------------------------




----------------------------------------- Iteration   11(   3)  ---------------------------------------


    POTLOK:  cpu time    0.10: real time    0.10
    SETDIJ:  cpu time    0.01: real time    0.01
     EDDAV:  cpu time    1.45: real time    1.46
 BZINTS: Fermi energy:  0.321980; 60.000000 electrons
         Band energy:-116.795534;  BLOECHL correction: -0.275933
       DOS:  cpu time    0.00: real time    0.00
    CHARGE:  cpu time    0.10: real time    0.09
    MIXING:  cpu time    0.00: real time    0.00
    --------------------------------------------
      LOOP:  cpu time    1.67: real time    1.68

 eigenvalue-minimisations  :   736
 total energy-change (2. order) : 0.1180409E-02  (-0.8897574E-03)
 number of electron      60.0000014 magnetization 
 augmentation part       25.3995901 magnetization 

 Broyden mixing:
  rms(total) = 0.11599E-01    rms(broyden)= 0.11587E-01
  rms(prec ) = 0.15031E-01
  weight for this iteration     100.00

 eigenvalues of (default mixing * dielectric matrix)
  average eigenvalue GAMMA=   0.2572
  0.4298  0.0845

 Free energy of the ion-electron system (eV)
  ---------------------------------------------------
  alpha Z        PSCENC =       305.72458370
  Ewald energy   TEWEN  =     12646.30363567
  -1/2 Hartree   DENC   =    -17910.18287626
  -exchange  EXHF       =         0.00000000
  -V(xc)+E(xc)   XCENC  =      -177.93600422
  PAW double counting   =      4154.79747888    -3790.48873737
  entropy T*S    EENTRO =         0.00000000
  eigenvalues    EBANDS =      -116.79553444
  atomic energy  EATOM  =      4858.47751158
  ---------------------------------------------------
  free energy    TOTEN  =       -30.09994246 eV

  energy without entropy =      -30.09994246  energy(sigma->0) =      -30.09994246


--------------------------------------------------------------------------------------------------------




----------------------------------------- Iteration   11(   4)  ---------------------------------------


    POTLOK:  cpu time    0.10: real time    0.10
    SETDIJ:  cpu time    0.02: real time    0.01
     EDDAV:  cpu time    1.54: real time    1.56
 BZINTS: Fermi energy:  0.322759; 60.000000 electrons
         Band energy:-116.782616;  BLOECHL correction: -0.276310
       DOS:  cpu time    0.00: real time    0.00
    CHARGE:  cpu time    0.09: real time    0.09
    MIXING:  cpu time    0.01: real time    0.00
    --------------------------------------------
      LOOP:  cpu time    1.76: real time    1.78

 eigenvalue-minimisations  :   812
 total energy-change (2. order) :-0.3747749E-03  (-0.1324411E-03)
 number of electron      60.0000014 magnetization 
 augmentation part       25.3996754 magnetization 

 Broyden mixing:
  rms(total) = 0.82088E-02    rms(broyden)= 0.82058E-02
  rms(prec ) = 0.94975E-02
  weight for this iteration     100.00

 eigenvalues of (default mixing * dielectric matrix)
  average eigenvalue GAMMA=   0.2163
  0.3856  0.1803  0.0831

 Free energy of the ion-electron system (eV)
  ---------------------------------------------------
  alpha Z        PSCENC =       305.72458370
  Ewald energy   TEWEN  =     12646.30363567
  -1/2 Hartree   DENC   =    -17910.19742947
  -exchange  EXHF       =         0.00000000
  -V(xc)+E(xc)   XCENC  =      -177.93599712
  PAW double counting   =      4154.78254993    -3790.47255506
  entropy T*S    EENTRO =         0.00000000
  eigenvalues    EBANDS =      -116.78261646
  atomic energy  EATOM  =      4858.47751158
  ---------------------------------------------------
  free energy    TOTEN  =       -30.10031723 eV

  energy without entropy =      -30.10031723  energy(sigma->0) =      -30.10031723


--------------------------------------------------------------------------------------------------------




----------------------------------------- Iteration   11(   5)  ---------------------------------------


    POTLOK:  cpu time    0.10: real time    0.10
    SETDIJ:  cpu time    0.01: real time    0.01
     EDDAV:  cpu time    1.58: real time    1.59
 BZINTS: Fermi energy:  0.321933; 60.000000 electrons
         Band energy:-116.802684;  BLOECHL correction: -0.276128
       DOS:  cpu time    0.00: real time    0.00
    CHARGE:  cpu time    0.09: real time    0.09
    MIXING:  cpu time    0.01: real time    0.01
    --------------------------------------------
      LOOP:  cpu time    1.79: real time    1.82

 eigenvalue-minimisations  :   844
 total energy-change (2. order) : 0.3005372E-03  (-0.3139618E-04)
 number of electron      60.0000014 magnetization 
 augmentation part       25.3995952 magnetization 

 Broyden mixing:
  rms(total) = 0.42781E-02    rms(broyden)= 0.42770E-02
  rms(prec ) = 0.46440E-02
  weight for this iteration     100.00

 eigenvalues of (default mixing * dielectric matrix)
  average eigenvalue GAMMA=   0.6918
  1.5792  0.9479  0.0837  0.1565

 Free energy of the ion-electron system (eV)
  ---------------------------------------------------
  alpha Z        PSCENC =       305.72458370
  Ewald energy   TEWEN  =     12646.30363567
  -1/2 Hartree   DENC   =    -17910.17767087
  -exchange  EXHF       =         0.00000000
  -V(xc)+E(xc)   XCENC  =      -177.93586925
  PAW double counting   =      4154.77400845    -3790.46353242
  entropy T*S    EENTRO =         0.00000000
  eigenvalues    EBANDS =      -116.80268355
  atomic energy  EATOM  =      4858.47751158
  ---------------------------------------------------
  free energy    TOTEN  =       -30.10001670 eV

  energy without entropy =      -30.10001670  energy(sigma->0) =      -30.10001670


--------------------------------------------------------------------------------------------------------




----------------------------------------- Iteration   11(   6)  ---------------------------------------


    POTLOK:  cpu time    0.10: real time    0.10
    SETDIJ:  cpu time    0.01: real time    0.01
     EDDAV:  cpu time    1.52: real time    1.53
 BZINTS: Fermi energy:  0.322261; 60.000000 electrons
         Band energy:-116.783658;  BLOECHL correction: -0.276128
       DOS:  cpu time    0.00: real time    0.00
    CHARGE:  cpu time    0.09: real time    0.09
    MIXING:  cpu time    0.01: real time    0.01
    --------------------------------------------
      LOOP:  cpu time    1.74: real time    1.76

 eigenvalue-minimisations  :   808
 total energy-change (2. order) : 0.3082384E-04  (-0.1200308E-04)
 number of electron      60.0000014 magnetization 
 augmentation part       25.3994463 magnetization 

 Broyden mixing:
  rms(total) = 0.23644E-02    rms(broyden)= 0.23642E-02
  rms(prec ) = 0.31967E-02
  weight for this iteration     100.00

 eigenvalues of (default mixing * dielectric matrix)
  average eigenvalue GAMMA=   0.8264
  2.2364  0.8270  0.8270  0.0835  0.1580

 Free energy of the ion-electron system (eV)
  ---------------------------------------------------
  alpha Z        PSCENC =       305.72458370
  Ewald energy   TEWEN  =     12646.30363567
  -1/2 Hartree   DENC   =    -17910.19935724
  -exchange  EXHF       =         0.00000000
  -V(xc)+E(xc)   XCENC  =      -177.93583688
  PAW double counting   =      4154.68589550    -3790.37275975
  entropy T*S    EENTRO =         0.00000000
  eigenvalues    EBANDS =      -116.78365844
  atomic energy  EATOM  =      4858.47751158
  ---------------------------------------------------
  free energy    TOTEN  =       -30.09998587 eV

  energy without entropy =      -30.09998587  energy(sigma->0) =      -30.09998587


--------------------------------------------------------------------------------------------------------




----------------------------------------- Iteration   11(   7)  ---------------------------------------


    POTLOK:  cpu time    0.10: real time    0.10
    SETDIJ:  cpu time    0.01: real time    0.01
     EDDAV:  cpu time    1.62: real time    1.63
 BZINTS: Fermi energy:  0.322540; 60.000000 electrons
         Band energy:-116.767457;  BLOECHL correction: -0.276090
       DOS:  cpu time    0.00: real time    0.00
    CHARGE:  cpu time    0.09: real time    0.09
    MIXING:  cpu time    0.01: real time    0.01
    --------------------------------------------
      LOOP:  cpu time    1.84: real time    1.86

 eigenvalue-minimisations  :   872
 total energy-change (2. order) : 0.3616691E-04  (-0.5852074E-05)
 number of electron      60.0000014 magnetization 
 augmentation part       25.3993285 magnetization 

 Broyden mixing:
  rms(total) = 0.36166E-03    rms(broyden)= 0.36043E-03
  rms(prec ) = 0.37543E-03
  weight for this iteration     100.00

 eigenvalues of (default mixing * dielectric matrix)
  average eigenvalue GAMMA=   0.9010
  2.3594  1.0066  1.0066  0.7922  0.0835  0.1579

 Free energy of the ion-electron system (eV)
  ---------------------------------------------------
  alpha Z        PSCENC =       305.72458370
  Ewald energy   TEWEN  =     12646.30363567
  -1/2 Hartree   DENC   =    -17910.21813501
  -exchange  EXHF       =         0.00000000
  -V(xc)+E(xc)   XCENC  =      -177.93581734
  PAW double counting   =      4154.59593324    -3790.28020479
  entropy T*S    EENTRO =         0.00000000
  eigenvalues    EBANDS =      -116.76745675
  atomic energy  EATOM  =      4858.47751158
  ---------------------------------------------------
  free energy    TOTEN  =       -30.09994971 eV

  energy without entropy =      -30.09994971  energy(sigma->0) =      -30.09994971


--------------------------------------------------------------------------------------------------------




----------------------------------------- Iteration   11(   8)  ---------------------------------------


    POTLOK:  cpu time    0.10: real time    0.10
    SETDIJ:  cpu time    0.01: real time    0.01
     EDDAV:  cpu time    0.88: real time    0.88
 BZINTS: Fermi energy:  0.322747; 60.000000 electrons
         Band energy:-116.756084;  BLOECHL correction: -0.276098
       DOS:  cpu time    0.00: real time    0.00
    CHARGE:  cpu time    0.09: real time    0.09
    MIXING:  cpu time    0.00: real time    0.01
    --------------------------------------------
      LOOP:  cpu time    1.08: real time    1.11

 eigenvalue-minimisations  :   344
 total energy-change (2. order) :-0.7369672E-05  (-0.9100444E-07)
 number of electron      60.0000014 magnetization 
 augmentation part       25.3992349 magnetization 

 Broyden mixing:
  rms(total) = 0.32485E-03    rms(broyden)= 0.32480E-03
  rms(prec ) = 0.36316E-03
  weight for this iteration     100.00

 eigenvalues of (default mixing * dielectric matrix)
  average eigenvalue GAMMA=   0.9717
  2.3908  0.0835  0.1579  1.2588  1.2588  0.8259  0.8259

 Free energy of the ion-electron system (eV)
  ---------------------------------------------------
  alpha Z        PSCENC =       305.72458370
  Ewald energy   TEWEN  =     12646.30363567
  -1/2 Hartree   DENC   =    -17910.23009179
  -exchange  EXHF       =         0.00000000
  -V(xc)+E(xc)   XCENC  =      -177.93574691
  PAW double counting   =      4154.59201500    -3790.27577988
  entropy T*S    EENTRO =         0.00000000
  eigenvalues    EBANDS =      -116.75608444
  atomic energy  EATOM  =      4858.47751158
  ---------------------------------------------------
  free energy    TOTEN  =       -30.09995708 eV

  energy without entropy =      -30.09995708  energy(sigma->0) =      -30.09995708


--------------------------------------------------------------------------------------------------------




----------------------------------------- Iteration   11(   9)  ---------------------------------------


    POTLOK:  cpu time    0.10: real time    0.10
    SETDIJ:  cpu time    0.02: real time    0.01
     EDDAV:  cpu time    0.76: real time    0.76
 BZINTS: Fermi energy:  0.322728; 60.000000 electrons
         Band energy:-116.756986;  BLOECHL correction: -0.276102
       DOS:  cpu time    0.00: real time    0.00
    --------------------------------------------
      LOOP:  cpu time    0.88: real time    0.90

 eigenvalue-minimisations  :   288
 total energy-change (2. order) :-0.6663049E-06  (-0.4772244E-07)
 number of electron      60.0000014 magnetization 
 augmentation part       25.3992349 magnetization 

 Free energy of the ion-electron system (eV)
  ---------------------------------------------------
  alpha Z        PSCENC =       305.72458370
  Ewald energy   TEWEN  =     12646.30363567
  -1/2 Hartree   DENC   =    -17910.22939434
  -exchange  EXHF       =         0.00000000
  -V(xc)+E(xc)   XCENC  =      -177.93574785
  PAW double counting   =      4154.58740868    -3790.27096920
  entropy T*S    EENTRO =         0.00000000
  eigenvalues    EBANDS =      -116.75698597
  atomic energy  EATOM  =      4858.47751158
  ---------------------------------------------------
  free energy    TOTEN  =       -30.09995774 eV

  energy without entropy =      -30.09995774  energy(sigma->0) =      -30.09995774


--------------------------------------------------------------------------------------------------------




 average (electrostatic) potential at core
  the test charge radii are     1.1199
  (the norm of the test charge is              1.0000)
       1 -50.8747       2 -51.2169       3 -51.1774       4 -51.1777       5 -51.2168
       6 -50.8750
 
 
 
 E-fermi :   0.3227     XC(G=0):  -8.1477     alpha+bet : -6.5480


 k-point   1 :       0.0000    0.0000    0.0000
  band No.  band energies     occupation 
      1      -6.2589      2.00000
      2      -5.6398      2.00000
      3      -4.9190      2.00000
      4      -4.6034      2.00000
      5      -4.3491      2.00000
      6      -4.3456      2.00000
      7      -2.3724      2.00000
      8      -2.3590      2.00000
      9      -2.2818      2.00000
     10      -2.2818      2.00000
     11      -2.2292      2.00000
     12      -2.2292      2.00000
     13      -2.1450      2.00000
     14      -2.1228      2.00000
     15      -2.1228      2.00000
     16      -2.0480      2.00000
     17      -2.0480      2.00000
     18      -1.8929      2.00000
     19      -1.8929      2.00000
     20      -1.8591      2.00000
     21      -1.8591      2.00000
     22      -1.5561      2.00000
     23      -0.8201      2.00000
     24      -0.8201      2.00000
     25      -0.7706      2.00000
     26      -0.7706      2.00000
     27      -0.5717      2.00000
     28      -0.5717      2.00000
     29      -0.2958      2.00000
     30      -0.2295      2.00000
     31      -0.2295      2.00000
     32       0.1102      2.00000
     33       0.1102      2.00000
     34       0.2847      2.00000
     35       0.2847      0.05261
     36       1.2586      0.00000

 k-point   2 :       0.1429    0.0000    0.0000
  band No.  band energies     occupation 
      1      -5.6621      2.00000
      2      -5.0750      2.00000
      3      -4.3845      2.00000
      4      -4.1619      2.00000
      5      -3.8978      2.00000
      6      -3.8392      2.00000
      7      -2.8322      2.00000
      8      -2.6586      2.00000
      9      -2.5921      2.00000
     10      -2.4696      2.00000
     11      -2.3811      2.00000
     12      -2.1881      2.00000
     13      -2.0343      2.00000
     14      -2.0164      2.00000
     15      -1.9803      2.00000
     16      -1.9074      2.00000
     17      -1.9033      2.00000
     18      -1.8065      2.00000
     19      -1.7419      2.00000
     20      -1.7308      2.00000
     21      -1.5548      2.00000
     22      -1.5386      2.00000
     23      -1.4975      2.00000
     24      -1.1135      2.00000
     25      -1.0745      2.00000
     26      -0.9062      2.00000
     27      -0.7661      2.00000
     28      -0.7303      2.00000
     29      -0.5362      2.00000
     30      -0.4296      2.00000
     31      -0.2230      2.00000
     32       0.1219      2.00000
     33       0.2364      2.00827
     34       0.3136      0.84109
     35       1.3024     -0.00737
     36       2.6133      0.00000

 k-point   3 :       0.2857    0.0000    0.0000
  band No.  band energies     occupation 
      1      -4.5142      2.00000
      2      -4.1966      2.00000
      3      -4.0419      2.00000
      4      -3.8738      2.00000
      5      -3.6845      2.00000
      6      -3.5444      2.00000
      7      -3.3491      2.00000
      8      -3.2661      2.00000
      9      -2.9126      2.00000
     10      -2.5296      2.00000
     11      -2.4652      2.00000
     12      -2.1562      2.00000
     13      -2.0819      2.00000
     14      -1.9821      2.00000
     15      -1.9720      2.00000
     16      -1.7018      2.00000
     17      -1.5997      2.00000
     18      -1.3932      2.00000
     19      -1.2220      2.00000
     20      -1.2051      2.00000
     21      -1.0686      2.00000
     22      -0.9409      2.00000
     23      -0.7503      2.00000
     24      -0.7348      2.00000
     25      -0.6261      2.00000
     26      -0.5999      2.00000
     27      -0.4918      2.04212
     28      -0.4177      2.11937
     29      -0.2813      2.23127
     30      -0.1511      2.16706
     31       0.0797      1.28537
     32       0.1354      1.11728
     33       0.3666      0.56840
     34       1.3519     -0.00236
     35       2.8967      0.00000
     36       4.5792      0.00000

 k-point   4 :       0.4286    0.0000    0.0000
  band No.  band energies     occupation 
      1      -4.4875      2.00000
      2      -4.4425      2.00000
      3      -4.2425      2.00000
      4      -4.1692      2.00000
      5      -4.0580      2.00000
      6      -3.8332      2.00000
      7      -3.8096      2.00000
      8      -3.6915      2.00000
      9      -3.2035      2.00000
     10      -2.6653      2.00000
     11      -2.4044      2.00000
     12      -2.3087      2.00000
     13      -2.1846      2.00000
     14      -1.7526      2.00000
     15      -1.7051      2.00000
     16      -1.4047      2.00000
     17      -1.1990      2.00000
     18      -0.9293      2.00000
     19      -0.5812      2.00000
     20      -0.4691      2.00000
     21      -0.1039      2.00000
     22      -0.0728      2.00000
     23       0.1877      2.00000
     24       0.1911      2.00000
     25       0.2488      2.00000
     26       0.2720      2.00000
     27       0.3464      1.48278
     28       0.4145      0.71423
     29       0.4670      0.21712
     30       0.5173      0.12397
     31       1.1353     -0.02649
     32       1.8473     -0.02875
     33       2.2133      0.00000
     34       3.0425      0.00000
     35       4.4050      0.00000
     36       5.6965      0.00000

 k-point   5 :       0.2857    0.1429    0.0000
  band No.  band energies     occupation 
      1      -4.6715      2.00000
      2      -4.2504      2.00000
      3      -3.7380      2.00000
      4      -3.5320      2.00000
      5      -3.4127      2.00000
      6      -3.2781      2.00000
      7      -3.1491      2.00000
      8      -3.1087      2.00000
      9      -2.9418      2.00000
     10      -2.8446      2.00000
     11      -2.5801      2.00000
     12      -2.5040      2.00000
     13      -2.3995      2.00000
     14      -2.2838      2.00000
     15      -2.1149      2.00000
     16      -2.0188      2.00000
     17      -1.9596      2.00000
     18      -1.7215      2.00000
     19      -1.5576      2.00000
     20      -1.3811      2.00000
     21      -1.2574      2.00000
     22      -1.1345      2.00000
     23      -1.1229      2.00000
     24      -0.8686      2.00000
     25      -0.7865      2.00000
     26      -0.5767      2.00000
     27      -0.5149      2.00000
     28      -0.4553      2.00000
     29      -0.2602      2.00000
     30      -0.2287      2.13905
     31      -0.0521      1.63984
     32       0.1343      1.41994
     33       0.1600      1.34205
     34       1.1569     -0.15034
     35       2.5137      0.00000
     36       4.0783      0.00000

 k-point   6 :       0.4286    0.1429    0.0000
  band No.  band energies     occupation 
      1      -4.0651      2.00000
      2      -4.0309      2.00000
      3      -3.8361      2.00000
      4      -3.6904      2.00000
      5      -3.6538      2.00000
      6      -3.5092      2.00000
      7      -3.4000      2.00000
      8      -3.1460      2.00000
      9      -3.0546      2.00000
     10      -2.7990      2.00000
     11      -2.4531      2.00000
     12      -2.4149      2.00000
     13      -2.2906      2.00000
     14      -2.0064      2.00000
     15      -1.9509      2.00000
     16      -1.8606      2.00000
     17      -1.5783      2.00000
     18      -1.4615      2.00000
     19      -1.3438      2.00000
     20      -1.2042      2.00000
     21      -1.0004      2.00000
     22      -0.7705      2.00000
     23      -0.7307      2.00000
     24      -0.5450      2.00000
     25      -0.2764      2.00000
     26      -0.2548      2.00000
     27       0.1886      2.00807
     28       0.2101      1.99230
     29       0.3097      1.52385
     30       0.4433      0.48373
     31       1.3128     -0.11534
     32       1.4931     -0.13869
     33       1.9087     -0.11985
     34       2.9501      0.00000
     35       4.4234      0.00000
     36       6.1080      0.00000

 k-point   7 :      -0.4286    0.1429    0.0000
  band No.  band energies     occupation 
      1      -4.2957      2.00000
      2      -4.1469      2.00000
      3      -4.0267      2.00000
      4      -3.8977      2.00000
      5      -3.7408      2.00000
      6      -3.6912      2.00000
      7      -3.5218      2.00000
      8      -3.3559      2.00000
      9      -3.1432      2.00000
     10      -2.8362      2.00000
     11      -2.7010      2.00000
     12      -2.1965      2.00000
     13      -2.1592      2.00000
     14      -2.0203      2.00000
     15      -1.8287      2.00000
     16      -1.6455      2.00000
     17      -1.3365      2.00000
     18      -1.0977      2.00000
     19      -1.0462      2.00000
     20      -0.6446      2.00000
     21      -0.5545      2.00000
     22      -0.5038      2.00000
     23      -0.2213      2.00000
     24      -0.0609      2.00000
     25       0.0933      2.00000
     26       0.1016      2.00000
     27       0.1791      2.14452
     28       0.2151      1.96139
     29       0.3769      0.02653
     30       0.4825      0.00000
     31       3.4659      0.00000
     32       3.9947      0.00000
     33       4.4469      0.00000
     34       4.7828      0.00000
     35       5.0512      0.00000
     36       5.2051      0.00000

 k-point   8 :      -0.4286    0.2857    0.0000
  band No.  band energies     occupation 
      1      -3.7964      2.00000
      2      -3.7888      2.00000
      3      -3.5690      2.00000
      4      -3.3959      2.00000
      5      -3.3204      2.00000
      6      -3.1813      2.00000
      7      -3.1706      2.00000
      8      -3.0181      2.00000
      9      -3.0113      2.00000
     10      -2.7653      2.00000
     11      -2.7542      2.00000
     12      -2.4392      2.00000
     13      -2.3864      2.00000
     14      -2.1854      2.00000
     15      -2.0217      2.00000
     16      -1.7945      2.00000
     17      -1.7457      2.00000
     18      -1.6174      2.00000
     19      -1.5880      2.00000
     20      -1.1691      2.00000
     21      -1.0841      2.00000
     22      -0.8910      2.00000
     23      -0.7454      2.00000
     24      -0.6880      2.00000
     25      -0.3462      2.00000
     26      -0.0875      2.00000
     27       0.1647      2.00000
     28       0.2422      2.00000
     29       0.2752      2.01340
     30       0.4327      0.00000
     31       4.1110      0.00000
     32       4.4982      0.00000
     33       5.1305      0.00000
     34       6.0585      0.00000
     35       7.1870      0.00000
     36       7.8563      0.00000


--------------------------------------------------------------------------------------------------------


 soft charge-density along one line, spin component           1
         0         1         2         3         4         5         6         7         8         9
 total charge-density along one line
 
 pseudopotential strength for first ion, spin component:           1
-11.401   0.000   0.000   0.000   0.000   0.000  -0.011   0.000   0.000   0.000   0.110   0.000   0.000   0.000   0.000   0.000
  0.000   0.000 -11.288   0.000   0.000   0.000   0.000   0.000  -0.011   0.000   0.000   0.000   0.092   0.000   0.000   0.000
  0.000   0.000   0.000   0.000 -11.270   0.000   0.000   0.000   0.000   0.000   0.000   0.000   0.000   0.000   0.089   0.000
 -0.011   0.000   0.000   0.000   0.000   0.000 -11.288   0.000   0.000   0.000   0.002   0.000   0.000   0.000   0.000   0.000
  0.000   0.000  -0.011   0.000   0.000   0.000   0.000   0.000 -11.401   0.000   0.000   0.000   0.002   0.000   0.000   0.000
  0.110   0.000   0.000   0.000   0.000   0.000   0.002   0.000   0.000   0.000   0.323   0.000   0.000   0.000   0.000   0.000
  0.000   0.000   0.092   0.000   0.000   0.000   0.000   0.000   0.002   0.000   0.000   0.000   0.326   0.000   0.000   0.000
  0.000   0.000   0.000   0.000   0.089   0.000   0.000   0.000   0.000   0.000   0.000   0.000   0.000   0.000   0.327   0.000
  0.002   0.000   0.000   0.000   0.000   0.000   0.092   0.000   0.000   0.000   0.000   0.000   0.000   0.000   0.000   0.000
  0.000   0.000   0.002   0.000   0.000   0.000   0.000   0.000   0.110   0.000   0.000   0.000   0.000   0.000   0.000   0.000
  0.000   0.000   0.000   0.000  -0.029   0.000   0.000   0.000   0.000   0.000   0.000   0.000   0.000   0.000   0.004   0.000
  0.000   0.000   0.000   0.000   0.003   0.000   0.000   0.000   0.000   0.000   0.000   0.000   0.000   0.000   0.000   0.000
  0.000   0.000  -0.011   0.000   0.000   0.000   0.000   0.000   0.000   0.000   0.000   0.000   0.002   0.000   0.000   0.000
  0.000   0.000   0.000   0.000  -0.012   0.000   0.000   0.000   0.000   0.000   0.000   0.000   0.000   0.000   0.002   0.000
  0.000   0.000   0.000   0.000   0.000   0.000  -0.011   0.000   0.000   0.000   0.000   0.000   0.000   0.000   0.000   0.000
  0.000   0.000   0.010   0.000   0.000   0.000   0.000   0.000   0.000   0.000   0.000   0.000  -0.002   0.000   0.000   0.000
  0.000   0.000   0.000   0.000   0.010   0.000   0.000   0.000   0.000   0.000   0.000   0.000   0.000   0.000  -0.002   0.000
  0.000   0.000   0.000   0.000   0.000   0.000   0.010   0.000   0.000   0.000   0.000   0.000   0.000   0.000   0.000   0.000
 total augmentation occupancy for first ion, spin component:           1
  1.724   0.000   0.000  -0.041   0.000   0.132   0.000   0.000   0.021   0.000   0.000   0.000   0.000   0.000   0.003   0.000
  0.000   1.855   0.000   0.000  -0.041   0.000   0.051   0.000   0.000   0.022   0.000   0.000  -0.015   0.000   0.000  -0.015
  0.000   0.000   1.833   0.000   0.000   0.000   0.000   0.078   0.000   0.000   0.016  -0.063   0.000   0.025   0.000   0.000
 -0.041   0.000   0.000   1.855   0.000   0.022   0.000   0.000   0.051   0.000   0.000   0.000   0.000   0.000  -0.015   0.000
  0.000  -0.041   0.000   0.000   1.724   0.000   0.021   0.000   0.000   0.132   0.000   0.000   0.003   0.000   0.000   0.001
  0.132   0.000   0.000   0.022   0.000   0.113   0.000   0.000   0.003   0.000   0.000   0.000   0.000   0.000   0.006   0.000
  0.000   0.051   0.000   0.000   0.021   0.000   0.089   0.000   0.000   0.003   0.000   0.000   0.033   0.000   0.000  -0.001
  0.000   0.000   0.078   0.000   0.000   0.000   0.000   0.117   0.000   0.000  -0.112   0.029   0.000   0.045   0.000   0.000
  0.021   0.000   0.000   0.051   0.000   0.003   0.000   0.000   0.089   0.000   0.000   0.000   0.000   0.000   0.033   0.000
  0.000   0.022   0.000   0.000   0.132   0.000   0.003   0.000   0.000   0.113   0.000   0.000   0.006   0.000   0.000   0.000
  0.000   0.000   0.016   0.000   0.000   0.000   0.000  -0.112   0.000   0.000   0.999  -0.326   0.000   0.072   0.000   0.000
  0.000   0.000  -0.063   0.000   0.000   0.000   0.000   0.029   0.000   0.000  -0.326   0.121   0.000  -0.039   0.000   0.000
  0.000  -0.015   0.000   0.000   0.003   0.000   0.033   0.000   0.000   0.006   0.000   0.000   0.110   0.000   0.000  -0.002
  0.000   0.000   0.025   0.000   0.000   0.000   0.000   0.045   0.000   0.000   0.072  -0.039   0.000   0.062   0.000   0.000
  0.003   0.000   0.000  -0.015   0.000   0.006   0.000   0.000   0.033   0.000   0.000   0.000   0.000   0.000   0.110   0.000
  0.000  -0.015   0.000   0.000   0.001   0.000  -0.001   0.000   0.000   0.000   0.000   0.000  -0.002   0.000   0.000   0.000
  0.000   0.000  -0.020   0.000   0.000   0.000   0.000  -0.001   0.000   0.000  -0.004   0.002   0.000  -0.001   0.000   0.000
  0.001   0.000   0.000  -0.015   0.000   0.000   0.000   0.000  -0.001   0.000   0.000   0.000   0.000   0.000  -0.002   0.000


------------------------ aborting loop because EDIFF is reached ----------------------------------------


    CHARGE:  cpu time    0.10: real time    0.10
    FORLOC:  cpu time    0.01: real time    0.01
    FORNL :  cpu time    0.45: real time    0.45
    STRESS:  cpu time    0.78: real time    0.79
    FORCOR:  cpu time    0.11: real time    0.11
    FORHAR:  cpu time    0.04: real time    0.03
    MIXING:  cpu time    0.01: real time    0.01

  FORCE on cell =-STRESS in cart. coord.  units (eV):
  Direction    XX          YY          ZZ          XY          YZ          ZX
  --------------------------------------------------------------------------------------
  Alpha Z   305.72458   305.72458   305.72458
  Ewald   15972.83553 15972.83553-19299.36754     0.00000     0.00000     0.00000
  Hartree 17424.55957 17424.55957-16938.96824     0.00000     0.00000     0.00000
  E(xc)    -313.70162  -313.70163  -314.85769     0.00001     0.00000     0.00000
  Local  -34140.50610-34140.50638 35487.61840     0.00024     0.00000     0.00000
  n-local  -332.62751  -308.65562  -323.18755     5.24641    -3.08076     1.50793
  augment   256.61888   256.61913   260.06201    -0.00022     0.00000     0.00000
  Kinetic   802.73719   823.42696   822.52757     5.29044     2.99033    -0.73060
  Fock        0.00000     0.00000     0.00000     0.00000     0.00000     0.00000
  -------------------------------------------------------------------------------------
  Total      -2.02866    -2.02866    -0.44846     0.00000     0.00000     0.00000
  in kB     -20.27391   -20.27391    -4.48185     0.00000     0.00000     0.00000
  external pressure =      -15.01 kB  Pullay stress =        0.00 kB


 VOLUME and BASIS-vectors are now :
 -----------------------------------------------------------------------------
  energy-cutoff  :      415.00
  volume of cell :      160.32
      direct lattice vectors                 reciprocal lattice vectors
     2.795185513  0.000000000  0.000000000     0.357758008 -0.206551682  0.000000000
     1.397592758  2.420701664  0.000000000     0.000000000  0.413103364  0.000000000
     0.000000000  0.000000000 23.693556493     0.000000000  0.000000000  0.042205568

  length of vectors
     2.795185513  2.795185515 23.693556493     0.413103364  0.413103364  0.042205568


 FORCES acting on ions
    electron-ion (+dipol)            ewald-force                    non-local-force                 convergence-correction
 -----------------------------------------------------------------------------------------------
   0.444E-07 0.539E-07 0.282E+04   0.256E-07 -.241E-07 -.282E+04   -.607E-17 0.867E-18 -.125E+01   0.686E-10 0.400E-10 0.167E-01
   0.521E-07 0.293E-07 -.569E+03   -.693E-09 0.656E-09 0.569E+03   0.000E+00 0.000E+00 -.258E-01   0.254E-09 0.147E-09 -.951E-02
   0.593E-06 0.343E-06 0.170E+04   0.934E-09 -.236E-10 -.170E+04   0.434E-18 -.434E-18 -.427E-01   0.207E-11 0.276E-11 0.130E-01
   0.765E-06 0.441E-06 -.170E+04   0.185E-09 0.670E-09 0.170E+04   -.651E-18 0.434E-18 0.427E-01   0.665E-11 0.230E-11 -.130E-01
   -.604E-06 -.348E-06 0.569E+03   0.127E-09 -.983E-09 -.569E+03   -.867E-18 0.000E+00 0.258E-01   -.246E-09 -.143E-09 0.955E-02
   -.302E-06 -.203E-06 -.282E+04   -.261E-07 0.238E-07 0.282E+04   0.607E-17 0.867E-18 0.125E+01   -.622E-10 -.363E-10 -.167E-01
 -----------------------------------------------------------------------------------------------
   0.548E-06 0.316E-06 -.137E-02   0.166E-12 -.707E-13 -.909E-12   -.108E-17 0.173E-17 -.222E-15   0.229E-10 0.133E-10 0.366E-04
 
 
 POSITION                                       TOTAL-FORCE (eV/Angst)
 -----------------------------------------------------------------------------------
      0.00000      0.00000      0.00563         0.000000      0.000000      0.020839
      0.00000      0.00000      6.83910         0.000000      0.000000      0.031208
      1.39759      0.80690      2.29333         0.000000      0.000000      0.015541
      1.39759      0.80690      9.11797         0.000000      0.000000     -0.015541
      2.79519      1.61380      4.57219         0.000000      0.000000     -0.031208
      2.79519      1.61380     11.40566         0.000000      0.000000     -0.020839
 -----------------------------------------------------------------------------------
    total drift:                                0.000001      0.000000     -0.001332


--------------------------------------------------------------------------------------------------------



  FREE ENERGIE OF THE ION-ELECTRON SYSTEM (eV)
  ---------------------------------------------------
  free  energy   TOTEN  =       -30.09995774 eV

  energy  without entropy=      -30.09995774  energy(sigma->0) =      -30.09995774
 
 d Force = 0.8237697E-04[-0.363E-04, 0.201E-03]  d Energy = 0.7634259E-03-0.681E-03
 d Force = 0.3149885E+02[ 0.315E+02, 0.315E+02]  d Ewald  = 0.3149885E+02-0.126E-05


--------------------------------------------------------------------------------------------------------


    POTLOK:  cpu time    0.12: real time    0.12


--------------------------------------------------------------------------------------------------------




--------------------------------------------------------------------------------------------------------


    WAVPRE:  cpu time    0.03: real time    0.03
 FEWALD executed in parallel
    FEWALD:  cpu time    0.00: real time    0.00
    ORTHCH:  cpu time    0.10: real time    0.10
     LOOP+:  cpu time   16.08: real time   16.35


----------------------------------------- Iteration   12(   1)  ---------------------------------------


    POTLOK:  cpu time    0.10: real time    0.10
    SETDIJ:  cpu time    0.01: real time    0.01
     EDDAV:  cpu time    1.21: real time    1.22
 BZINTS: Fermi energy:  0.323000; 60.000000 electrons
         Band energy:-116.790377;  BLOECHL correction: -0.275692
       DOS:  cpu time    0.00: real time    0.00
    CHARGE:  cpu time    0.09: real time    0.09
    MIXING:  cpu time    0.00: real time    0.00
    --------------------------------------------
      LOOP:  cpu time    1.42: real time    1.44

 eigenvalue-minimisations  :   576
 total energy-change (2. order) : 0.3255027E-03  (-0.3976339E-02)
 number of electron      60.0000012 magnetization 
 augmentation part       25.3990413 magnetization 

 Broyden mixing:
  rms(total) = 0.25461E-02    rms(broyden)= 0.25441E-02
  rms(prec ) = 0.30680E-02
  weight for this iteration     100.00

 Free energy of the ion-electron system (eV)
  ---------------------------------------------------
  alpha Z        PSCENC =       305.72458370
  Ewald energy   TEWEN  =     12658.08789648
  -1/2 Hartree   DENC   =    -17921.98469837
  -exchange  EXHF       =         0.00000000
  -V(xc)+E(xc)   XCENC  =      -177.93101876
  PAW double counting   =      4154.58620908    -3790.26973859
  entropy T*S    EENTRO =         0.00000000
  eigenvalues    EBANDS =      -116.79037669
  atomic energy  EATOM  =      4858.47751158
  ---------------------------------------------------
  free energy    TOTEN  =       -30.09963157 eV

  energy without entropy =      -30.09963157  energy(sigma->0) =      -30.09963157


--------------------------------------------------------------------------------------------------------




----------------------------------------- Iteration   12(   2)  ---------------------------------------


    POTLOK:  cpu time    0.09: real time    0.09
    SETDIJ:  cpu time    0.01: real time    0.01
     EDDAV:  cpu time    1.64: real time    1.65
 BZINTS: Fermi energy:  0.326922; 60.000000 electrons
         Band energy:-116.576149;  BLOECHL correction: -0.275676
       DOS:  cpu time    0.00: real time    0.00
    CHARGE:  cpu time    0.09: real time    0.09
    MIXING:  cpu time    0.00: real time    0.00
    --------------------------------------------
      LOOP:  cpu time    1.84: real time    1.86

 eigenvalue-minimisations  :   864
 total energy-change (2. order) :-0.3104293E-03  (-0.2276595E-03)
 number of electron      60.0000012 magnetization 
 augmentation part       25.3984008 magnetization 

 Broyden mixing:
  rms(total) = 0.12953E-01    rms(broyden)= 0.12952E-01
  rms(prec ) = 0.20018E-01
  weight for this iteration     100.00

 eigenvalues of (default mixing * dielectric matrix)
  average eigenvalue GAMMA=   0.1212
  0.1212

 Free energy of the ion-electron system (eV)
  ---------------------------------------------------
  alpha Z        PSCENC =       305.72458370
  Ewald energy   TEWEN  =     12658.08789648
  -1/2 Hartree   DENC   =    -17922.19509076
  -exchange  EXHF       =         0.00000000
  -V(xc)+E(xc)   XCENC  =      -177.93159797
  PAW double counting   =      4154.63036142    -3790.31745700
  entropy T*S    EENTRO =         0.00000000
  eigenvalues    EBANDS =      -116.57614945
  atomic energy  EATOM  =      4858.47751158
  ---------------------------------------------------
  free energy    TOTEN  =       -30.09994200 eV

  energy without entropy =      -30.09994200  energy(sigma->0) =      -30.09994200


--------------------------------------------------------------------------------------------------------




----------------------------------------- Iteration   12(   3)  ---------------------------------------


    POTLOK:  cpu time    0.11: real time    0.11
    SETDIJ:  cpu time    0.01: real time    0.01
     EDDAV:  cpu time    1.40: real time    1.41
 BZINTS: Fermi energy:  0.323461; 60.000000 electrons
         Band energy:-116.769859;  BLOECHL correction: -0.275885
       DOS:  cpu time    0.00: real time    0.00
    CHARGE:  cpu time    0.10: real time    0.10
    MIXING:  cpu time    0.00: real time    0.01
    --------------------------------------------
      LOOP:  cpu time    1.63: real time    1.65

 eigenvalue-minimisations  :   736
 total energy-change (2. order) : 0.8345988E-05  (-0.1343271E-03)
 number of electron      60.0000012 magnetization 
 augmentation part       25.3990868 magnetization 

 Broyden mixing:
  rms(total) = 0.46161E-02    rms(broyden)= 0.46120E-02
  rms(prec ) = 0.59806E-02
  weight for this iteration     100.00

 eigenvalues of (default mixing * dielectric matrix)
  average eigenvalue GAMMA=   0.2123
  0.3393  0.0853

 Free energy of the ion-electron system (eV)
  ---------------------------------------------------
  alpha Z        PSCENC =       305.72458370
  Ewald energy   TEWEN  =     12658.08789648
  -1/2 Hartree   DENC   =    -17922.00124480
  -exchange  EXHF       =         0.00000000
  -V(xc)+E(xc)   XCENC  =      -177.93147450
  PAW double counting   =      4154.62746785    -3790.31481494
  entropy T*S    EENTRO =         0.00000000
  eigenvalues    EBANDS =      -116.76985903
  atomic energy  EATOM  =      4858.47751158
  ---------------------------------------------------
  free energy    TOTEN  =       -30.09993366 eV

  energy without entropy =      -30.09993366  energy(sigma->0) =      -30.09993366


--------------------------------------------------------------------------------------------------------




----------------------------------------- Iteration   12(   4)  ---------------------------------------


    POTLOK:  cpu time    0.11: real time    0.11
    SETDIJ:  cpu time    0.01: real time    0.01
     EDDAV:  cpu time    1.56: real time    1.57
 BZINTS: Fermi energy:  0.323198; 60.000000 electrons
         Band energy:-116.768530;  BLOECHL correction: -0.275713
       DOS:  cpu time    0.00: real time    0.00
    CHARGE:  cpu time    0.09: real time    0.09
    MIXING:  cpu time    0.00: real time    0.01
    --------------------------------------------
      LOOP:  cpu time    1.79: real time    1.81

 eigenvalue-minimisations  :   844
 total energy-change (2. order) : 0.2245426E-03  (-0.2590521E-04)
 number of electron      60.0000012 magnetization 
 augmentation part       25.3989767 magnetization 

 Broyden mixing:
  rms(total) = 0.34514E-02    rms(broyden)= 0.34498E-02
  rms(prec ) = 0.40309E-02
  weight for this iteration     100.00

 eigenvalues of (default mixing * dielectric matrix)
  average eigenvalue GAMMA=   0.2114
  0.3729  0.1793  0.0819

 Free energy of the ion-electron system (eV)
  ---------------------------------------------------
  alpha Z        PSCENC =       305.72458370
  Ewald energy   TEWEN  =     12658.08789648
  -1/2 Hartree   DENC   =    -17922.00214012
  -exchange  EXHF       =         0.00000000
  -V(xc)+E(xc)   XCENC  =      -177.93140447
  PAW double counting   =      4154.63591500    -3790.32354140
  entropy T*S    EENTRO =         0.00000000
  eigenvalues    EBANDS =      -116.76852988
  atomic energy  EATOM  =      4858.47751158
  ---------------------------------------------------
  free energy    TOTEN  =       -30.09970911 eV

  energy without entropy =      -30.09970911  energy(sigma->0) =      -30.09970911


--------------------------------------------------------------------------------------------------------




----------------------------------------- Iteration   12(   5)  ---------------------------------------


    POTLOK:  cpu time    0.10: real time    0.10
    SETDIJ:  cpu time    0.01: real time    0.01
     EDDAV:  cpu time    1.43: real time    1.44
 BZINTS: Fermi energy:  0.323394; 60.000000 electrons
         Band energy:-116.769332;  BLOECHL correction: -0.275792
       DOS:  cpu time    0.00: real time    0.00
    CHARGE:  cpu time    0.09: real time    0.09
    MIXING:  cpu time    0.01: real time    0.01
    --------------------------------------------
      LOOP:  cpu time    1.65: real time    1.67

 eigenvalue-minimisations  :   728
 total energy-change (2. order) :-0.9916960E-04  (-0.6213012E-05)
 number of electron      60.0000012 magnetization 
 augmentation part       25.3990486 magnetization 

 Broyden mixing:
  rms(total) = 0.15447E-02    rms(broyden)= 0.15441E-02
  rms(prec ) = 0.16569E-02
  weight for this iteration     100.00

 eigenvalues of (default mixing * dielectric matrix)
  average eigenvalue GAMMA=   0.7107
  1.6587  0.9435  0.0821  0.1585

 Free energy of the ion-electron system (eV)
  ---------------------------------------------------
  alpha Z        PSCENC =       305.72458370
  Ewald energy   TEWEN  =     12658.08789648
  -1/2 Hartree   DENC   =    -17922.00107259
  -exchange  EXHF       =         0.00000000
  -V(xc)+E(xc)   XCENC  =      -177.93144212
  PAW double counting   =      4154.64198398    -3790.32993760
  entropy T*S    EENTRO =         0.00000000
  eigenvalues    EBANDS =      -116.76933170
  atomic energy  EATOM  =      4858.47751158
  ---------------------------------------------------
  free energy    TOTEN  =       -30.09980828 eV

  energy without entropy =      -30.09980828  energy(sigma->0) =      -30.09980828


--------------------------------------------------------------------------------------------------------




----------------------------------------- Iteration   12(   6)  ---------------------------------------


    POTLOK:  cpu time    0.10: real time    0.10
    SETDIJ:  cpu time    0.01: real time    0.01
     EDDAV:  cpu time    1.52: real time    1.53
 BZINTS: Fermi energy:  0.323314; 60.000000 electrons
         Band energy:-116.775249;  BLOECHL correction: -0.275788
       DOS:  cpu time    0.00: real time    0.00
    CHARGE:  cpu time    0.09: real time    0.09
    MIXING:  cpu time    0.01: real time    0.01
    --------------------------------------------
      LOOP:  cpu time    1.73: real time    1.75

 eigenvalue-minimisations  :   792
 total energy-change (2. order) : 0.6478303E-05  (-0.2254645E-05)
 number of electron      60.0000012 magnetization 
 augmentation part       25.3990393 magnetization 

 Broyden mixing:
  rms(total) = 0.88413E-03    rms(broyden)= 0.88406E-03
  rms(prec ) = 0.12284E-02
  weight for this iteration     100.00

 eigenvalues of (default mixing * dielectric matrix)
  average eigenvalue GAMMA=   0.8023
  2.2049  0.7824  0.7824  0.0820  0.1600

 Free energy of the ion-electron system (eV)
  ---------------------------------------------------
  alpha Z        PSCENC =       305.72458370
  Ewald energy   TEWEN  =     12658.08789648
  -1/2 Hartree   DENC   =    -17921.99396979
  -exchange  EXHF       =         0.00000000
  -V(xc)+E(xc)   XCENC  =      -177.93136974
  PAW double counting   =      4154.68456802    -3790.37377319
  entropy T*S    EENTRO =         0.00000000
  eigenvalues    EBANDS =      -116.77524887
  atomic energy  EATOM  =      4858.47751158
  ---------------------------------------------------
  free energy    TOTEN  =       -30.09980181 eV

  energy without entropy =      -30.09980181  energy(sigma->0) =      -30.09980181


--------------------------------------------------------------------------------------------------------




----------------------------------------- Iteration   12(   7)  ---------------------------------------


    POTLOK:  cpu time    0.10: real time    0.10
    SETDIJ:  cpu time    0.02: real time    0.01
     EDDAV:  cpu time    0.86: real time    0.87
 BZINTS: Fermi energy:  0.323253; 60.000000 electrons
         Band energy:-116.778240;  BLOECHL correction: -0.275799
       DOS:  cpu time    0.00: real time    0.00
    CHARGE:  cpu time    0.10: real time    0.10
    MIXING:  cpu time    0.00: real time    0.01
    --------------------------------------------
      LOOP:  cpu time    1.08: real time    1.10

 eigenvalue-minimisations  :   360
 total energy-change (2. order) :-0.5903976E-05  (-0.4049028E-06)
 number of electron      60.0000012 magnetization 
 augmentation part       25.3990382 magnetization 

 Broyden mixing:
  rms(total) = 0.16143E-03    rms(broyden)= 0.16119E-03
  rms(prec ) = 0.21598E-03
  weight for this iteration     100.00

 eigenvalues of (default mixing * dielectric matrix)
  average eigenvalue GAMMA=   0.8716
  2.3750  0.8883  0.8883  0.8363  0.0820  0.1598

 Free energy of the ion-electron system (eV)
  ---------------------------------------------------
  alpha Z        PSCENC =       305.72458370
  Ewald energy   TEWEN  =     12658.08789648
  -1/2 Hartree   DENC   =    -17921.99000899
  -exchange  EXHF       =         0.00000000
  -V(xc)+E(xc)   XCENC  =      -177.93136958
  PAW double counting   =      4154.71233429    -3790.40251561
  entropy T*S    EENTRO =         0.00000000
  eigenvalues    EBANDS =      -116.77823957
  atomic energy  EATOM  =      4858.47751158
  ---------------------------------------------------
  free energy    TOTEN  =       -30.09980771 eV

  energy without entropy =      -30.09980771  energy(sigma->0) =      -30.09980771


--------------------------------------------------------------------------------------------------------




----------------------------------------- Iteration   12(   8)  ---------------------------------------


    POTLOK:  cpu time    0.10: real time    0.10
    SETDIJ:  cpu time    0.01: real time    0.01
     EDDAV:  cpu time    0.82: real time    0.83
 BZINTS: Fermi energy:  0.323123; 60.000000 electrons
         Band energy:-116.785290;  BLOECHL correction: -0.275795
       DOS:  cpu time    0.00: real time    0.00
    CHARGE:  cpu time    0.09: real time    0.09
    MIXING:  cpu time    0.00: real time    0.01
    --------------------------------------------
      LOOP:  cpu time    1.04: real time    1.06

 eigenvalue-minimisations  :   328
 total energy-change (2. order) : 0.5386451E-05  (-0.2183512E-06)
 number of electron      60.0000012 magnetization 
 augmentation part       25.3991199 magnetization 

 Broyden mixing:
  rms(total) = 0.13748E-03    rms(broyden)= 0.13743E-03
  rms(prec ) = 0.15920E-03
  weight for this iteration     100.00

 eigenvalues of (default mixing * dielectric matrix)
  average eigenvalue GAMMA=   0.8703
  2.3309  1.0776  1.0776  0.0820  0.1598  0.8025  0.5619

 Free energy of the ion-electron system (eV)
  ---------------------------------------------------
  alpha Z        PSCENC =       305.72458370
  Ewald energy   TEWEN  =     12658.08789648
  -1/2 Hartree   DENC   =    -17921.98268149
  -exchange  EXHF       =         0.00000000
  -V(xc)+E(xc)   XCENC  =      -177.93139169
  PAW double counting   =      4154.71736533    -3790.40779613
  entropy T*S    EENTRO =         0.00000000
  eigenvalues    EBANDS =      -116.78529010
  atomic energy  EATOM  =      4858.47751158
  ---------------------------------------------------
  free energy    TOTEN  =       -30.09980232 eV

  energy without entropy =      -30.09980232  energy(sigma->0) =      -30.09980232


--------------------------------------------------------------------------------------------------------




----------------------------------------- Iteration   12(   9)  ---------------------------------------


    POTLOK:  cpu time    0.10: real time    0.10
    SETDIJ:  cpu time    0.01: real time    0.01
     EDDAV:  cpu time    0.76: real time    0.77
 BZINTS: Fermi energy:  0.323166; 60.000000 electrons
         Band energy:-116.782603;  BLOECHL correction: -0.275793
       DOS:  cpu time    0.00: real time    0.00
    CHARGE:  cpu time    0.10: real time    0.10
    MIXING:  cpu time    0.01: real time    0.01
    --------------------------------------------
      LOOP:  cpu time    0.98: real time    1.00

 eigenvalue-minimisations  :   288
 total energy-change (2. order) : 0.1615495E-05  (-0.4751887E-07)
 number of electron      60.0000012 magnetization 
 augmentation part       25.3990680 magnetization 

 Broyden mixing:
  rms(total) = 0.11573E-03    rms(broyden)= 0.11572E-03
  rms(prec ) = 0.12534E-03
  weight for this iteration     100.00

 eigenvalues of (default mixing * dielectric matrix)
  average eigenvalue GAMMA=   0.8611
  2.2941  1.2346  1.2346  0.0820  0.1598  0.6714  0.6714  0.5412

 Free energy of the ion-electron system (eV)
  ---------------------------------------------------
  alpha Z        PSCENC =       305.72458370
  Ewald energy   TEWEN  =     12658.08789648
  -1/2 Hartree   DENC   =    -17921.98530836
  -exchange  EXHF       =         0.00000000
  -V(xc)+E(xc)   XCENC  =      -177.93139160
  PAW double counting   =      4154.71822004    -3790.40870965
  entropy T*S    EENTRO =         0.00000000
  eigenvalues    EBANDS =      -116.78260290
  atomic energy  EATOM  =      4858.47751158
  ---------------------------------------------------
  free energy    TOTEN  =       -30.09980071 eV

  energy without entropy =      -30.09980071  energy(sigma->0) =      -30.09980071


--------------------------------------------------------------------------------------------------------




----------------------------------------- Iteration   12(  10)  ---------------------------------------


    POTLOK:  cpu time    0.10: real time    0.10
    SETDIJ:  cpu time    0.01: real time    0.01
     EDDAV:  cpu time    0.76: real time    0.77
 BZINTS: Fermi energy:  0.323159; 60.000000 electrons
         Band energy:-116.782953;  BLOECHL correction: -0.275794
       DOS:  cpu time    0.00: real time    0.00
    --------------------------------------------
      LOOP:  cpu time    0.88: real time    0.89

 eigenvalue-minimisations  :   288
 total energy-change (2. order) :-0.3247178E-06  (-0.9526777E-08)
 number of electron      60.0000012 magnetization 
 augmentation part       25.3990680 magnetization 

 Free energy of the ion-electron system (eV)
  ---------------------------------------------------
  alpha Z        PSCENC =       305.72458370
  Ewald energy   TEWEN  =     12658.08789648
  -1/2 Hartree   DENC   =    -17921.98493148
  -exchange  EXHF       =         0.00000000
  -V(xc)+E(xc)   XCENC  =      -177.93140664
  PAW double counting   =      4154.71797176    -3790.40847375
  entropy T*S    EENTRO =         0.00000000
  eigenvalues    EBANDS =      -116.78295268
  atomic energy  EATOM  =      4858.47751158
  ---------------------------------------------------
  free energy    TOTEN  =       -30.09980103 eV

  energy without entropy =      -30.09980103  energy(sigma->0) =      -30.09980103


--------------------------------------------------------------------------------------------------------




 average (electrostatic) potential at core
  the test charge radii are     1.1199
  (the norm of the test charge is              1.0000)
       1 -50.8746       2 -51.2170       3 -51.1779       4 -51.1781       5 -51.2169
       6 -50.8749
 
 
 
 E-fermi :   0.3232     XC(G=0):  -8.1454     alpha+bet : -6.5480


 k-point   1 :       0.0000    0.0000    0.0000
  band No.  band energies     occupation 
      1      -6.2602      2.00000
      2      -5.6411      2.00000
      3      -4.9193      2.00000
      4      -4.6043      2.00000
      5      -4.3500      2.00000
      6      -4.3461      2.00000
      7      -2.3722      2.00000
      8      -2.3582      2.00000
      9      -2.2825      2.00000
     10      -2.2825      2.00000
     11      -2.2303      2.00000
     12      -2.2303      2.00000
     13      -2.1446      2.00000
     14      -2.1236      2.00000
     15      -2.1236      2.00000
     16      -2.0488      2.00000
     17      -2.0488      2.00000
     18      -1.8931      2.00000
     19      -1.8931      2.00000
     20      -1.8592      2.00000
     21      -1.8592      2.00000
     22      -1.5556      2.00000
     23      -0.8202      2.00000
     24      -0.8202      2.00000
     25      -0.7713      2.00000
     26      -0.7713      2.00000
     27      -0.5720      2.00000
     28      -0.5720      2.00000
     29      -0.2950      2.00000
     30      -0.2299      2.00000
     31      -0.2299      2.00000
     32       0.1106      2.00000
     33       0.1106      2.00000
     34       0.2854      2.00000
     35       0.2854      0.05213
     36       1.2596      0.00000

 k-point   2 :       0.1429    0.0000    0.0000
  band No.  band energies     occupation 
      1      -5.6634      2.00000
      2      -5.0763      2.00000
      3      -4.3849      2.00000
      4      -4.1629      2.00000
      5      -3.8989      2.00000
      6      -3.8398      2.00000
      7      -2.8331      2.00000
      8      -2.6590      2.00000
      9      -2.5930      2.00000
     10      -2.4707      2.00000
     11      -2.3818      2.00000
     12      -2.1881      2.00000
     13      -2.0340      2.00000
     14      -2.0179      2.00000
     15      -1.9798      2.00000
     16      -1.9073      2.00000
     17      -1.9041      2.00000
     18      -1.8061      2.00000
     19      -1.7428      2.00000
     20      -1.7320      2.00000
     21      -1.5549      2.00000
     22      -1.5384      2.00000
     23      -1.4976      2.00000
     24      -1.1136      2.00000
     25      -1.0749      2.00000
     26      -0.9061      2.00000
     27      -0.7663      2.00000
     28      -0.7301      2.00000
     29      -0.5360      2.00000
     30      -0.4297      2.00000
     31      -0.2233      2.00000
     32       0.1224      2.00000
     33       0.2371      2.00801
     34       0.3144      0.84013
     35       1.3033     -0.00731
     36       2.6146      0.00000

 k-point   3 :       0.2857    0.0000    0.0000
  band No.  band energies     occupation 
      1      -4.5155      2.00000
      2      -4.1980      2.00000
      3      -4.0431      2.00000
      4      -3.8750      2.00000
      5      -3.6859      2.00000
      6      -3.5451      2.00000
      7      -3.3498      2.00000
      8      -3.2668      2.00000
      9      -2.9133      2.00000
     10      -2.5305      2.00000
     11      -2.4656      2.00000
     12      -2.1563      2.00000
     13      -2.0824      2.00000
     14      -1.9819      2.00000
     15      -1.9738      2.00000
     16      -1.7020      2.00000
     17      -1.6019      2.00000
     18      -1.3931      2.00000
     19      -1.2220      2.00000
     20      -1.2057      2.00000
     21      -1.0687      2.00000
     22      -0.9417      2.00000
     23      -0.7507      2.00000
     24      -0.7342      2.00000
     25      -0.6262      2.00000
     26      -0.5993      2.00000
     27      -0.4918      2.04153
     28      -0.4177      2.11923
     29      -0.2809      2.23111
     30      -0.1510      2.16706
     31       0.0802      1.28548
     32       0.1361      1.11701
     33       0.3675      0.56458
     34       1.3530     -0.00227
     35       2.8985      0.00000
     36       4.5812      0.00000

 k-point   4 :       0.4286    0.0000    0.0000
  band No.  band energies     occupation 
      1      -4.4889      2.00000
      2      -4.4438      2.00000
      3      -4.2439      2.00000
      4      -4.1706      2.00000
      5      -4.0591      2.00000
      6      -3.8343      2.00000
      7      -3.8103      2.00000
      8      -3.6917      2.00000
      9      -3.2038      2.00000
     10      -2.6656      2.00000
     11      -2.4043      2.00000
     12      -2.3081      2.00000
     13      -2.1864      2.00000
     14      -1.7548      2.00000
     15      -1.7060      2.00000
     16      -1.4052      2.00000
     17      -1.1993      2.00000
     18      -0.9298      2.00000
     19      -0.5818      2.00000
     20      -0.4691      2.00000
     21      -0.1032      2.00000
     22      -0.0725      2.00000
     23       0.1874      2.00000
     24       0.1915      2.00000
     25       0.2491      2.00000
     26       0.2718      2.00000
     27       0.3465      1.48802
     28       0.4147      0.71508
     29       0.4672      0.21740
     30       0.5179      0.12393
     31       1.1350     -0.02648
     32       1.8476     -0.02872
     33       2.2139      0.00000
     34       3.0430      0.00000
     35       4.4064      0.00000
     36       5.6977      0.00000

 k-point   5 :       0.2857    0.1429    0.0000
  band No.  band energies     occupation 
      1      -4.6728      2.00000
      2      -4.2520      2.00000
      3      -3.7389      2.00000
      4      -3.5332      2.00000
      5      -3.4143      2.00000
      6      -3.2793      2.00000
      7      -3.1497      2.00000
      8      -3.1101      2.00000
      9      -2.9424      2.00000
     10      -2.8456      2.00000
     11      -2.5804      2.00000
     12      -2.5042      2.00000
     13      -2.3996      2.00000
     14      -2.2839      2.00000
     15      -2.1147      2.00000
     16      -2.0195      2.00000
     17      -1.9609      2.00000
     18      -1.7209      2.00000
     19      -1.5582      2.00000
     20      -1.3808      2.00000
     21      -1.2576      2.00000
     22      -1.1352      2.00000
     23      -1.1233      2.00000
     24      -0.8692      2.00000
     25      -0.7867      2.00000
     26      -0.5766      2.00000
     27      -0.5152      2.00000
     28      -0.4553      2.00000
     29      -0.2598      2.00000
     30      -0.2283      2.13901
     31      -0.0516      1.63988
     32       0.1348      1.41991
     33       0.1608      1.34169
     34       1.1580     -0.15034
     35       2.5153      0.00000
     36       4.0801      0.00000

 k-point   6 :       0.4286    0.1429    0.0000
  band No.  band energies     occupation 
      1      -4.0665      2.00000
      2      -4.0323      2.00000
      3      -3.8374      2.00000
      4      -3.6921      2.00000
      5      -3.6552      2.00000
      6      -3.5108      2.00000
      7      -3.4005      2.00000
      8      -3.1462      2.00000
      9      -3.0550      2.00000
     10      -2.7997      2.00000
     11      -2.4544      2.00000
     12      -2.4159      2.00000
     13      -2.2913      2.00000
     14      -2.0077      2.00000
     15      -1.9513      2.00000
     16      -1.8602      2.00000
     17      -1.5784      2.00000
     18      -1.4619      2.00000
     19      -1.3437      2.00000
     20      -1.2043      2.00000
     21      -1.0004      2.00000
     22      -0.7704      2.00000
     23      -0.7304      2.00000
     24      -0.5449      2.00000
     25      -0.2762      2.00000
     26      -0.2545      2.00000
     27       0.1891      2.00800
     28       0.2104      1.99248
     29       0.3100      1.52494
     30       0.4438      0.48369
     31       1.3127     -0.11533
     32       1.4931     -0.13870
     33       1.9091     -0.11951
     34       2.9509      0.00000
     35       4.4252      0.00000
     36       6.1101      0.00000

 k-point   7 :      -0.4286    0.1429    0.0000
  band No.  band energies     occupation 
      1      -4.2972      2.00000
      2      -4.1482      2.00000
      3      -4.0280      2.00000
      4      -3.8994      2.00000
      5      -3.7422      2.00000
      6      -3.6928      2.00000
      7      -3.5220      2.00000
      8      -3.3561      2.00000
      9      -3.1436      2.00000
     10      -2.8374      2.00000
     11      -2.7019      2.00000
     12      -2.1976      2.00000
     13      -2.1592      2.00000
     14      -2.0213      2.00000
     15      -1.8286      2.00000
     16      -1.6461      2.00000
     17      -1.3372      2.00000
     18      -1.0983      2.00000
     19      -1.0463      2.00000
     20      -0.6445      2.00000
     21      -0.5547      2.00000
     22      -0.5036      2.00000
     23      -0.2209      2.00000
     24      -0.0605      2.00000
     25       0.0935      2.00000
     26       0.1020      2.00000
     27       0.1797      2.14490
     28       0.2157      1.96127
     29       0.3774      0.02506
     30       0.4831      0.00000
     31       3.4656      0.00000
     32       3.9946      0.00000
     33       4.4471      0.00000
     34       4.7828      0.00000
     35       5.0517      0.00000
     36       5.2058      0.00000

 k-point   8 :      -0.4286    0.2857    0.0000
  band No.  band energies     occupation 
      1      -3.7977      2.00000
      2      -3.7906      2.00000
      3      -3.5707      2.00000
      4      -3.3977      2.00000
      5      -3.3222      2.00000
      6      -3.1829      2.00000
      7      -3.1713      2.00000
      8      -3.0196      2.00000
      9      -3.0126      2.00000
     10      -2.7658      2.00000
     11      -2.7550      2.00000
     12      -2.4396      2.00000
     13      -2.3875      2.00000
     14      -2.1858      2.00000
     15      -2.0220      2.00000
     16      -1.7945      2.00000
     17      -1.7457      2.00000
     18      -1.6174      2.00000
     19      -1.5879      2.00000
     20      -1.1685      2.00000
     21      -1.0832      2.00000
     22      -0.8908      2.00000
     23      -0.7451      2.00000
     24      -0.6875      2.00000
     25      -0.3459      2.00000
     26      -0.0870      2.00000
     27       0.1654      2.00000
     28       0.2426      2.00000
     29       0.2758      2.01165
     30       0.4333      0.00000
     31       4.1108      0.00000
     32       4.4981      0.00000
     33       5.1309      0.00000
     34       6.0591      0.00000
     35       7.1879      0.00000
     36       7.8563      0.00000


--------------------------------------------------------------------------------------------------------


 soft charge-density along one line, spin component           1
         0         1         2         3         4         5         6         7         8         9
 total charge-density along one line
 
 pseudopotential strength for first ion, spin component:           1
-11.401   0.000   0.000   0.000   0.000   0.000  -0.011   0.000   0.000   0.000   0.110   0.000   0.000   0.000   0.000   0.000
  0.000   0.000 -11.288   0.000   0.000   0.000   0.000   0.000  -0.011   0.000   0.000   0.000   0.092   0.000   0.000   0.000
  0.000   0.000   0.000   0.000 -11.270   0.000   0.000   0.000   0.000   0.000   0.000   0.000   0.000   0.000   0.089   0.000
 -0.011   0.000   0.000   0.000   0.000   0.000 -11.288   0.000   0.000   0.000   0.002   0.000   0.000   0.000   0.000   0.000
  0.000   0.000  -0.011   0.000   0.000   0.000   0.000   0.000 -11.401   0.000   0.000   0.000   0.002   0.000   0.000   0.000
  0.110   0.000   0.000   0.000   0.000   0.000   0.002   0.000   0.000   0.000   0.323   0.000   0.000   0.000   0.000   0.000
  0.000   0.000   0.092   0.000   0.000   0.000   0.000   0.000   0.002   0.000   0.000   0.000   0.326   0.000   0.000   0.000
  0.000   0.000   0.000   0.000   0.089   0.000   0.000   0.000   0.000   0.000   0.000   0.000   0.000   0.000   0.327   0.000
  0.002   0.000   0.000   0.000   0.000   0.000   0.092   0.000   0.000   0.000   0.000   0.000   0.000   0.000   0.000   0.000
  0.000   0.000   0.002   0.000   0.000   0.000   0.000   0.000   0.110   0.000   0.000   0.000   0.000   0.000   0.000   0.000
  0.000   0.000   0.000   0.000  -0.029   0.000   0.000   0.000   0.000   0.000   0.000   0.000   0.000   0.000   0.004   0.000
  0.000   0.000   0.000   0.000   0.003   0.000   0.000   0.000   0.000   0.000   0.000   0.000   0.000   0.000   0.000   0.000
  0.000   0.000  -0.011   0.000   0.000   0.000   0.000   0.000   0.000   0.000   0.000   0.000   0.002   0.000   0.000   0.000
  0.000   0.000   0.000   0.000  -0.012   0.000   0.000   0.000   0.000   0.000   0.000   0.000   0.000   0.000   0.002   0.000
  0.000   0.000   0.000   0.000   0.000   0.000  -0.011   0.000   0.000   0.000   0.000   0.000   0.000   0.000   0.000   0.000
  0.000   0.000   0.010   0.000   0.000   0.000   0.000   0.000   0.000   0.000   0.000   0.000  -0.002   0.000   0.000   0.000
  0.000   0.000   0.000   0.000   0.010   0.000   0.000   0.000   0.000   0.000   0.000   0.000   0.000   0.000  -0.002   0.000
  0.000   0.000   0.000   0.000   0.000   0.000   0.010   0.000   0.000   0.000   0.000   0.000   0.000   0.000   0.000   0.000
 total augmentation occupancy for first ion, spin component:           1
  1.724   0.000   0.000  -0.041   0.000   0.132   0.000   0.000   0.021   0.000   0.000   0.000   0.000   0.000   0.003   0.000
  0.000   1.855   0.000   0.000  -0.041   0.000   0.051   0.000   0.000   0.022   0.000   0.000  -0.015   0.000   0.000  -0.015
  0.000   0.000   1.833   0.000   0.000   0.000   0.000   0.078   0.000   0.000   0.016  -0.063   0.000   0.025   0.000   0.000
 -0.041   0.000   0.000   1.855   0.000   0.022   0.000   0.000   0.051   0.000   0.000   0.000   0.000   0.000  -0.015   0.000
  0.000  -0.041   0.000   0.000   1.724   0.000   0.021   0.000   0.000   0.132   0.000   0.000   0.003   0.000   0.000   0.001
  0.132   0.000   0.000   0.022   0.000   0.113   0.000   0.000   0.003   0.000   0.000   0.000   0.000   0.000   0.006   0.000
  0.000   0.051   0.000   0.000   0.021   0.000   0.090   0.000   0.000   0.003   0.000   0.000   0.033   0.000   0.000  -0.001
  0.000   0.000   0.078   0.000   0.000   0.000   0.000   0.117   0.000   0.000  -0.112   0.029   0.000   0.045   0.000   0.000
  0.021   0.000   0.000   0.051   0.000   0.003   0.000   0.000   0.090   0.000   0.000   0.000   0.000   0.000   0.033   0.000
  0.000   0.022   0.000   0.000   0.132   0.000   0.003   0.000   0.000   0.113   0.000   0.000   0.006   0.000   0.000   0.000
  0.000   0.000   0.016   0.000   0.000   0.000   0.000  -0.112   0.000   0.000   0.999  -0.326   0.000   0.072   0.000   0.000
  0.000   0.000  -0.063   0.000   0.000   0.000   0.000   0.029   0.000   0.000  -0.326   0.121   0.000  -0.039   0.000   0.000
  0.000  -0.015   0.000   0.000   0.003   0.000   0.033   0.000   0.000   0.006   0.000   0.000   0.110   0.000   0.000  -0.002
  0.000   0.000   0.025   0.000   0.000   0.000   0.000   0.045   0.000   0.000   0.072  -0.039   0.000   0.062   0.000   0.000
  0.003   0.000   0.000  -0.015   0.000   0.006   0.000   0.000   0.033   0.000   0.000   0.000   0.000   0.000   0.110   0.000
  0.000  -0.015   0.000   0.000   0.001   0.000  -0.001   0.000   0.000   0.000   0.000   0.000  -0.002   0.000   0.000   0.000
  0.000   0.000  -0.020   0.000   0.000   0.000   0.000  -0.001   0.000   0.000  -0.004   0.002   0.000  -0.001   0.000   0.000
  0.001   0.000   0.000  -0.015   0.000   0.000   0.000   0.000  -0.001   0.000   0.000   0.000   0.000   0.000  -0.002   0.000


------------------------ aborting loop because EDIFF is reached ----------------------------------------


    CHARGE:  cpu time    0.10: real time    0.09
    FORLOC:  cpu time    0.01: real time    0.01
    FORNL :  cpu time    0.44: real time    0.45
    STRESS:  cpu time    0.78: real time    0.82
    FORCOR:  cpu time    0.12: real time    0.12
    FORHAR:  cpu time    0.04: real time    0.04
    MIXING:  cpu time    0.01: real time    0.01

  FORCE on cell =-STRESS in cart. coord.  units (eV):
  Direction    XX          YY          ZZ          XY          YZ          ZX
  --------------------------------------------------------------------------------------
  Alpha Z   305.72458   305.72458   305.72458
  Ewald   15984.71345 15984.71345-19311.33913     0.00000     0.00000     0.00000
  Hartree 17436.46831 17436.46831-16950.92258     0.00000     0.00000     0.00000
  E(xc)    -313.70721  -313.70723  -314.86112     0.00001     0.00000     0.00000
  Local  -34164.31335-34164.31363 35511.56669     0.00024     0.00000     0.00000
  n-local  -332.60727  -308.64160  -323.14755     5.24569    -3.08309     1.51001
  augment   256.62484   256.62509   260.04885    -0.00022     0.00000     0.00000
  Kinetic   802.76253   823.43986   822.51337     5.28504     2.99136    -0.73481
  Fock        0.00000     0.00000     0.00000     0.00000     0.00000     0.00000
  -------------------------------------------------------------------------------------
  Total      -2.01264    -2.01264    -0.41689     0.00000     0.00000     0.00000
  in kB     -20.11385   -20.11385    -4.16627     0.00000     0.00000     0.00000
  external pressure =      -14.80 kB  Pullay stress =        0.00 kB


 VOLUME and BASIS-vectors are now :
 -----------------------------------------------------------------------------
  energy-cutoff  :      415.00
  volume of cell :      160.32
      direct lattice vectors                 reciprocal lattice vectors
     2.795185513  0.000000000  0.000000000     0.357758008 -0.206551682  0.000000000
     1.397592758  2.420701664  0.000000000     0.000000000  0.413103364  0.000000000
     0.000000000  0.000000000 23.693556493     0.000000000  0.000000000  0.042205568

  length of vectors
     2.795185513  2.795185515 23.693556493     0.413103364  0.413103364  0.042205568


 FORCES acting on ions
    electron-ion (+dipol)            ewald-force                    non-local-force                 convergence-correction
 -----------------------------------------------------------------------------------------------
   0.148E-06 0.114E-06 0.282E+04   0.256E-07 -.242E-07 -.282E+04   -.781E-17 -.520E-17 -.125E+01   -.398E-10 -.232E-10 -.846E-02
   0.397E-07 0.223E-07 -.569E+03   -.625E-09 0.591E-09 0.569E+03   0.434E-18 -.173E-17 -.271E-01   -.460E-10 -.263E-10 -.684E-03
   0.677E-06 0.391E-06 0.170E+04   0.964E-09 -.500E-10 -.170E+04   0.000E+00 0.000E+00 -.428E-01   -.539E-11 -.337E-11 -.555E-02
   0.694E-06 0.400E-06 -.170E+04   0.157E-09 0.697E-09 0.170E+04   0.000E+00 0.000E+00 0.428E-01   0.801E-12 0.761E-12 0.555E-02
   -.590E-06 -.340E-06 0.569E+03   0.569E-10 -.919E-09 -.569E+03   0.434E-18 0.173E-17 0.271E-01   0.442E-10 0.253E-10 0.682E-03
   -.359E-06 -.236E-06 -.282E+04   -.261E-07 0.238E-07 0.282E+04   0.520E-17 0.781E-17 0.125E+01   0.370E-10 0.216E-10 0.846E-02
 -----------------------------------------------------------------------------------------------
   0.609E-06 0.352E-06 -.133E-02   0.166E-12 -.707E-13 0.909E-12   -.173E-17 0.260E-17 0.000E+00   -.920E-11 -.524E-11 -.282E-05
 
 
 POSITION                                       TOTAL-FORCE (eV/Angst)
 -----------------------------------------------------------------------------------
      0.00000      0.00000      0.00715         0.000000      0.000000      0.017779
      0.00000      0.00000      6.83917         0.000000      0.000000      0.026782
      1.39759      0.80690      2.29430         0.000000      0.000000      0.013016
      1.39759      0.80690      9.11700         0.000000      0.000000     -0.013016
      2.79519      1.61380      4.57212         0.000000      0.000000     -0.026782
      2.79519      1.61380     11.40414         0.000000      0.000000     -0.017779
 -----------------------------------------------------------------------------------
    total drift:                                0.000001      0.000000     -0.001334


--------------------------------------------------------------------------------------------------------



  FREE ENERGIE OF THE ION-ELECTRON SYSTEM (eV)
  ---------------------------------------------------
  free  energy   TOTEN  =       -30.09980103 eV

  energy  without entropy=      -30.09980103  energy(sigma->0) =      -30.09980103
 
 d Force = 0.9049918E-04[ 0.831E-04, 0.979E-04]  d Energy =-0.1567102E-03 0.247E-03
 d Force =-0.1178426E+02[-0.118E+02,-0.118E+02]  d Ewald  =-0.1178426E+02 0.147E-07


--------------------------------------------------------------------------------------------------------


    POTLOK:  cpu time    0.11: real time    0.11


--------------------------------------------------------------------------------------------------------


 Conjugate gradient step on ions:
 trial-energy change:    0.000157  1 .order   -0.000090   -0.000098   -0.000083
  (g-gl).g = 0.149E-04      g.g   = 0.159E-04  gl.gl    = 0.128E-04
 g(Force)  = 0.159E-04   g(Stress)= 0.000E+00 ortho     = 0.145E-05
 gamma     =   1.16788
 trial     =   5.56019
 opt step  =  22.24078  (harmonic =  36.71663) maximal distance =0.00607998
 next E    =   -30.100281   (d E  =  -0.00032)


--------------------------------------------------------------------------------------------------------


    WAVPRE:  cpu time    0.03: real time    0.03
 FEWALD executed in parallel
    FEWALD:  cpu time    0.00: real time    0.00
    ORTHCH:  cpu time    0.11: real time    0.11
     LOOP+:  cpu time   15.81: real time   16.08


----------------------------------------- Iteration   13(   1)  ---------------------------------------


    POTLOK:  cpu time    0.10: real time    0.10
    SETDIJ:  cpu time    0.01: real time    0.01
     EDDAV:  cpu time    1.15: real time    1.15
 BZINTS: Fermi energy:  0.324008; 60.000000 electrons
         Band energy:-116.881538;  BLOECHL correction: -0.274555
       DOS:  cpu time    0.00: real time    0.00
    CHARGE:  cpu time    0.09: real time    0.09
    MIXING:  cpu time    0.00: real time    0.00
    --------------------------------------------
      LOOP:  cpu time    1.36: real time    1.37

 eigenvalue-minimisations  :   576
 total energy-change (2. order) : 0.1612415E-02  (-0.3580369E-01)
 number of electron      60.0000006 magnetization 
 augmentation part       25.3978992 magnetization 

 Broyden mixing:
  rms(total) = 0.77880E-02    rms(broyden)= 0.77820E-02
  rms(prec ) = 0.93657E-02
  weight for this iteration     100.00

 Free energy of the ion-electron system (eV)
  ---------------------------------------------------
  alpha Z        PSCENC =       305.72458370
  Ewald energy   TEWEN  =     12693.46670933
  -1/2 Hartree   DENC   =    -17957.27767457
  -exchange  EXHF       =         0.00000000
  -V(xc)+E(xc)   XCENC  =      -177.91725224
  PAW double counting   =      4154.71839773    -3790.40892610
  entropy T*S    EENTRO =         0.00000000
  eigenvalues    EBANDS =      -116.88153772
  atomic energy  EATOM  =      4858.47751158
  ---------------------------------------------------
  free energy    TOTEN  =       -30.09818829 eV

  energy without entropy =      -30.09818829  energy(sigma->0) =      -30.09818829


--------------------------------------------------------------------------------------------------------




----------------------------------------- Iteration   13(   2)  ---------------------------------------


    POTLOK:  cpu time    0.10: real time    0.10
    SETDIJ:  cpu time    0.01: real time    0.01
     EDDAV:  cpu time    1.61: real time    1.62
 BZINTS: Fermi energy:  0.335720; 60.000000 electrons
         Band energy:-116.243831;  BLOECHL correction: -0.274106
       DOS:  cpu time    0.00: real time    0.00
    CHARGE:  cpu time    0.09: real time    0.10
    MIXING:  cpu time    0.01: real time    0.00
    --------------------------------------------
      LOOP:  cpu time    1.83: real time    1.84

 eigenvalue-minimisations  :   864
 total energy-change (2. order) :-0.2311402E-02  (-0.2121390E-02)
 number of electron      60.0000007 magnetization 
 augmentation part       25.3965357 magnetization 

 Broyden mixing:
  rms(total) = 0.40379E-01    rms(broyden)= 0.40375E-01
  rms(prec ) = 0.62329E-01
  weight for this iteration     100.00

 eigenvalues of (default mixing * dielectric matrix)
  average eigenvalue GAMMA=   0.1188
  0.1188

 Free energy of the ion-electron system (eV)
  ---------------------------------------------------
  alpha Z        PSCENC =       305.72458370
  Ewald energy   TEWEN  =     12693.46670933
  -1/2 Hartree   DENC   =    -17957.90539778
  -exchange  EXHF       =         0.00000000
  -V(xc)+E(xc)   XCENC  =      -177.91923385
  PAW double counting   =      4154.84639646    -3790.54723799
  entropy T*S    EENTRO =         0.00000000
  eigenvalues    EBANDS =      -116.24383113
  atomic energy  EATOM  =      4858.47751158
  ---------------------------------------------------
  free energy    TOTEN  =       -30.10049970 eV

  energy without entropy =      -30.10049970  energy(sigma->0) =      -30.10049970


--------------------------------------------------------------------------------------------------------




----------------------------------------- Iteration   13(   3)  ---------------------------------------


    POTLOK:  cpu time    0.10: real time    0.10
    SETDIJ:  cpu time    0.01: real time    0.01
     EDDAV:  cpu time    1.43: real time    1.44
 BZINTS: Fermi energy:  0.325173; 60.000000 electrons
         Band energy:-116.831937;  BLOECHL correction: -0.275161
       DOS:  cpu time    0.00: real time    0.00
    CHARGE:  cpu time    0.09: real time    0.09
    MIXING:  cpu time    0.00: real time    0.01
    --------------------------------------------
      LOOP:  cpu time    1.64: real time    1.66

 eigenvalue-minimisations  :   736
 total energy-change (2. order) : 0.6845792E-03  (-0.1293854E-02)
 number of electron      60.0000006 magnetization 
 augmentation part       25.3986880 magnetization 

 Broyden mixing:
  rms(total) = 0.13617E-01    rms(broyden)= 0.13604E-01
  rms(prec ) = 0.17649E-01
  weight for this iteration     100.00

 eigenvalues of (default mixing * dielectric matrix)
  average eigenvalue GAMMA=   0.2164
  0.3486  0.0843

 Free energy of the ion-electron system (eV)
  ---------------------------------------------------
  alpha Z        PSCENC =       305.72458370
  Ewald energy   TEWEN  =     12693.46670933
  -1/2 Hartree   DENC   =    -17957.31628071
  -exchange  EXHF       =         0.00000000
  -V(xc)+E(xc)   XCENC  =      -177.91883933
  PAW double counting   =      4154.83946529    -3790.54102767
  entropy T*S    EENTRO =         0.00000000
  eigenvalues    EBANDS =      -116.83193729
  atomic energy  EATOM  =      4858.47751158
  ---------------------------------------------------
  free energy    TOTEN  =       -30.09981512 eV

  energy without entropy =      -30.09981512  energy(sigma->0) =      -30.09981512


--------------------------------------------------------------------------------------------------------




----------------------------------------- Iteration   13(   4)  ---------------------------------------


    POTLOK:  cpu time    0.10: real time    0.11
    SETDIJ:  cpu time    0.01: real time    0.01
     EDDAV:  cpu time    1.57: real time    1.58
 BZINTS: Fermi energy:  0.324383; 60.000000 electrons
         Band energy:-116.827325;  BLOECHL correction: -0.274638
       DOS:  cpu time    0.00: real time    0.00
    CHARGE:  cpu time    0.09: real time    0.09
    MIXING:  cpu time    0.00: real time    0.01
    --------------------------------------------
      LOOP:  cpu time    1.79: real time    1.81

 eigenvalue-minimisations  :   844
 total energy-change (2. order) : 0.7378985E-03  (-0.2338717E-03)
 number of electron      60.0000007 magnetization 
 augmentation part       25.3983458 magnetization 

 Broyden mixing:
  rms(total) = 0.10507E-01    rms(broyden)= 0.10502E-01
  rms(prec ) = 0.12274E-01
  weight for this iteration     100.00

 eigenvalues of (default mixing * dielectric matrix)
  average eigenvalue GAMMA=   0.2140
  0.3816  0.1788  0.0815

 Free energy of the ion-electron system (eV)
  ---------------------------------------------------
  alpha Z        PSCENC =       305.72458370
  Ewald energy   TEWEN  =     12693.46670933
  -1/2 Hartree   DENC   =    -17957.31960955
  -exchange  EXHF       =         0.00000000
  -V(xc)+E(xc)   XCENC  =      -177.91856739
  PAW double counting   =      4154.87128018    -3790.57366000
  entropy T*S    EENTRO =         0.00000000
  eigenvalues    EBANDS =      -116.82732505
  atomic energy  EATOM  =      4858.47751158
  ---------------------------------------------------
  free energy    TOTEN  =       -30.09907722 eV

  energy without entropy =      -30.09907722  energy(sigma->0) =      -30.09907722


--------------------------------------------------------------------------------------------------------




----------------------------------------- Iteration   13(   5)  ---------------------------------------


    POTLOK:  cpu time    0.10: real time    0.11
    SETDIJ:  cpu time    0.01: real time    0.01
     EDDAV:  cpu time    1.51: real time    1.52
 BZINTS: Fermi energy:  0.324998; 60.000000 electrons
         Band energy:-116.828391;  BLOECHL correction: -0.274863
       DOS:  cpu time    0.00: real time    0.00
    CHARGE:  cpu time    0.10: real time    0.10
    MIXING:  cpu time    0.00: real time    0.01
    --------------------------------------------
      LOOP:  cpu time    1.74: real time    1.76

 eigenvalue-minimisations  :   804
 total energy-change (2. order) :-0.2297916E-03  (-0.5813030E-04)
 number of electron      60.0000006 magnetization 
 augmentation part       25.3985336 magnetization 

 Broyden mixing:
  rms(total) = 0.45450E-02    rms(broyden)= 0.45429E-02
  rms(prec ) = 0.48610E-02
  weight for this iteration     100.00

 eigenvalues of (default mixing * dielectric matrix)
  average eigenvalue GAMMA=   0.7099
  1.6693  0.9298  0.0815  0.1590

 Free energy of the ion-electron system (eV)
  ---------------------------------------------------
  alpha Z        PSCENC =       305.72458370
  Ewald energy   TEWEN  =     12693.46670933
  -1/2 Hartree   DENC   =    -17957.31772789
  -exchange  EXHF       =         0.00000000
  -V(xc)+E(xc)   XCENC  =      -177.91864427
  PAW double counting   =      4154.89273327    -3790.59608195
  entropy T*S    EENTRO =         0.00000000
  eigenvalues    EBANDS =      -116.82839078
  atomic energy  EATOM  =      4858.47751158
  ---------------------------------------------------
  free energy    TOTEN  =       -30.09930701 eV

  energy without entropy =      -30.09930701  energy(sigma->0) =      -30.09930701


--------------------------------------------------------------------------------------------------------




----------------------------------------- Iteration   13(   6)  ---------------------------------------


    POTLOK:  cpu time    0.10: real time    0.10
    SETDIJ:  cpu time    0.01: real time    0.01
     EDDAV:  cpu time    1.54: real time    1.55
 BZINTS: Fermi energy:  0.324874; 60.000000 electrons
         Band energy:-116.841082;  BLOECHL correction: -0.274847
       DOS:  cpu time    0.00: real time    0.00
    CHARGE:  cpu time    0.09: real time    0.09
    MIXING:  cpu time    0.00: real time    0.01
    --------------------------------------------
      LOOP:  cpu time    1.75: real time    1.77

 eigenvalue-minimisations  :   816
 total energy-change (2. order) : 0.4870615E-04  (-0.2015618E-04)
 number of electron      60.0000006 magnetization 
 augmentation part       25.3983169 magnetization 

 Broyden mixing:
  rms(total) = 0.27937E-02    rms(broyden)= 0.27934E-02
  rms(prec ) = 0.39232E-02
  weight for this iteration     100.00

 eigenvalues of (default mixing * dielectric matrix)
  average eigenvalue GAMMA=   0.8039
  2.2099  0.7839  0.7839  0.0814  0.1605

 Free energy of the ion-electron system (eV)
  ---------------------------------------------------
  alpha Z        PSCENC =       305.72458370
  Ewald energy   TEWEN  =     12693.46670933
  -1/2 Hartree   DENC   =    -17957.30122860
  -exchange  EXHF       =         0.00000000
  -V(xc)+E(xc)   XCENC  =      -177.91829370
  PAW double counting   =      4155.02862366    -3790.73608185
  entropy T*S    EENTRO =         0.00000000
  eigenvalues    EBANDS =      -116.84108242
  atomic energy  EATOM  =      4858.47751158
  ---------------------------------------------------
  free energy    TOTEN  =       -30.09925830 eV

  energy without entropy =      -30.09925830  energy(sigma->0) =      -30.09925830


--------------------------------------------------------------------------------------------------------




----------------------------------------- Iteration   13(   7)  ---------------------------------------


    POTLOK:  cpu time    0.10: real time    0.10
    SETDIJ:  cpu time    0.01: real time    0.01
     EDDAV:  cpu time    1.61: real time    1.62
 BZINTS: Fermi energy:  0.324591; 60.000000 electrons
         Band energy:-116.855766;  BLOECHL correction: -0.274878
       DOS:  cpu time    0.00: real time    0.00
    CHARGE:  cpu time    0.10: real time    0.09
    MIXING:  cpu time    0.00: real time    0.01
    --------------------------------------------
      LOOP:  cpu time    1.83: real time    1.85

 eigenvalue-minimisations  :   872
 total energy-change (2. order) :-0.1065845E-04  (-0.5071459E-05)
 number of electron      60.0000006 magnetization 
 augmentation part       25.3983625 magnetization 

 Broyden mixing:
  rms(total) = 0.55811E-03    rms(broyden)= 0.55734E-03
  rms(prec ) = 0.70433E-03
  weight for this iteration     100.00

 eigenvalues of (default mixing * dielectric matrix)
  average eigenvalue GAMMA=   0.8878
  2.3424  0.9772  0.9772  0.7886  0.0814  0.1603

 Free energy of the ion-electron system (eV)
  ---------------------------------------------------
  alpha Z        PSCENC =       305.72458370
  Ewald energy   TEWEN  =     12693.46670933
  -1/2 Hartree   DENC   =    -17957.28341266
  -exchange  EXHF       =         0.00000000
  -V(xc)+E(xc)   XCENC  =      -177.91833039
  PAW double counting   =      4155.10672495    -3790.81728908
  entropy T*S    EENTRO =         0.00000000
  eigenvalues    EBANDS =      -116.85576639
  atomic energy  EATOM  =      4858.47751158
  ---------------------------------------------------
  free energy    TOTEN  =       -30.09926896 eV

  energy without entropy =      -30.09926896  energy(sigma->0) =      -30.09926896


--------------------------------------------------------------------------------------------------------




----------------------------------------- Iteration   13(   8)  ---------------------------------------


    POTLOK:  cpu time    0.10: real time    0.10
    SETDIJ:  cpu time    0.01: real time    0.01
     EDDAV:  cpu time    0.88: real time    0.89
 BZINTS: Fermi energy:  0.324264; 60.000000 electrons
         Band energy:-116.872628;  BLOECHL correction: -0.274867
       DOS:  cpu time    0.00: real time    0.00
    CHARGE:  cpu time    0.09: real time    0.09
    MIXING:  cpu time    0.00: real time    0.01
    --------------------------------------------
      LOOP:  cpu time    1.10: real time    1.12

 eigenvalue-minimisations  :   372
 total energy-change (2. order) : 0.1791863E-04  (-0.2514006E-06)
 number of electron      60.0000006 magnetization 
 augmentation part       25.3984631 magnetization 

 Broyden mixing:
  rms(total) = 0.33151E-03    rms(broyden)= 0.33134E-03
  rms(prec ) = 0.36118E-03
  weight for this iteration     100.00

 eigenvalues of (default mixing * dielectric matrix)
  average eigenvalue GAMMA=   0.9735
  2.3880  1.2470  1.2470  0.8455  0.8455  0.0814  0.1603

 Free energy of the ion-electron system (eV)
  ---------------------------------------------------
  alpha Z        PSCENC =       305.72458370
  Ewald energy   TEWEN  =     12693.46670933
  -1/2 Hartree   DENC   =    -17957.26568240
  -exchange  EXHF       =         0.00000000
  -V(xc)+E(xc)   XCENC  =      -177.91843334
  PAW double counting   =      4155.11854325    -3790.82985546
  entropy T*S    EENTRO =         0.00000000
  eigenvalues    EBANDS =      -116.87262770
  atomic energy  EATOM  =      4858.47751158
  ---------------------------------------------------
  free energy    TOTEN  =       -30.09925104 eV

  energy without entropy =      -30.09925104  energy(sigma->0) =      -30.09925104


--------------------------------------------------------------------------------------------------------




----------------------------------------- Iteration   13(   9)  ---------------------------------------


    POTLOK:  cpu time    0.10: real time    0.10
    SETDIJ:  cpu time    0.01: real time    0.01
     EDDAV:  cpu time    0.76: real time    0.76
 BZINTS: Fermi energy:  0.324205; 60.000000 electrons
         Band energy:-116.875969;  BLOECHL correction: -0.274864
       DOS:  cpu time    0.00: real time    0.00
    CHARGE:  cpu time    0.10: real time    0.09
    MIXING:  cpu time    0.01: real time    0.01
    --------------------------------------------
      LOOP:  cpu time    0.98: real time    1.00

 eigenvalue-minimisations  :   288
 total energy-change (2. order) : 0.3041699E-05  (-0.5385969E-07)
 number of electron      60.0000006 magnetization 
 augmentation part       25.3984848 magnetization 

 Broyden mixing:
  rms(total) = 0.18199E-03    rms(broyden)= 0.18198E-03
  rms(prec ) = 0.21245E-03
  weight for this iteration     100.00

 eigenvalues of (default mixing * dielectric matrix)
  average eigenvalue GAMMA=   0.9683
  2.3792  1.3227  1.3227  0.0814  0.1603  0.8698  0.8698  0.7404

 Free energy of the ion-electron system (eV)
  ---------------------------------------------------
  alpha Z        PSCENC =       305.72458370
  Ewald energy   TEWEN  =     12693.46670933
  -1/2 Hartree   DENC   =    -17957.26212509
  -exchange  EXHF       =         0.00000000
  -V(xc)+E(xc)   XCENC  =      -177.91848517
  PAW double counting   =      4155.12422119    -3790.83569404
  entropy T*S    EENTRO =         0.00000000
  eigenvalues    EBANDS =      -116.87596949
  atomic energy  EATOM  =      4858.47751158
  ---------------------------------------------------
  free energy    TOTEN  =       -30.09924800 eV

  energy without entropy =      -30.09924800  energy(sigma->0) =      -30.09924800


--------------------------------------------------------------------------------------------------------




----------------------------------------- Iteration   13(  10)  ---------------------------------------


    POTLOK:  cpu time    0.10: real time    0.11
    SETDIJ:  cpu time    0.01: real time    0.01
     EDDAV:  cpu time    0.77: real time    0.77
 BZINTS: Fermi energy:  0.324229; 60.000000 electrons
         Band energy:-116.874528;  BLOECHL correction: -0.274865
       DOS:  cpu time    0.00: real time    0.00
    CHARGE:  cpu time    0.09: real time    0.09
    MIXING:  cpu time    0.01: real time    0.01
    --------------------------------------------
      LOOP:  cpu time    0.98: real time    1.01

 eigenvalue-minimisations  :   288
 total energy-change (2. order) :-0.1031047E-05  (-0.3380091E-07)
 number of electron      60.0000006 magnetization 
 augmentation part       25.3984787 magnetization 

 Broyden mixing:
  rms(total) = 0.95580E-04    rms(broyden)= 0.95578E-04
  rms(prec ) = 0.10789E-03
  weight for this iteration     100.00

 eigenvalues of (default mixing * dielectric matrix)
  average eigenvalue GAMMA=   1.0148
  2.2979  1.9052  0.0814  0.1603  1.1792  0.9140  0.9140  0.8408  0.8408

 Free energy of the ion-electron system (eV)
  ---------------------------------------------------
  alpha Z        PSCENC =       305.72458370
  Ewald energy   TEWEN  =     12693.46670933
  -1/2 Hartree   DENC   =    -17957.26352259
  -exchange  EXHF       =         0.00000000
  -V(xc)+E(xc)   XCENC  =      -177.91850444
  PAW double counting   =      4155.12604889    -3790.83754756
  entropy T*S    EENTRO =         0.00000000
  eigenvalues    EBANDS =      -116.87452793
  atomic energy  EATOM  =      4858.47751158
  ---------------------------------------------------
  free energy    TOTEN  =       -30.09924903 eV

  energy without entropy =      -30.09924903  energy(sigma->0) =      -30.09924903


--------------------------------------------------------------------------------------------------------




----------------------------------------- Iteration   13(  11)  ---------------------------------------


    POTLOK:  cpu time    0.10: real time    0.11
    SETDIJ:  cpu time    0.01: real time    0.01
     EDDAV:  cpu time    0.76: real time    0.76
 BZINTS: Fermi energy:  0.324183; 60.000000 electrons
         Band energy:-116.877488;  BLOECHL correction: -0.274866
       DOS:  cpu time    0.00: real time    0.00
    --------------------------------------------
      LOOP:  cpu time    0.88: real time    0.89

 eigenvalue-minimisations  :   288
 total energy-change (2. order) :-0.8227425E-06  (-0.1679520E-07)
 number of electron      60.0000006 magnetization 
 augmentation part       25.3984787 magnetization 

 Free energy of the ion-electron system (eV)
  ---------------------------------------------------
  alpha Z        PSCENC =       305.72458370
  Ewald energy   TEWEN  =     12693.46670933
  -1/2 Hartree   DENC   =    -17957.26057282
  -exchange  EXHF       =         0.00000000
  -V(xc)+E(xc)   XCENC  =      -177.91851278
  PAW double counting   =      4155.12795091    -3790.83943158
  entropy T*S    EENTRO =         0.00000000
  eigenvalues    EBANDS =      -116.87748819
  atomic energy  EATOM  =      4858.47751158
  ---------------------------------------------------
  free energy    TOTEN  =       -30.09924985 eV

  energy without entropy =      -30.09924985  energy(sigma->0) =      -30.09924985


--------------------------------------------------------------------------------------------------------




 average (electrostatic) potential at core
  the test charge radii are     1.1199
  (the norm of the test charge is              1.0000)
       1 -50.8748       2 -51.2178       3 -51.1794       4 -51.1797       5 -51.2177
       6 -50.8751
 
 
 
 E-fermi :   0.3242     XC(G=0):  -8.1392     alpha+bet : -6.5480


 k-point   1 :       0.0000    0.0000    0.0000
  band No.  band energies     occupation 
      1      -6.2643      2.00000
      2      -5.6452      2.00000
      3      -4.9204      2.00000
      4      -4.6072      2.00000
      5      -4.3529      2.00000
      6      -4.3479      2.00000
      7      -2.3720      2.00000
      8      -2.3561      2.00000
      9      -2.2849      2.00000
     10      -2.2849      2.00000
     11      -2.2339      2.00000
     12      -2.2339      2.00000
     13      -2.1438      2.00000
     14      -2.1262      2.00000
     15      -2.1262      2.00000
     16      -2.0513      2.00000
     17      -2.0513      2.00000
     18      -1.8939      2.00000
     19      -1.8939      2.00000
     20      -1.8597      2.00000
     21      -1.8597      2.00000
     22      -1.5544      2.00000
     23      -0.8206      2.00000
     24      -0.8206      2.00000
     25      -0.7738      2.00000
     26      -0.7738      2.00000
     27      -0.5731      2.00000
     28      -0.5731      2.00000
     29      -0.2930      2.00000
     30      -0.2314      2.00000
     31      -0.2314      2.00000
     32       0.1116      2.00000
     33       0.1116      2.00000
     34       0.2873      2.00000
     35       0.2873      0.05071
     36       1.2621      0.00000

 k-point   2 :       0.1429    0.0000    0.0000
  band No.  band energies     occupation 
      1      -5.6675      2.00000
      2      -5.0807      2.00000
      3      -4.3864      2.00000
      4      -4.1662      2.00000
      5      -3.9022      2.00000
      6      -3.8417      2.00000
      7      -2.8359      2.00000
      8      -2.6607      2.00000
      9      -2.5959      2.00000
     10      -2.4744      2.00000
     11      -2.3843      2.00000
     12      -2.1884      2.00000
     13      -2.0336      2.00000
     14      -2.0224      2.00000
     15      -1.9785      2.00000
     16      -1.9073      2.00000
     17      -1.9065      2.00000
     18      -1.8053      2.00000
     19      -1.7458      2.00000
     20      -1.7359      2.00000
     21      -1.5555      2.00000
     22      -1.5380      2.00000
     23      -1.4981      2.00000
     24      -1.1143      2.00000
     25      -1.0764      2.00000
     26      -0.9063      2.00000
     27      -0.7673      2.00000
     28      -0.7299      2.00000
     29      -0.5356      2.00000
     30      -0.4304      2.00000
     31      -0.2246      2.00000
     32       0.1236      2.00000
     33       0.2390      2.00720
     34       0.3165      0.83724
     35       1.3057     -0.00714
     36       2.6183      0.00000

 k-point   3 :       0.2857    0.0000    0.0000
  band No.  band energies     occupation 
      1      -4.5196      2.00000
      2      -4.2023      2.00000
      3      -4.0468      2.00000
      4      -3.8789      2.00000
      5      -3.6902      2.00000
      6      -3.5474      2.00000
      7      -3.3520      2.00000
      8      -3.2690      2.00000
      9      -2.9157      2.00000
     10      -2.5337      2.00000
     11      -2.4670      2.00000
     12      -2.1567      2.00000
     13      -2.0840      2.00000
     14      -1.9817      2.00000
     15      -1.9794      2.00000
     16      -1.7029      2.00000
     17      -1.6086      2.00000
     18      -1.3935      2.00000
     19      -1.2223      2.00000
     20      -1.2078      2.00000
     21      -1.0692      2.00000
     22      -0.9441      2.00000
     23      -0.7523      2.00000
     24      -0.7328      2.00000
     25      -0.6267      2.00000
     26      -0.5978      2.00000
     27      -0.4922      2.03980
     28      -0.4181      2.11880
     29      -0.2803      2.23064
     30      -0.1509      2.16709
     31       0.0813      1.28587
     32       0.1380      1.11623
     33       0.3701      0.55303
     34       1.3559     -0.00199
     35       2.9034      0.00000
     36       4.5867      0.00000

 k-point   4 :       0.4286    0.0000    0.0000
  band No.  band energies     occupation 
      1      -4.4931      2.00000
      2      -4.4479      2.00000
      3      -4.2483      2.00000
      4      -4.1749      2.00000
      5      -4.0626      2.00000
      6      -3.8384      2.00000
      7      -3.8126      2.00000
      8      -3.6928      2.00000
      9      -3.2052      2.00000
     10      -2.6670      2.00000
     11      -2.4043      2.00000
     12      -2.3066      2.00000
     13      -2.1921      2.00000
     14      -1.7615      2.00000
     15      -1.7090      2.00000
     16      -1.4070      2.00000
     17      -1.2003      2.00000
     18      -0.9316      2.00000
     19      -0.5840      2.00000
     20      -0.4695      2.00000
     21      -0.1016      2.00000
     22      -0.0718      2.00000
     23       0.1861      2.00000
     24       0.1926      2.00000
     25       0.2500      2.00000
     26       0.2707      2.00000
     27       0.3463      1.50344
     28       0.4151      0.71790
     29       0.4675      0.21839
     30       0.5194      0.12384
     31       1.1341     -0.02646
     32       1.8480     -0.02866
     33       2.2152      0.00000
     34       3.0440      0.00000
     35       4.4101      0.00000
     36       5.7011      0.00000

 k-point   5 :       0.2857    0.1429    0.0000
  band No.  band energies     occupation 
      1      -4.6770      2.00000
      2      -4.2568      2.00000
      3      -3.7417      2.00000
      4      -3.5369      2.00000
      5      -3.4192      2.00000
      6      -3.2833      2.00000
      7      -3.1515      2.00000
      8      -3.1146      2.00000
      9      -2.9445      2.00000
     10      -2.8491      2.00000
     11      -2.5816      2.00000
     12      -2.5050      2.00000
     13      -2.4001      2.00000
     14      -2.2845      2.00000
     15      -2.1145      2.00000
     16      -2.0218      2.00000
     17      -1.9650      2.00000
     18      -1.7191      2.00000
     19      -1.5600      2.00000
     20      -1.3803      2.00000
     21      -1.2585      2.00000
     22      -1.1375      2.00000
     23      -1.1246      2.00000
     24      -0.8711      2.00000
     25      -0.7876      2.00000
     26      -0.5766      2.00000
     27      -0.5164      2.00000
     28      -0.4557      2.00000
     29      -0.2590      2.00000
     30      -0.2274      2.13888
     31      -0.0502      1.64001
     32       0.1360      1.41986
     33       0.1628      1.34051
     34       1.1608     -0.15031
     35       2.5197      0.00000
     36       4.0852      0.00000

 k-point   6 :       0.4286    0.1429    0.0000
  band No.  band energies     occupation 
      1      -4.0709      2.00000
      2      -4.0369      2.00000
      3      -3.8416      2.00000
      4      -3.6974      2.00000
      5      -3.6594      2.00000
      6      -3.5158      2.00000
      7      -3.4020      2.00000
      8      -3.1472      2.00000
      9      -3.0565      2.00000
     10      -2.8021      2.00000
     11      -2.4587      2.00000
     12      -2.4193      2.00000
     13      -2.2937      2.00000
     14      -2.0118      2.00000
     15      -1.9529      2.00000
     16      -1.8594      2.00000
     17      -1.5792      2.00000
     18      -1.4633      2.00000
     19      -1.3439      2.00000
     20      -1.2049      2.00000
     21      -1.0007      2.00000
     22      -0.7704      2.00000
     23      -0.7298      2.00000
     24      -0.5450      2.00000
     25      -0.2757      2.00000
     26      -0.2536      2.00000
     27       0.1903      2.00778
     28       0.2113      1.99304
     29       0.3106      1.52830
     30       0.4450      0.48352
     31       1.3124     -0.11531
     32       1.4928     -0.13874
     33       1.9101     -0.11848
     34       2.9530      0.00000
     35       4.4303      0.00000
     36       6.1158      0.00000

 k-point   7 :      -0.4286    0.1429    0.0000
  band No.  band energies     occupation 
      1      -4.3021      2.00000
      2      -4.1525      2.00000
      3      -4.0318      2.00000
      4      -3.9047      2.00000
      5      -3.7465      2.00000
      6      -3.6978      2.00000
      7      -3.5229      2.00000
      8      -3.3571      2.00000
      9      -3.1451      2.00000
     10      -2.8415      2.00000
     11      -2.7050      2.00000
     12      -2.2012      2.00000
     13      -2.1595      2.00000
     14      -2.0243      2.00000
     15      -1.8289      2.00000
     16      -1.6481      2.00000
     17      -1.3394      2.00000
     18      -1.1003      2.00000
     19      -1.0471      2.00000
     20      -0.6446      2.00000
     21      -0.5556      2.00000
     22      -0.5033      2.00000
     23      -0.2200      2.00000
     24      -0.0594      2.00000
     25       0.0937      2.00000
     26       0.1027      2.00000
     27       0.1810      2.14596
     28       0.2175      1.96106
     29       0.3788      0.02054
     30       0.4846      0.00000
     31       3.4647      0.00000
     32       3.9940      0.00000
     33       4.4474      0.00000
     34       4.7827      0.00000
     35       5.0530      0.00000
     36       5.2078      0.00000

 k-point   8 :      -0.4286    0.2857    0.0000
  band No.  band energies     occupation 
      1      -3.8019      2.00000
      2      -3.7962      2.00000
      3      -3.5761      2.00000
      4      -3.4033      2.00000
      5      -3.3279      2.00000
      6      -3.1882      2.00000
      7      -3.1739      2.00000
      8      -3.0244      2.00000
      9      -3.0169      2.00000
     10      -2.7676      2.00000
     11      -2.7578      2.00000
     12      -2.4412      2.00000
     13      -2.3910      2.00000
     14      -2.1872      2.00000
     15      -2.0232      2.00000
     16      -1.7949      2.00000
     17      -1.7460      2.00000
     18      -1.6176      2.00000
     19      -1.5881      2.00000
     20      -1.1671      2.00000
     21      -1.0808      2.00000
     22      -0.8904      2.00000
     23      -0.7445      2.00000
     24      -0.6863      2.00000
     25      -0.3451      2.00000
     26      -0.0859      2.00000
     27       0.1670      2.00000
     28       0.2436      2.00000
     29       0.2773      2.00626
     30       0.4348      0.00000
     31       4.1099      0.00000
     32       4.4977      0.00000
     33       5.1319      0.00000
     34       6.0606      0.00000
     35       7.1903      0.00000
     36       7.8561      0.00000


--------------------------------------------------------------------------------------------------------


 soft charge-density along one line, spin component           1
         0         1         2         3         4         5         6         7         8         9
 total charge-density along one line
 
 pseudopotential strength for first ion, spin component:           1
-11.401   0.000   0.000   0.000   0.000   0.000  -0.011   0.000   0.000   0.000   0.110   0.000   0.000   0.000   0.000   0.000
  0.000   0.000 -11.288   0.000   0.000   0.000   0.000   0.000  -0.011   0.000   0.000   0.000   0.092   0.000   0.000   0.000
  0.000   0.000   0.000   0.000 -11.270   0.000   0.000   0.000   0.000   0.000   0.000   0.000   0.000   0.000   0.089   0.000
 -0.011   0.000   0.000   0.000   0.000   0.000 -11.288   0.000   0.000   0.000   0.002   0.000   0.000   0.000   0.000   0.000
  0.000   0.000  -0.011   0.000   0.000   0.000   0.000   0.000 -11.401   0.000   0.000   0.000   0.002   0.000   0.000   0.000
  0.110   0.000   0.000   0.000   0.000   0.000   0.002   0.000   0.000   0.000   0.323   0.000   0.000   0.000   0.000   0.000
  0.000   0.000   0.092   0.000   0.000   0.000   0.000   0.000   0.002   0.000   0.000   0.000   0.326   0.000   0.000   0.000
  0.000   0.000   0.000   0.000   0.089   0.000   0.000   0.000   0.000   0.000   0.000   0.000   0.000   0.000   0.327   0.000
  0.002   0.000   0.000   0.000   0.000   0.000   0.092   0.000   0.000   0.000   0.000   0.000   0.000   0.000   0.000   0.000
  0.000   0.000   0.002   0.000   0.000   0.000   0.000   0.000   0.110   0.000   0.000   0.000   0.000   0.000   0.000   0.000
  0.000   0.000   0.000   0.000  -0.029   0.000   0.000   0.000   0.000   0.000   0.000   0.000   0.000   0.000   0.004   0.000
  0.000   0.000   0.000   0.000   0.003   0.000   0.000   0.000   0.000   0.000   0.000   0.000   0.000   0.000   0.000   0.000
  0.000   0.000  -0.011   0.000   0.000   0.000   0.000   0.000   0.000   0.000   0.000   0.000   0.002   0.000   0.000   0.000
  0.000   0.000   0.000   0.000  -0.012   0.000   0.000   0.000   0.000   0.000   0.000   0.000   0.000   0.000   0.002   0.000
  0.000   0.000   0.000   0.000   0.000   0.000  -0.011   0.000   0.000   0.000   0.000   0.000   0.000   0.000   0.000   0.000
  0.000   0.000   0.010   0.000   0.000   0.000   0.000   0.000   0.000   0.000   0.000   0.000  -0.002   0.000   0.000   0.000
  0.000   0.000   0.000   0.000   0.010   0.000   0.000   0.000   0.000   0.000   0.000   0.000   0.000   0.000  -0.002   0.000
  0.000   0.000   0.000   0.000   0.000   0.000   0.010   0.000   0.000   0.000   0.000   0.000   0.000   0.000   0.000   0.000
 total augmentation occupancy for first ion, spin component:           1
  1.724   0.000   0.000  -0.041   0.000   0.132   0.000   0.000   0.021   0.000   0.000   0.000   0.000   0.000   0.003   0.000
  0.000   1.854   0.000   0.000  -0.041   0.000   0.051   0.000   0.000   0.022   0.000   0.000  -0.015   0.000   0.000  -0.015
  0.000   0.000   1.833   0.000   0.000   0.000   0.000   0.078   0.000   0.000   0.016  -0.063   0.000   0.025   0.000   0.000
 -0.041   0.000   0.000   1.854   0.000   0.022   0.000   0.000   0.051   0.000   0.000   0.000   0.000   0.000  -0.015   0.000
  0.000  -0.041   0.000   0.000   1.724   0.000   0.021   0.000   0.000   0.132   0.000   0.000   0.003   0.000   0.000   0.001
  0.132   0.000   0.000   0.022   0.000   0.113   0.000   0.000   0.003   0.000   0.000   0.000   0.000   0.000   0.006   0.000
  0.000   0.051   0.000   0.000   0.021   0.000   0.090   0.000   0.000   0.003   0.000   0.000   0.033   0.000   0.000  -0.001
  0.000   0.000   0.078   0.000   0.000   0.000   0.000   0.117   0.000   0.000  -0.112   0.029   0.000   0.045   0.000   0.000
  0.021   0.000   0.000   0.051   0.000   0.003   0.000   0.000   0.090   0.000   0.000   0.000   0.000   0.000   0.033   0.000
  0.000   0.022   0.000   0.000   0.132   0.000   0.003   0.000   0.000   0.113   0.000   0.000   0.006   0.000   0.000   0.000
  0.000   0.000   0.016   0.000   0.000   0.000   0.000  -0.112   0.000   0.000   1.000  -0.326   0.000   0.073   0.000   0.000
  0.000   0.000  -0.063   0.000   0.000   0.000   0.000   0.029   0.000   0.000  -0.326   0.121   0.000  -0.039   0.000   0.000
  0.000  -0.015   0.000   0.000   0.003   0.000   0.033   0.000   0.000   0.006   0.000   0.000   0.110   0.000   0.000  -0.002
  0.000   0.000   0.025   0.000   0.000   0.000   0.000   0.045   0.000   0.000   0.073  -0.039   0.000   0.062   0.000   0.000
  0.003   0.000   0.000  -0.015   0.000   0.006   0.000   0.000   0.033   0.000   0.000   0.000   0.000   0.000   0.110   0.000
  0.000  -0.015   0.000   0.000   0.001   0.000  -0.001   0.000   0.000   0.000   0.000   0.000  -0.002   0.000   0.000   0.000
  0.000   0.000  -0.020   0.000   0.000   0.000   0.000  -0.001   0.000   0.000  -0.004   0.002   0.000  -0.001   0.000   0.000
  0.001   0.000   0.000  -0.015   0.000   0.000   0.000   0.000  -0.001   0.000   0.000   0.000   0.000   0.000  -0.002   0.000


------------------------ aborting loop because EDIFF is reached ----------------------------------------


    CHARGE:  cpu time    0.09: real time    0.09
    FORLOC:  cpu time    0.01: real time    0.01
    FORNL :  cpu time    0.45: real time    0.45
    STRESS:  cpu time    0.78: real time    0.78
    FORCOR:  cpu time    0.11: real time    0.11
    FORHAR:  cpu time    0.03: real time    0.04
    MIXING:  cpu time    0.01: real time    0.01

  FORCE on cell =-STRESS in cart. coord.  units (eV):
  Direction    XX          YY          ZZ          XY          YZ          ZX
  --------------------------------------------------------------------------------------
  Alpha Z   305.72458   305.72458   305.72458
  Ewald   16020.37432 16020.37432-19347.28207     0.00000     0.00000     0.00000
  Hartree 17471.85584 17471.85584-16986.44675     0.00000     0.00000     0.00000
  E(xc)    -313.72400  -313.72401  -314.87123     0.00001     0.00000     0.00000
  Local  -34235.42308-34235.42337 35583.10114     0.00024     0.00000     0.00000
  n-local  -332.54578  -308.59851  -323.02725     5.24363    -3.09014     1.51624
  augment   256.64260   256.64285   260.00931    -0.00022     0.00000     0.00000
  Kinetic   802.83805   823.47821   822.47011     5.26881     2.99468    -0.74771
  Fock        0.00000     0.00000     0.00000     0.00000     0.00000     0.00000
  -------------------------------------------------------------------------------------
  Total      -1.96377    -1.96377    -0.32215     0.00000     0.00000     0.00000
  in kB     -19.62544   -19.62544    -3.21948     0.00000     0.00000     0.00000
  external pressure =      -14.16 kB  Pullay stress =        0.00 kB


 VOLUME and BASIS-vectors are now :
 -----------------------------------------------------------------------------
  energy-cutoff  :      415.00
  volume of cell :      160.32
      direct lattice vectors                 reciprocal lattice vectors
     2.795185513  0.000000000  0.000000000     0.357758008 -0.206551682  0.000000000
     1.397592758  2.420701664  0.000000000     0.000000000  0.413103364  0.000000000
     0.000000000  0.000000000 23.693556493     0.000000000  0.000000000  0.042205568

  length of vectors
     2.795185513  2.795185515 23.693556493     0.413103364  0.413103364  0.042205568


 FORCES acting on ions
    electron-ion (+dipol)            ewald-force                    non-local-force                 convergence-correction
 -----------------------------------------------------------------------------------------------
   0.682E-07 0.678E-07 0.282E+04   0.257E-07 -.243E-07 -.282E+04   0.000E+00 0.173E-17 -.126E+01   0.324E-10 0.185E-10 -.212E-02
   0.175E-06 0.101E-06 -.569E+03   -.419E-09 0.397E-09 0.569E+03   0.867E-18 -.173E-17 -.336E-01   -.585E-10 -.335E-10 0.114E-02
   0.615E-06 0.355E-06 0.170E+04   0.106E-08 -.130E-09 -.170E+04   0.217E-18 0.867E-18 -.483E-01   -.994E-11 -.605E-11 -.337E-02
   0.696E-06 0.401E-06 -.170E+04   0.725E-10 0.781E-09 0.170E+04   -.867E-18 -.867E-18 0.483E-01   0.749E-11 0.468E-11 0.335E-02
   -.592E-06 -.341E-06 0.569E+03   -.153E-09 -.727E-09 -.569E+03   -.867E-18 0.173E-17 0.336E-01   0.590E-10 0.338E-10 -.120E-02
   -.347E-06 -.229E-06 -.282E+04   -.262E-07 0.239E-07 0.282E+04   0.867E-18 -.347E-17 0.126E+01   -.363E-10 -.207E-10 0.213E-02
 -----------------------------------------------------------------------------------------------
   0.615E-06 0.355E-06 -.114E-02   0.166E-12 -.707E-13 -.909E-12   0.217E-18 -.173E-17 -.222E-15   -.587E-11 -.326E-11 -.648E-04
 
 
 POSITION                                       TOTAL-FORCE (eV/Angst)
 -----------------------------------------------------------------------------------
      0.00000      0.00000      0.01171         0.000000      0.000000      0.008522
      0.00000      0.00000      6.83938         0.000000      0.000000      0.011070
      1.39759      0.80690      2.29721         0.000000      0.000000      0.005201
      1.39759      0.80690      9.11408         0.000000      0.000000     -0.005201
      2.79519      1.61380      4.57191         0.000000      0.000000     -0.011070
      2.79519      1.61380     11.39958         0.000000      0.000000     -0.008522
 -----------------------------------------------------------------------------------
    total drift:                                0.000001      0.000000     -0.001201


--------------------------------------------------------------------------------------------------------



  FREE ENERGIE OF THE ION-ELECTRON SYSTEM (eV)
  ---------------------------------------------------
  free  energy   TOTEN  =       -30.09924985 eV

  energy  without entropy=      -30.09924985  energy(sigma->0) =      -30.09924985
 
 d Force = 0.1809676E-03[ 0.113E-03, 0.249E-03]  d Energy =-0.5511774E-03 0.732E-03
 d Force =-0.3537881E+02[-0.354E+02,-0.354E+02]  d Ewald  =-0.3537881E+02 0.402E-06


--------------------------------------------------------------------------------------------------------


    POTLOK:  cpu time    0.11: real time    0.11


--------------------------------------------------------------------------------------------------------




--------------------------------------------------------------------------------------------------------


    WAVPRE:  cpu time    0.03: real time    0.03
 FEWALD executed in parallel
    FEWALD:  cpu time    0.00: real time    0.00
    ORTHCH:  cpu time    0.11: real time    0.11
     LOOP+:  cpu time   17.63: real time   17.87


----------------------------------------- Iteration   14(   1)  ---------------------------------------


    POTLOK:  cpu time    0.10: real time    0.10
    SETDIJ:  cpu time    0.01: real time    0.01
     EDDAV:  cpu time    1.19: real time    1.20
 BZINTS: Fermi energy:  0.325920; 60.000000 electrons
         Band energy:-117.075522;  BLOECHL correction: -0.272353
       DOS:  cpu time    0.00: real time    0.00
    CHARGE:  cpu time    0.09: real time    0.09
    MIXING:  cpu time    0.00: real time    0.00
    --------------------------------------------
      LOOP:  cpu time    1.40: real time    1.41

 eigenvalue-minimisations  :   576
 total energy-change (2. order) : 0.5264263E-02  (-0.1432627E+00)
 number of electron      59.9999994 magnetization 
 augmentation part       25.3948512 magnetization 

 Broyden mixing:
  rms(total) = 0.15709E-01    rms(broyden)= 0.15697E-01
  rms(prec ) = 0.18903E-01
  weight for this iteration     100.00

 Free energy of the ion-electron system (eV)
  ---------------------------------------------------
  alpha Z        PSCENC =       305.72458370
  Ewald energy   TEWEN  =     12764.34145574
  -1/2 Hartree   DENC   =    -18027.96048901
  -exchange  EXHF       =         0.00000000
  -V(xc)+E(xc)   XCENC  =      -177.89003284
  PAW double counting   =      4155.12905710    -3790.84054862
  entropy T*S    EENTRO =         0.00000000
  eigenvalues    EBANDS =      -117.07552241
  atomic energy  EATOM  =      4858.47751158
  ---------------------------------------------------
  free energy    TOTEN  =       -30.09398477 eV

  energy without entropy =      -30.09398477  energy(sigma->0) =      -30.09398477


--------------------------------------------------------------------------------------------------------




----------------------------------------- Iteration   14(   2)  ---------------------------------------


    POTLOK:  cpu time    0.10: real time    0.11
    SETDIJ:  cpu time    0.01: real time    0.01
     EDDAV:  cpu time    1.61: real time    1.62
 BZINTS: Fermi energy:  0.349158; 60.000000 electrons
         Band energy:-115.818797;  BLOECHL correction: -0.270164
       DOS:  cpu time    0.00: real time    0.00
    CHARGE:  cpu time    0.09: real time    0.09
    MIXING:  cpu time    0.00: real time    0.00
    --------------------------------------------
      LOOP:  cpu time    1.82: real time    1.84

 eigenvalue-minimisations  :   864
 total energy-change (2. order) :-0.9034988E-02  (-0.8949831E-02)
 number of electron      59.9999994 magnetization 
 augmentation part       25.3937168 magnetization 

 Broyden mixing:
  rms(total) = 0.86354E-01    rms(broyden)= 0.86345E-01
  rms(prec ) = 0.13271E+00
  weight for this iteration     100.00

 eigenvalues of (default mixing * dielectric matrix)
  average eigenvalue GAMMA=   0.1131
  0.1131

 Free energy of the ion-electron system (eV)
  ---------------------------------------------------
  alpha Z        PSCENC =       305.72458370
  Ewald energy   TEWEN  =     12764.34145574
  -1/2 Hartree   DENC   =    -18029.20179159
  -exchange  EXHF       =         0.00000000
  -V(xc)+E(xc)   XCENC  =      -177.89464506
  PAW double counting   =      4155.36057287    -3791.09190956
  entropy T*S    EENTRO =         0.00000000
  eigenvalues    EBANDS =      -115.81879743
  atomic energy  EATOM  =      4858.47751158
  ---------------------------------------------------
  free energy    TOTEN  =       -30.10301976 eV

  energy without entropy =      -30.10301976  energy(sigma->0) =      -30.10301976


--------------------------------------------------------------------------------------------------------




----------------------------------------- Iteration   14(   3)  ---------------------------------------


    POTLOK:  cpu time    0.10: real time    0.10
    SETDIJ:  cpu time    0.01: real time    0.01
     EDDAV:  cpu time    1.42: real time    1.43
 BZINTS: Fermi energy:  0.327642; 60.000000 electrons
         Band energy:-117.007075;  BLOECHL correction: -0.273620
       DOS:  cpu time    0.00: real time    0.00
    CHARGE:  cpu time    0.10: real time    0.10
    MIXING:  cpu time    0.01: real time    0.01
    --------------------------------------------
      LOOP:  cpu time    1.64: real time    1.66

 eigenvalue-minimisations  :   736
 total energy-change (2. order) : 0.3652755E-02  (-0.5722275E-02)
 number of electron      59.9999994 magnetization 
 augmentation part       25.3982187 magnetization 

 Broyden mixing:
  rms(total) = 0.25843E-01    rms(broyden)= 0.25815E-01
  rms(prec ) = 0.33348E-01
  weight for this iteration     100.00

 eigenvalues of (default mixing * dielectric matrix)
  average eigenvalue GAMMA=   0.2191
  0.3554  0.0827

 Free energy of the ion-electron system (eV)
  ---------------------------------------------------
  alpha Z        PSCENC =       305.72458370
  Ewald energy   TEWEN  =     12764.34145574
  -1/2 Hartree   DENC   =    -18028.00937971
  -exchange  EXHF       =         0.00000000
  -V(xc)+E(xc)   XCENC  =      -177.89378353
  PAW double counting   =      4155.35123793    -3791.08391737
  entropy T*S    EENTRO =         0.00000000
  eigenvalues    EBANDS =      -117.00707534
  atomic energy  EATOM  =      4858.47751158
  ---------------------------------------------------
  free energy    TOTEN  =       -30.09936700 eV

  energy without entropy =      -30.09936700  energy(sigma->0) =      -30.09936700


--------------------------------------------------------------------------------------------------------




----------------------------------------- Iteration   14(   4)  ---------------------------------------


    POTLOK:  cpu time    0.10: real time    0.10
    SETDIJ:  cpu time    0.01: real time    0.01
     EDDAV:  cpu time    1.62: real time    1.63
 BZINTS: Fermi energy:  0.326292; 60.000000 electrons
         Band energy:-116.988574;  BLOECHL correction: -0.272602
       DOS:  cpu time    0.00: real time    0.00
    CHARGE:  cpu time    0.10: real time    0.10
    MIXING:  cpu time    0.00: real time    0.01
    --------------------------------------------
      LOOP:  cpu time    1.83: real time    1.86

 eigenvalue-minimisations  :   844
 total energy-change (2. order) : 0.1596477E-02  (-0.8780612E-03)
 number of electron      59.9999994 magnetization 
 augmentation part       25.3974859 magnetization 

 Broyden mixing:
  rms(total) = 0.20855E-01    rms(broyden)= 0.20846E-01
  rms(prec ) = 0.24385E-01
  weight for this iteration     100.00

 eigenvalues of (default mixing * dielectric matrix)
  average eigenvalue GAMMA=   0.2130
  0.3775  0.1811  0.0802

 Free energy of the ion-electron system (eV)
  ---------------------------------------------------
  alpha Z        PSCENC =       305.72458370
  Ewald energy   TEWEN  =     12764.34145574
  -1/2 Hartree   DENC   =    -18028.02544453
  -exchange  EXHF       =         0.00000000
  -V(xc)+E(xc)   XCENC  =      -177.89306320
  PAW double counting   =      4155.43278111    -3791.16702064
  entropy T*S    EENTRO =         0.00000000
  eigenvalues    EBANDS =      -116.98857428
  atomic energy  EATOM  =      4858.47751158
  ---------------------------------------------------
  free energy    TOTEN  =       -30.09777052 eV

  energy without entropy =      -30.09777052  energy(sigma->0) =      -30.09777052


--------------------------------------------------------------------------------------------------------




----------------------------------------- Iteration   14(   5)  ---------------------------------------


    POTLOK:  cpu time    0.10: real time    0.11
    SETDIJ:  cpu time    0.02: real time    0.01
     EDDAV:  cpu time    1.56: real time    1.58
 BZINTS: Fermi energy:  0.327483; 60.000000 electrons
         Band energy:-116.989381;  BLOECHL correction: -0.272996
       DOS:  cpu time    0.00: real time    0.00
    CHARGE:  cpu time    0.09: real time    0.09
    MIXING:  cpu time    0.01: real time    0.01
    --------------------------------------------
      LOOP:  cpu time    1.79: real time    1.81

 eigenvalue-minimisations  :   812
 total energy-change (2. order) :-0.2340645E-03  (-0.2276095E-03)
 number of electron      59.9999994 magnetization 
 augmentation part       25.3977911 magnetization 

 Broyden mixing:
  rms(total) = 0.91553E-02    rms(broyden)= 0.91513E-02
  rms(prec ) = 0.97550E-02
  weight for this iteration     100.00

 eigenvalues of (default mixing * dielectric matrix)
  average eigenvalue GAMMA=   0.6785
  1.4949  0.9789  0.0803  0.1598

 Free energy of the ion-electron system (eV)
  ---------------------------------------------------
  alpha Z        PSCENC =       305.72458370
  Ewald energy   TEWEN  =     12764.34145574
  -1/2 Hartree   DENC   =    -18028.02297414
  -exchange  EXHF       =         0.00000000
  -V(xc)+E(xc)   XCENC  =      -177.89311205
  PAW double counting   =      4155.48155142    -3791.21763963
  entropy T*S    EENTRO =         0.00000000
  eigenvalues    EBANDS =      -116.98938121
  atomic energy  EATOM  =      4858.47751158
  ---------------------------------------------------
  free energy    TOTEN  =       -30.09800459 eV

  energy without entropy =      -30.09800459  energy(sigma->0) =      -30.09800459


--------------------------------------------------------------------------------------------------------




----------------------------------------- Iteration   14(   6)  ---------------------------------------


    POTLOK:  cpu time    0.10: real time    0.11
    SETDIJ:  cpu time    0.01: real time    0.01
     EDDAV:  cpu time    1.57: real time    1.58
 BZINTS: Fermi energy:  0.327677; 60.000000 electrons
         Band energy:-116.993546;  BLOECHL correction: -0.272940
       DOS:  cpu time    0.00: real time    0.00
    CHARGE:  cpu time    0.10: real time    0.10
    MIXING:  cpu time    0.01: real time    0.01
    --------------------------------------------
      LOOP:  cpu time    1.80: real time    1.82

 eigenvalue-minimisations  :   820
 total energy-change (2. order) : 0.1883333E-03  (-0.8445919E-04)
 number of electron      59.9999994 magnetization 
 augmentation part       25.3969282 magnetization 

 Broyden mixing:
  rms(total) = 0.60891E-02    rms(broyden)= 0.60886E-02
  rms(prec ) = 0.85697E-02
  weight for this iteration     100.00

 eigenvalues of (default mixing * dielectric matrix)
  average eigenvalue GAMMA=   0.7995
  2.1735  0.7914  0.7914  0.0802  0.1612

 Free energy of the ion-electron system (eV)
  ---------------------------------------------------
  alpha Z        PSCENC =       305.72458370
  Ewald energy   TEWEN  =     12764.34145574
  -1/2 Hartree   DENC   =    -18028.01080204
  -exchange  EXHF       =         0.00000000
  -V(xc)+E(xc)   XCENC  =      -177.89203456
  PAW double counting   =      4155.76856275    -3791.51354772
  entropy T*S    EENTRO =         0.00000000
  eigenvalues    EBANDS =      -116.99354570
  atomic energy  EATOM  =      4858.47751158
  ---------------------------------------------------
  free energy    TOTEN  =       -30.09781626 eV

  energy without entropy =      -30.09781626  energy(sigma->0) =      -30.09781626


--------------------------------------------------------------------------------------------------------




----------------------------------------- Iteration   14(   7)  ---------------------------------------


    POTLOK:  cpu time    0.10: real time    0.10
    SETDIJ:  cpu time    0.01: real time    0.01
     EDDAV:  cpu time    1.64: real time    1.68
 BZINTS: Fermi energy:  0.327094; 60.000000 electrons
         Band energy:-117.023715;  BLOECHL correction: -0.273001
       DOS:  cpu time    0.00: real time    0.00
    CHARGE:  cpu time    0.09: real time    0.09
    MIXING:  cpu time    0.00: real time    0.01
    --------------------------------------------
      LOOP:  cpu time    1.85: real time    1.91

 eigenvalue-minimisations  :   872
 total energy-change (2. order) :-0.1081682E-05  (-0.2058733E-04)
 number of electron      59.9999994 magnetization 
 augmentation part       25.3969737 magnetization 

 Broyden mixing:
  rms(total) = 0.15392E-02    rms(broyden)= 0.15381E-02
  rms(prec ) = 0.20661E-02
  weight for this iteration     100.00

 eigenvalues of (default mixing * dielectric matrix)
  average eigenvalue GAMMA=   0.8855
  2.3699  0.9590  0.9590  0.7837  0.0802  0.1610

 Free energy of the ion-electron system (eV)
  ---------------------------------------------------
  alpha Z        PSCENC =       305.72458370
  Ewald energy   TEWEN  =     12764.34145574
  -1/2 Hartree   DENC   =    -18027.97383797
  -exchange  EXHF       =         0.00000000
  -V(xc)+E(xc)   XCENC  =      -177.89210589
  PAW double counting   =      4155.91287482    -3791.66458411
  entropy T*S    EENTRO =         0.00000000
  eigenvalues    EBANDS =      -117.02371520
  atomic energy  EATOM  =      4858.47751158
  ---------------------------------------------------
  free energy    TOTEN  =       -30.09781734 eV

  energy without entropy =      -30.09781734  energy(sigma->0) =      -30.09781734


--------------------------------------------------------------------------------------------------------




----------------------------------------- Iteration   14(   8)  ---------------------------------------


    POTLOK:  cpu time    0.10: real time    0.11
    SETDIJ:  cpu time    0.01: real time    0.01
     EDDAV:  cpu time    1.36: real time    1.36
 BZINTS: Fermi energy:  0.326393; 60.000000 electrons
         Band energy:-117.059768;  BLOECHL correction: -0.272985
       DOS:  cpu time    0.00: real time    0.00
    CHARGE:  cpu time    0.10: real time    0.09
    MIXING:  cpu time    0.00: real time    0.01
    --------------------------------------------
      LOOP:  cpu time    1.58: real time    1.60

 eigenvalue-minimisations  :   692
 total energy-change (2. order) : 0.3677349E-04  (-0.1614759E-05)
 number of electron      59.9999994 magnetization 
 augmentation part       25.3972021 magnetization 

 Broyden mixing:
  rms(total) = 0.73809E-03    rms(broyden)= 0.73764E-03
  rms(prec ) = 0.78930E-03
  weight for this iteration     100.00

 eigenvalues of (default mixing * dielectric matrix)
  average eigenvalue GAMMA=   0.9709
  2.3731  1.2539  1.2539  0.8373  0.8373  0.0802  0.1610

 Free energy of the ion-electron system (eV)
  ---------------------------------------------------
  alpha Z        PSCENC =       305.72458370
  Ewald energy   TEWEN  =     12764.34145574
  -1/2 Hartree   DENC   =    -18027.93580327
  -exchange  EXHF       =         0.00000000
  -V(xc)+E(xc)   XCENC  =      -177.89233252
  PAW double counting   =      4155.94124110    -3791.69466863
  entropy T*S    EENTRO =         0.00000000
  eigenvalues    EBANDS =      -117.05976827
  atomic energy  EATOM  =      4858.47751158
  ---------------------------------------------------
  free energy    TOTEN  =       -30.09778056 eV

  energy without entropy =      -30.09778056  energy(sigma->0) =      -30.09778056


--------------------------------------------------------------------------------------------------------




----------------------------------------- Iteration   14(   9)  ---------------------------------------


    POTLOK:  cpu time    0.11: real time    0.11
    SETDIJ:  cpu time    0.01: real time    0.01
     EDDAV:  cpu time    1.13: real time    1.13
 BZINTS: Fermi energy:  0.326305; 60.000000 electrons
         Band energy:-117.064191;  BLOECHL correction: -0.272989
       DOS:  cpu time    0.00: real time    0.00
    CHARGE:  cpu time    0.09: real time    0.09
    MIXING:  cpu time    0.01: real time    0.01
    --------------------------------------------
      LOOP:  cpu time    1.35: real time    1.36

 eigenvalue-minimisations  :   536
 total energy-change (2. order) : 0.4476616E-05  (-0.4661041E-06)
 number of electron      59.9999994 magnetization 
 augmentation part       25.3972646 magnetization 

 Broyden mixing:
  rms(total) = 0.32033E-03    rms(broyden)= 0.32025E-03
  rms(prec ) = 0.39080E-03
  weight for this iteration     100.00

 eigenvalues of (default mixing * dielectric matrix)
  average eigenvalue GAMMA=   0.9775
  2.3356  0.0802  0.1610  1.3452  1.3452  0.8966  0.8966  0.7595

 Free energy of the ion-electron system (eV)
  ---------------------------------------------------
  alpha Z        PSCENC =       305.72458370
  Ewald energy   TEWEN  =     12764.34145574
  -1/2 Hartree   DENC   =    -18027.93106341
  -exchange  EXHF       =         0.00000000
  -V(xc)+E(xc)   XCENC  =      -177.89248761
  PAW double counting   =      4155.95250110    -3791.70608665
  entropy T*S    EENTRO =         0.00000000
  eigenvalues    EBANDS =      -117.06419053
  atomic energy  EATOM  =      4858.47751158
  ---------------------------------------------------
  free energy    TOTEN  =       -30.09777609 eV

  energy without entropy =      -30.09777609  energy(sigma->0) =      -30.09777609


--------------------------------------------------------------------------------------------------------




----------------------------------------- Iteration   14(  10)  ---------------------------------------


    POTLOK:  cpu time    0.10: real time    0.11
    SETDIJ:  cpu time    0.01: real time    0.01
     EDDAV:  cpu time    0.78: real time    0.78
 BZINTS: Fermi energy:  0.326267; 60.000000 electrons
         Band energy:-117.066325;  BLOECHL correction: -0.272988
       DOS:  cpu time    0.00: real time    0.00
    CHARGE:  cpu time    0.09: real time    0.09
    MIXING:  cpu time    0.01: real time    0.01
    --------------------------------------------
      LOOP:  cpu time    0.99: real time    1.01

 eigenvalue-minimisations  :   288
 total energy-change (2. order) : 0.1674235E-05  (-0.6867325E-07)
 number of electron      59.9999994 magnetization 
 augmentation part       25.3972717 magnetization 

 Broyden mixing:
  rms(total) = 0.16730E-03    rms(broyden)= 0.16729E-03
  rms(prec ) = 0.19843E-03
  weight for this iteration     100.00

 eigenvalues of (default mixing * dielectric matrix)
  average eigenvalue GAMMA=   1.0945
  2.4448  1.6516  1.6516  0.0802  0.1610  1.0892  1.0892  0.8413  0.8413

 Free energy of the ion-electron system (eV)
  ---------------------------------------------------
  alpha Z        PSCENC =       305.72458370
  Ewald energy   TEWEN  =     12764.34145574
  -1/2 Hartree   DENC   =    -18027.92889302
  -exchange  EXHF       =         0.00000000
  -V(xc)+E(xc)   XCENC  =      -177.89251965
  PAW double counting   =      4155.95517154    -3791.70875894
  entropy T*S    EENTRO =         0.00000000
  eigenvalues    EBANDS =      -117.06632536
  atomic energy  EATOM  =      4858.47751158
  ---------------------------------------------------
  free energy    TOTEN  =       -30.09777441 eV

  energy without entropy =      -30.09777441  energy(sigma->0) =      -30.09777441


--------------------------------------------------------------------------------------------------------




----------------------------------------- Iteration   14(  11)  ---------------------------------------


    POTLOK:  cpu time    0.10: real time    0.10
    SETDIJ:  cpu time    0.01: real time    0.01
     EDDAV:  cpu time    0.84: real time    0.85
 BZINTS: Fermi energy:  0.326195; 60.000000 electrons
         Band energy:-117.070690;  BLOECHL correction: -0.272988
       DOS:  cpu time    0.00: real time    0.00
    CHARGE:  cpu time    0.10: real time    0.10
    MIXING:  cpu time    0.01: real time    0.01
    --------------------------------------------
      LOOP:  cpu time    1.07: real time    1.08

 eigenvalue-minimisations  :   316
 total energy-change (2. order) :-0.1375121E-05  (-0.6179241E-07)
 number of electron      59.9999994 magnetization 
 augmentation part       25.3972436 magnetization 

 Broyden mixing:
  rms(total) = 0.86272E-04    rms(broyden)= 0.86261E-04
  rms(prec ) = 0.95858E-04
  weight for this iteration     100.00

 eigenvalues of (default mixing * dielectric matrix)
  average eigenvalue GAMMA=   1.0572
  2.5522  1.7921  0.0802  0.1610  1.2840  1.2840  0.9565  0.9565  0.8832  0.6228

 Free energy of the ion-electron system (eV)
  ---------------------------------------------------
  alpha Z        PSCENC =       305.72458370
  Ewald energy   TEWEN  =     12764.34145574
  -1/2 Hartree   DENC   =    -18027.92441535
  -exchange  EXHF       =         0.00000000
  -V(xc)+E(xc)   XCENC  =      -177.89255351
  PAW double counting   =      4155.95876177    -3791.71243008
  entropy T*S    EENTRO =         0.00000000
  eigenvalues    EBANDS =      -117.07068963
  atomic energy  EATOM  =      4858.47751158
  ---------------------------------------------------
  free energy    TOTEN  =       -30.09777579 eV

  energy without entropy =      -30.09777579  energy(sigma->0) =      -30.09777579


--------------------------------------------------------------------------------------------------------




----------------------------------------- Iteration   14(  12)  ---------------------------------------


    POTLOK:  cpu time    0.10: real time    0.10
    SETDIJ:  cpu time    0.01: real time    0.01
     EDDAV:  cpu time    0.80: real time    0.80
 BZINTS: Fermi energy:  0.326121; 60.000000 electrons
         Band energy:-117.075326;  BLOECHL correction: -0.272989
       DOS:  cpu time    0.00: real time    0.00
    CHARGE:  cpu time    0.09: real time    0.09
    MIXING:  cpu time    0.01: real time    0.01
    --------------------------------------------
      LOOP:  cpu time    1.02: real time    1.03

 eigenvalue-minimisations  :   288
 total energy-change (2. order) :-0.1355146E-05  (-0.2821996E-07)
 number of electron      59.9999994 magnetization 
 augmentation part       25.3972662 magnetization 

 Broyden mixing:
  rms(total) = 0.39710E-04    rms(broyden)= 0.39696E-04
  rms(prec ) = 0.55248E-04
  weight for this iteration     100.00

 eigenvalues of (default mixing * dielectric matrix)
  average eigenvalue GAMMA=   1.0809
  2.6037  1.6359  1.5584  1.5584  0.0802  0.1610  0.9883  0.9883  0.8478  0.8478
  0.6208

 Free energy of the ion-electron system (eV)
  ---------------------------------------------------
  alpha Z        PSCENC =       305.72458370
  Ewald energy   TEWEN  =     12764.34145574
  -1/2 Hartree   DENC   =    -18027.91978102
  -exchange  EXHF       =         0.00000000
  -V(xc)+E(xc)   XCENC  =      -177.89256855
  PAW double counting   =      4155.95978587    -3791.71343834
  entropy T*S    EENTRO =         0.00000000
  eigenvalues    EBANDS =      -117.07532611
  atomic energy  EATOM  =      4858.47751158
  ---------------------------------------------------
  free energy    TOTEN  =       -30.09777714 eV

  energy without entropy =      -30.09777714  energy(sigma->0) =      -30.09777714


--------------------------------------------------------------------------------------------------------




----------------------------------------- Iteration   14(  13)  ---------------------------------------


    POTLOK:  cpu time    0.10: real time    0.10
    SETDIJ:  cpu time    0.01: real time    0.01
     EDDAV:  cpu time    0.80: real time    0.81
 BZINTS: Fermi energy:  0.326052; 60.000000 electrons
         Band energy:-117.079519;  BLOECHL correction: -0.272988
       DOS:  cpu time    0.00: real time    0.00
    --------------------------------------------
      LOOP:  cpu time    0.92: real time    0.93

 eigenvalue-minimisations  :   296
 total energy-change (2. order) : 0.2800962E-06  (-0.1027458E-07)
 number of electron      59.9999994 magnetization 
 augmentation part       25.3972662 magnetization 

 Free energy of the ion-electron system (eV)
  ---------------------------------------------------
  alpha Z        PSCENC =       305.72458370
  Ewald energy   TEWEN  =     12764.34145574
  -1/2 Hartree   DENC   =    -18027.91558680
  -exchange  EXHF       =         0.00000000
  -V(xc)+E(xc)   XCENC  =      -177.89257665
  PAW double counting   =      4155.96048564    -3791.71413061
  entropy T*S    EENTRO =         0.00000000
  eigenvalues    EBANDS =      -117.07951945
  atomic energy  EATOM  =      4858.47751158
  ---------------------------------------------------
  free energy    TOTEN  =       -30.09777686 eV

  energy without entropy =      -30.09777686  energy(sigma->0) =      -30.09777686


--------------------------------------------------------------------------------------------------------




 average (electrostatic) potential at core
  the test charge radii are     1.1199
  (the norm of the test charge is              1.0000)
       1 -50.8754       2 -51.2194       3 -51.1828       4 -51.1829       5 -51.2194
       6 -50.8755
 
 
 
 E-fermi :   0.3261     XC(G=0):  -8.1315     alpha+bet : -6.5480


 k-point   1 :       0.0000    0.0000    0.0000
  band No.  band energies     occupation 
      1      -6.2727      2.00000
      2      -5.6538      2.00000
      3      -4.9229      2.00000
      4      -4.6133      2.00000
      5      -4.3591      2.00000
      6      -4.3517      2.00000
      7      -2.3718      2.00000
      8      -2.3520      2.00000
      9      -2.2899      2.00000
     10      -2.2899      2.00000
     11      -2.2414      2.00000
     12      -2.2414      2.00000
     13      -2.1424      2.00000
     14      -2.1317      2.00000
     15      -2.1317      2.00000
     16      -2.0568      2.00000
     17      -2.0568      2.00000
     18      -1.8958      2.00000
     19      -1.8958      2.00000
     20      -1.8609      2.00000
     21      -1.8609      2.00000
     22      -1.5521      2.00000
     23      -0.8217      2.00000
     24      -0.8217      2.00000
     25      -0.7790      2.00000
     26      -0.7790      2.00000
     27      -0.5754      2.00000
     28      -0.5754      2.00000
     29      -0.2891      2.00000
     30      -0.2345      2.00000
     31      -0.2345      2.00000
     32       0.1133      2.00000
     33       0.1133      2.00000
     34       0.2910      2.00000
     35       0.2910      0.04784
     36       1.2670      0.00000

 k-point   2 :       0.1429    0.0000    0.0000
  band No.  band energies     occupation 
      1      -5.6760      2.00000
      2      -5.0896      2.00000
      3      -4.3895      2.00000
      4      -4.1732      2.00000
      5      -3.9093      2.00000
      6      -3.8458      2.00000
      7      -2.8419      2.00000
      8      -2.6642      2.00000
      9      -2.6017      2.00000
     10      -2.4821      2.00000
     11      -2.3895      2.00000
     12      -2.1893      2.00000
     13      -2.0328      2.00000
     14      -2.0319      2.00000
     15      -1.9761      2.00000
     16      -1.9116      2.00000
     17      -1.9075      2.00000
     18      -1.8038      2.00000
     19      -1.7523      2.00000
     20      -1.7438      2.00000
     21      -1.5569      2.00000
     22      -1.5372      2.00000
     23      -1.4993      2.00000
     24      -1.1158      2.00000
     25      -1.0795      2.00000
     26      -0.9068      2.00000
     27      -0.7695      2.00000
     28      -0.7296      2.00000
     29      -0.5350      2.00000
     30      -0.4320      2.00000
     31      -0.2272      2.00000
     32       0.1259      2.00000
     33       0.2425      2.00529
     34       0.3205      0.83138
     35       1.3104     -0.00679
     36       2.6256      0.00000

 k-point   3 :       0.2857    0.0000    0.0000
  band No.  band energies     occupation 
      1      -4.5281      2.00000
      2      -4.2112      2.00000
      3      -4.0545      2.00000
      4      -3.8869      2.00000
      5      -3.6992      2.00000
      6      -3.5525      2.00000
      7      -3.3569      2.00000
      8      -3.2735      2.00000
      9      -2.9207      2.00000
     10      -2.5405      2.00000
     11      -2.4696      2.00000
     12      -2.1581      2.00000
     13      -2.0870      2.00000
     14      -1.9908      2.00000
     15      -1.9813      2.00000
     16      -1.7048      2.00000
     17      -1.6223      2.00000
     18      -1.3943      2.00000
     19      -1.2232      2.00000
     20      -1.2124      2.00000
     21      -1.0705      2.00000
     22      -0.9493      2.00000
     23      -0.7555      2.00000
     24      -0.7301      2.00000
     25      -0.6280      2.00000
     26      -0.5948      2.00000
     27      -0.4931      2.03619
     28      -0.4191      2.11795
     29      -0.2792      2.22965
     30      -0.1508      2.16709
     31       0.0834      1.28668
     32       0.1415      1.11464
     33       0.3752      0.52964
     34       1.3615     -0.00142
     35       2.9131      0.00000
     36       4.5976      0.00000

 k-point   4 :       0.4286    0.0000    0.0000
  band No.  band energies     occupation 
      1      -4.5020      2.00000
      2      -4.4564      2.00000
      3      -4.2574      2.00000
      4      -4.1838      2.00000
      5      -4.0700      2.00000
      6      -3.8476      2.00000
      7      -3.8164      2.00000
      8      -3.6950      2.00000
      9      -3.2082      2.00000
     10      -2.6699      2.00000
     11      -2.4044      2.00000
     12      -2.3036      2.00000
     13      -2.2038      2.00000
     14      -1.7753      2.00000
     15      -1.7151      2.00000
     16      -1.4107      2.00000
     17      -1.2026      2.00000
     18      -0.9354      2.00000
     19      -0.5885      2.00000
     20      -0.4704      2.00000
     21      -0.0985      2.00000
     22      -0.0706      2.00000
     23       0.1835      2.00000
     24       0.1944      2.00000
     25       0.2515      2.00000
     26       0.2683      2.00000
     27       0.3458      1.53518
     28       0.4157      0.72350
     29       0.4678      0.22046
     30       0.5222      0.12359
     31       1.1322     -0.02641
     32       1.8487     -0.02853
     33       2.2177      0.00000
     34       3.0460      0.00000
     35       4.4175      0.00000
     36       5.7075      0.00000

 k-point   5 :       0.2857    0.1429    0.0000
  band No.  band energies     occupation 
      1      -4.6856      2.00000
      2      -4.2667      2.00000
      3      -3.7474      2.00000
      4      -3.5446      2.00000
      5      -3.4295      2.00000
      6      -3.2915      2.00000
      7      -3.1552      2.00000
      8      -3.1238      2.00000
      9      -2.9489      2.00000
     10      -2.8562      2.00000
     11      -2.5841      2.00000
     12      -2.5069      2.00000
     13      -2.4013      2.00000
     14      -2.2859      2.00000
     15      -2.1142      2.00000
     16      -2.0269      2.00000
     17      -1.9734      2.00000
     18      -1.7158      2.00000
     19      -1.5636      2.00000
     20      -1.3794      2.00000
     21      -1.2606      2.00000
     22      -1.1424      2.00000
     23      -1.1276      2.00000
     24      -0.8753      2.00000
     25      -0.7896      2.00000
     26      -0.5767      2.00000
     27      -0.5191      2.00000
     28      -0.4567      2.00000
     29      -0.2576      2.00000
     30      -0.2259      2.13862
     31      -0.0476      1.64029
     32       0.1382      1.41974
     33       0.1668      1.33785
     34       1.1663     -0.15024
     35       2.5285      0.00000
     36       4.0951      0.00000

 k-point   6 :       0.4286    0.1429    0.0000
  band No.  band energies     occupation 
      1      -4.0799      2.00000
      2      -4.0462      2.00000
      3      -3.8503      2.00000
      4      -3.7082      2.00000
      5      -3.6681      2.00000
      6      -3.5262      2.00000
      7      -3.4053      2.00000
      8      -3.1494      2.00000
      9      -3.0598      2.00000
     10      -2.8071      2.00000
     11      -2.4675      2.00000
     12      -2.4263      2.00000
     13      -2.2988      2.00000
     14      -2.0202      2.00000
     15      -1.9563      2.00000
     16      -1.8577      2.00000
     17      -1.5811      2.00000
     18      -1.4663      2.00000
     19      -1.3445      2.00000
     20      -1.2064      2.00000
     21      -1.0016      2.00000
     22      -0.7707      2.00000
     23      -0.7286      2.00000
     24      -0.5454      2.00000
     25      -0.2749      2.00000
     26      -0.2521      2.00000
     27       0.1923      2.00730
     28       0.2130      1.99411
     29       0.3116      1.53513
     30       0.4473      0.48317
     31       1.3114     -0.11527
     32       1.4921     -0.13881
     33       1.9118     -0.11642
     34       2.9570      0.00000
     35       4.4403      0.00000
     36       6.1271      0.00000

 k-point   7 :      -0.4286    0.1429    0.0000
  band No.  band energies     occupation 
      1      -4.3121      2.00000
      2      -4.1614      2.00000
      3      -4.0399      2.00000
      4      -3.9155      2.00000
      5      -3.7556      2.00000
      6      -3.7081      2.00000
      7      -3.5248      2.00000
      8      -3.3592      2.00000
      9      -3.1483      2.00000
     10      -2.8500      2.00000
     11      -2.7115      2.00000
     12      -2.2084      2.00000
     13      -2.1608      2.00000
     14      -2.0302      2.00000
     15      -1.8295      2.00000
     16      -1.6522      2.00000
     17      -1.3440      2.00000
     18      -1.1045      2.00000
     19      -1.0487      2.00000
     20      -0.6450      2.00000
     21      -0.5576      2.00000
     22      -0.5030      2.00000
     23      -0.2182      2.00000
     24      -0.0574      2.00000
     25       0.0939      2.00000
     26       0.1040      2.00000
     27       0.1835      2.14788
     28       0.2208      1.96066
     29       0.3814      0.01183
     30       0.4873      0.00000
     31       3.4625      0.00000
     32       3.9927      0.00000
     33       4.4479      0.00000
     34       4.7822      0.00000
     35       5.0555      0.00000
     36       5.2115      0.00000

 k-point   8 :      -0.4286    0.2857    0.0000
  band No.  band energies     occupation 
      1      -3.8105      2.00000
      2      -3.8076      2.00000
      3      -3.5870      2.00000
      4      -3.4148      2.00000
      5      -3.3394      2.00000
      6      -3.1991      2.00000
      7      -3.1790      2.00000
      8      -3.0344      2.00000
      9      -3.0257      2.00000
     10      -2.7714      2.00000
     11      -2.7635      2.00000
     12      -2.4445      2.00000
     13      -2.3983      2.00000
     14      -2.1901      2.00000
     15      -2.0258      2.00000
     16      -1.7960      2.00000
     17      -1.7467      2.00000
     18      -1.6183      2.00000
     19      -1.5887      2.00000
     20      -1.1645      2.00000
     21      -1.0761      2.00000
     22      -0.8898      2.00000
     23      -0.7436      2.00000
     24      -0.6839      2.00000
     25      -0.3439      2.00000
     26      -0.0837      2.00000
     27       0.1701      2.00000
     28       0.2454      2.00000
     29       0.2802      1.99555
     30       0.4377      0.00000
     31       4.1079      0.00000
     32       4.4967      0.00000
     33       5.1336      0.00000
     34       6.0634      0.00000
     35       7.1949      0.00000
     36       7.8555      0.00000


--------------------------------------------------------------------------------------------------------


 soft charge-density along one line, spin component           1
         0         1         2         3         4         5         6         7         8         9
 total charge-density along one line
 
 pseudopotential strength for first ion, spin component:           1
-11.400   0.000   0.000   0.000   0.000   0.000  -0.011   0.000   0.000   0.000   0.110   0.000   0.000   0.000   0.000   0.000
  0.000   0.000 -11.289   0.000   0.000   0.000   0.000   0.000  -0.011   0.000   0.000   0.000   0.092   0.000   0.000   0.000
  0.000   0.000   0.000   0.000 -11.270   0.000   0.000   0.000   0.000   0.000   0.000   0.000   0.000   0.000   0.089   0.000
 -0.011   0.000   0.000   0.000   0.000   0.000 -11.289   0.000   0.000   0.000   0.002   0.000   0.000   0.000   0.000   0.000
  0.000   0.000  -0.011   0.000   0.000   0.000   0.000   0.000 -11.400   0.000   0.000   0.000   0.002   0.000   0.000   0.000
  0.110   0.000   0.000   0.000   0.000   0.000   0.002   0.000   0.000   0.000   0.323   0.000   0.000   0.000   0.000   0.000
  0.000   0.000   0.092   0.000   0.000   0.000   0.000   0.000   0.002   0.000   0.000   0.000   0.326   0.000   0.000   0.000
  0.000   0.000   0.000   0.000   0.089   0.000   0.000   0.000   0.000   0.000   0.000   0.000   0.000   0.000   0.327   0.000
  0.002   0.000   0.000   0.000   0.000   0.000   0.092   0.000   0.000   0.000   0.000   0.000   0.000   0.000   0.000   0.000
  0.000   0.000   0.002   0.000   0.000   0.000   0.000   0.000   0.110   0.000   0.000   0.000   0.000   0.000   0.000   0.000
  0.000   0.000   0.000   0.000  -0.029   0.000   0.000   0.000   0.000   0.000   0.000   0.000   0.000   0.000   0.004   0.000
  0.000   0.000   0.000   0.000   0.002   0.000   0.000   0.000   0.000   0.000   0.000   0.000   0.000   0.000   0.000   0.000
  0.000   0.000  -0.011   0.000   0.000   0.000   0.000   0.000   0.000   0.000   0.000   0.000   0.002   0.000   0.000   0.000
  0.000   0.000   0.000   0.000  -0.012   0.000   0.000   0.000   0.000   0.000   0.000   0.000   0.000   0.000   0.002   0.000
  0.000   0.000   0.000   0.000   0.000   0.000  -0.011   0.000   0.000   0.000   0.000   0.000   0.000   0.000   0.000   0.000
  0.000   0.000   0.010   0.000   0.000   0.000   0.000   0.000   0.000   0.000   0.000   0.000  -0.002   0.000   0.000   0.000
  0.000   0.000   0.000   0.000   0.010   0.000   0.000   0.000   0.000   0.000   0.000   0.000   0.000   0.000  -0.002   0.000
  0.000   0.000   0.000   0.000   0.000   0.000   0.010   0.000   0.000   0.000   0.000   0.000   0.000   0.000   0.000   0.000
 total augmentation occupancy for first ion, spin component:           1
  1.724   0.000   0.000  -0.042   0.000   0.132   0.000   0.000   0.021   0.000   0.000   0.000   0.000   0.000   0.003   0.000
  0.000   1.854   0.000   0.000  -0.042   0.000   0.052   0.000   0.000   0.023   0.000   0.000  -0.015   0.000   0.000  -0.015
  0.000   0.000   1.833   0.000   0.000   0.000   0.000   0.079   0.000   0.000   0.016  -0.063   0.000   0.026   0.000   0.000
 -0.042   0.000   0.000   1.854   0.000   0.023   0.000   0.000   0.052   0.000   0.000   0.000   0.000   0.000  -0.015   0.000
  0.000  -0.042   0.000   0.000   1.724   0.000   0.021   0.000   0.000   0.132   0.000   0.000   0.003   0.000   0.000   0.001
  0.132   0.000   0.000   0.023   0.000   0.114   0.000   0.000   0.003   0.000   0.000   0.000   0.000   0.000   0.006   0.000
  0.000   0.052   0.000   0.000   0.021   0.000   0.090   0.000   0.000   0.003   0.000   0.000   0.033   0.000   0.000  -0.001
  0.000   0.000   0.079   0.000   0.000   0.000   0.000   0.118   0.000   0.000  -0.112   0.029   0.000   0.045   0.000   0.000
  0.021   0.000   0.000   0.052   0.000   0.003   0.000   0.000   0.090   0.000   0.000   0.000   0.000   0.000   0.033   0.000
  0.000   0.023   0.000   0.000   0.132   0.000   0.003   0.000   0.000   0.114   0.000   0.000   0.006   0.000   0.000   0.000
  0.000   0.000   0.016   0.000   0.000   0.000   0.000  -0.112   0.000   0.000   1.000  -0.327   0.000   0.073   0.000   0.000
  0.000   0.000  -0.063   0.000   0.000   0.000   0.000   0.029   0.000   0.000  -0.327   0.121   0.000  -0.040   0.000   0.000
  0.000  -0.015   0.000   0.000   0.003   0.000   0.033   0.000   0.000   0.006   0.000   0.000   0.110   0.000   0.000  -0.002
  0.000   0.000   0.026   0.000   0.000   0.000   0.000   0.045   0.000   0.000   0.073  -0.040   0.000   0.062   0.000   0.000
  0.003   0.000   0.000  -0.015   0.000   0.006   0.000   0.000   0.033   0.000   0.000   0.000   0.000   0.000   0.110   0.000
  0.000  -0.015   0.000   0.000   0.001   0.000  -0.001   0.000   0.000   0.000   0.000   0.000  -0.002   0.000   0.000   0.000
  0.000   0.000  -0.019   0.000   0.000   0.000   0.000  -0.001   0.000   0.000  -0.004   0.002   0.000  -0.001   0.000   0.000
  0.001   0.000   0.000  -0.015   0.000   0.000   0.000   0.000  -0.001   0.000   0.000   0.000   0.000   0.000  -0.002   0.000


------------------------ aborting loop because EDIFF is reached ----------------------------------------


    CHARGE:  cpu time    0.09: real time    0.09
    FORLOC:  cpu time    0.01: real time    0.01
    FORNL :  cpu time    0.45: real time    0.45
    STRESS:  cpu time    0.78: real time    0.78
    FORCOR:  cpu time    0.12: real time    0.12
    FORHAR:  cpu time    0.04: real time    0.04
    MIXING:  cpu time    0.01: real time    0.01

  FORCE on cell =-STRESS in cart. coord.  units (eV):
  Direction    XX          YY          ZZ          XY          YZ          ZX
  --------------------------------------------------------------------------------------
  Alpha Z   305.72458   305.72458   305.72458
  Ewald   16091.81811 16091.81810-19419.29494     0.00000     0.00000     0.00000
  Hartree 17542.74976 17542.74976-17057.61509     0.00000     0.00000     0.00000
  E(xc)    -313.75783  -313.75784  -314.89172     0.00001     0.00000     0.00000
  Local  -34377.88336-34377.88364 35726.41924     0.00024     0.00000     0.00000
  n-local  -332.42170  -308.51106  -322.78507     5.23954    -3.10441     1.52869
  augment   256.67840   256.67865   259.92955    -0.00022     0.00000     0.00000
  Kinetic   802.99091   823.55547   822.38400     5.23597     3.00168    -0.77365
  Fock        0.00000     0.00000     0.00000     0.00000     0.00000     0.00000
  -------------------------------------------------------------------------------------
  Total      -1.86355    -1.86355    -0.12944     0.00000     0.00000     0.00000
  in kB     -18.62389   -18.62389    -1.29359     0.00000     0.00000     0.00000
  external pressure =      -12.85 kB  Pullay stress =        0.00 kB


 VOLUME and BASIS-vectors are now :
 -----------------------------------------------------------------------------
  energy-cutoff  :      415.00
  volume of cell :      160.32
      direct lattice vectors                 reciprocal lattice vectors
     2.795185513  0.000000000  0.000000000     0.357758008 -0.206551682  0.000000000
     1.397592758  2.420701664  0.000000000     0.000000000  0.413103364  0.000000000
     0.000000000  0.000000000 23.693556493     0.000000000  0.000000000  0.042205568

  length of vectors
     2.795185513  2.795185515 23.693556493     0.413103364  0.413103364  0.042205568


 FORCES acting on ions
    electron-ion (+dipol)            ewald-force                    non-local-force                 convergence-correction
 -----------------------------------------------------------------------------------------------
   0.140E-06 0.109E-06 0.283E+04   0.259E-07 -.244E-07 -.283E+04   -.434E-17 0.000E+00 -.126E+01   0.156E-10 0.894E-11 0.311E-02
   0.901E-07 0.520E-07 -.569E+03   -.406E-11 0.387E-11 0.569E+03   0.304E-17 0.000E+00 -.467E-01   -.611E-11 -.339E-11 0.422E-03
   0.735E-06 0.425E-06 0.171E+04   0.124E-08 -.292E-09 -.171E+04   0.867E-18 0.867E-18 -.524E-01   -.582E-11 -.355E-11 0.105E-02
   0.538E-06 0.310E-06 -.171E+04   -.997E-10 0.951E-09 0.171E+04   -.434E-18 -.867E-18 0.524E-01   0.449E-11 0.278E-11 -.112E-02
   -.417E-06 -.241E-06 0.569E+03   -.578E-09 -.340E-09 -.569E+03   -.260E-17 0.000E+00 0.467E-01   0.736E-11 0.412E-11 -.541E-03
   -.255E-06 -.176E-06 -.283E+04   -.264E-07 0.241E-07 0.283E+04   -.520E-17 0.000E+00 0.126E+01   -.167E-10 -.956E-11 -.309E-02
 -----------------------------------------------------------------------------------------------
   0.830E-06 0.479E-06 -.487E-03   0.166E-12 -.707E-13 -.455E-12   -.867E-17 0.000E+00 -.222E-15   -.119E-11 -.672E-12 -.168E-03
 
 
 POSITION                                       TOTAL-FORCE (eV/Angst)
 -----------------------------------------------------------------------------------
      0.00000      0.00000      0.02083         0.000000      0.000000     -0.006834
      0.00000      0.00000      6.83980         0.000000      0.000000     -0.020932
      1.39759      0.80690      2.30304         0.000000      0.000000     -0.008116
      1.39759      0.80690      9.10826         0.000000      0.000000      0.008116
      2.79519      1.61380      4.57150         0.000000      0.000000      0.020932
      2.79519      1.61380     11.39046         0.000000      0.000000      0.006834
 -----------------------------------------------------------------------------------
    total drift:                                0.000001      0.000000     -0.000655


--------------------------------------------------------------------------------------------------------



  FREE ENERGIE OF THE ION-ELECTRON SYSTEM (eV)
  ---------------------------------------------------
  free  energy   TOTEN  =       -30.09777686 eV

  energy  without entropy=      -30.09777686  energy(sigma->0) =      -30.09777686
 
 d Force =-0.5743420E-05[-0.237E-03, 0.225E-03]  d Energy =-0.1472992E-02 0.147E-02
 d Force =-0.7087474E+02[-0.710E+02,-0.708E+02]  d Ewald  =-0.7087475E+02 0.324E-05


--------------------------------------------------------------------------------------------------------


    POTLOK:  cpu time    0.12: real time    0.12


--------------------------------------------------------------------------------------------------------




--------------------------------------------------------------------------------------------------------


    WAVPRE:  cpu time    0.03: real time    0.03
 FEWALD executed in parallel
    FEWALD:  cpu time    0.00: real time    0.00
    ORTHCH:  cpu time    0.10: real time    0.11
     LOOP+:  cpu time   20.82: real time   21.12


----------------------------------------- Iteration   15(   1)  ---------------------------------------


    POTLOK:  cpu time    0.10: real time    0.10
    SETDIJ:  cpu time    0.01: real time    0.01
     EDDAV:  cpu time    1.18: real time    1.19
 BZINTS: Fermi energy:  0.325165; 60.000000 electrons
         Band energy:-116.978704;  BLOECHL correction: -0.274254
       DOS:  cpu time    0.00: real time    0.00
    CHARGE:  cpu time    0.09: real time    0.09
    MIXING:  cpu time    0.00: real time    0.00
    --------------------------------------------
      LOOP:  cpu time    1.39: real time    1.40

 eigenvalue-minimisations  :   576
 total energy-change (2. order) :-0.1988519E-03  (-0.3759505E-01)
 number of electron      60.0000000 magnetization 
 augmentation part       25.3971515 magnetization 

 Broyden mixing:
  rms(total) = 0.77831E-02    rms(broyden)= 0.77769E-02
  rms(prec ) = 0.93608E-02
  weight for this iteration     100.00

 Free energy of the ion-electron system (eV)
  ---------------------------------------------------
  alpha Z        PSCENC =       305.72458370
  Ewald energy   TEWEN  =     12728.00387236
  -1/2 Hartree   DENC   =    -17991.66447496
  -exchange  EXHF       =         0.00000000
  -V(xc)+E(xc)   XCENC  =      -177.90715161
  PAW double counting   =      4155.96124437    -3791.71485702
  entropy T*S    EENTRO =         0.00000000
  eigenvalues    EBANDS =      -116.97870441
  atomic energy  EATOM  =      4858.47751158
  ---------------------------------------------------
  free energy    TOTEN  =       -30.09797599 eV

  energy without entropy =      -30.09797599  energy(sigma->0) =      -30.09797599


--------------------------------------------------------------------------------------------------------




----------------------------------------- Iteration   15(   2)  ---------------------------------------


    POTLOK:  cpu time    0.10: real time    0.10
    SETDIJ:  cpu time    0.02: real time    0.01
     EDDAV:  cpu time    1.62: real time    1.63
 BZINTS: Fermi energy:  0.313029; 60.000000 electrons
         Band energy:-117.654329;  BLOECHL correction: -0.273732
       DOS:  cpu time    0.00: real time    0.00
    CHARGE:  cpu time    0.09: real time    0.09
    MIXING:  cpu time    0.00: real time    0.00
    --------------------------------------------
      LOOP:  cpu time    1.83: real time    1.85

 eigenvalue-minimisations  :   864
 total energy-change (2. order) :-0.1882670E-02  (-0.2042299E-02)
 number of electron      60.0000000 magnetization 
 augmentation part       25.4001622 magnetization 

 Broyden mixing:
  rms(total) = 0.37041E-01    rms(broyden)= 0.37037E-01
  rms(prec ) = 0.57325E-01
  weight for this iteration     100.00

 eigenvalues of (default mixing * dielectric matrix)
  average eigenvalue GAMMA=   0.1277
  0.1277

 Free energy of the ion-electron system (eV)
  ---------------------------------------------------
  alpha Z        PSCENC =       305.72458370
  Ewald energy   TEWEN  =     12728.00387236
  -1/2 Hartree   DENC   =    -17991.00356278
  -exchange  EXHF       =         0.00000000
  -V(xc)+E(xc)   XCENC  =      -177.90582227
  PAW double counting   =      4155.79719052    -3791.53930254
  entropy T*S    EENTRO =         0.00000000
  eigenvalues    EBANDS =      -117.65432923
  atomic energy  EATOM  =      4858.47751158
  ---------------------------------------------------
  free energy    TOTEN  =       -30.09985867 eV

  energy without entropy =      -30.09985867  energy(sigma->0) =      -30.09985867


--------------------------------------------------------------------------------------------------------




----------------------------------------- Iteration   15(   3)  ---------------------------------------


    POTLOK:  cpu time    0.10: real time    0.10
    SETDIJ:  cpu time    0.01: real time    0.01
     EDDAV:  cpu time    1.44: real time    1.45
 BZINTS: Fermi energy:  0.323416; 60.000000 electrons
         Band energy:-117.062857;  BLOECHL correction: -0.273728
       DOS:  cpu time    0.00: real time    0.00
    CHARGE:  cpu time    0.09: real time    0.09
    MIXING:  cpu time    0.00: real time    0.00
    --------------------------------------------
      LOOP:  cpu time    1.65: real time    1.67

 eigenvalue-minimisations  :   736
 total energy-change (2. order) : 0.1301135E-02  (-0.1115336E-02)
 number of electron      60.0000000 magnetization 
 augmentation part       25.3982297 magnetization 

 Broyden mixing:
  rms(total) = 0.14131E-01    rms(broyden)= 0.14120E-01
  rms(prec ) = 0.18379E-01
  weight for this iteration     100.00

 eigenvalues of (default mixing * dielectric matrix)
  average eigenvalue GAMMA=   0.2189
  0.3495  0.0884

 Free energy of the ion-electron system (eV)
  ---------------------------------------------------
  alpha Z        PSCENC =       305.72458370
  Ewald energy   TEWEN  =     12728.00387236
  -1/2 Hartree   DENC   =    -17991.59422666
  -exchange  EXHF       =         0.00000000
  -V(xc)+E(xc)   XCENC  =      -177.90616535
  PAW double counting   =      4155.80911605    -3791.55039182
  entropy T*S    EENTRO =         0.00000000
  eigenvalues    EBANDS =      -117.06285739
  atomic energy  EATOM  =      4858.47751158
  ---------------------------------------------------
  free energy    TOTEN  =       -30.09855753 eV

  energy without entropy =      -30.09855753  energy(sigma->0) =      -30.09855753


--------------------------------------------------------------------------------------------------------




----------------------------------------- Iteration   15(   4)  ---------------------------------------


    POTLOK:  cpu time    0.10: real time    0.10
    SETDIJ:  cpu time    0.01: real time    0.01
     EDDAV:  cpu time    1.62: real time    1.63
 BZINTS: Fermi energy:  0.324197; 60.000000 electrons
         Band energy:-117.065440;  BLOECHL correction: -0.274228
       DOS:  cpu time    0.00: real time    0.00
    CHARGE:  cpu time    0.09: real time    0.09
    MIXING:  cpu time    0.00: real time    0.00
    --------------------------------------------
      LOOP:  cpu time    1.83: real time    1.85

 eigenvalue-minimisations  :   848
 total energy-change (2. order) :-0.5381500E-03  (-0.2405609E-03)
 number of electron      60.0000000 magnetization 
 augmentation part       25.3985224 magnetization 

 Broyden mixing:
  rms(total) = 0.10524E-01    rms(broyden)= 0.10519E-01
  rms(prec ) = 0.12333E-01
  weight for this iteration     100.00

 eigenvalues of (default mixing * dielectric matrix)
  average eigenvalue GAMMA=   0.2135
  0.3744  0.1816  0.0843

 Free energy of the ion-electron system (eV)
  ---------------------------------------------------
  alpha Z        PSCENC =       305.72458370
  Ewald energy   TEWEN  =     12728.00387236
  -1/2 Hartree   DENC   =    -17991.59311167
  -exchange  EXHF       =         0.00000000
  -V(xc)+E(xc)   XCENC  =      -177.90626497
  PAW double counting   =      4155.79102660    -3791.53127338
  entropy T*S    EENTRO =         0.00000000
  eigenvalues    EBANDS =      -117.06543989
  atomic energy  EATOM  =      4858.47751158
  ---------------------------------------------------
  free energy    TOTEN  =       -30.09909568 eV

  energy without entropy =      -30.09909568  energy(sigma->0) =      -30.09909568


--------------------------------------------------------------------------------------------------------




----------------------------------------- Iteration   15(   5)  ---------------------------------------


    POTLOK:  cpu time    0.10: real time    0.10
    SETDIJ:  cpu time    0.01: real time    0.01
     EDDAV:  cpu time    1.52: real time    1.52
 BZINTS: Fermi energy:  0.323669; 60.000000 electrons
         Band energy:-117.057796;  BLOECHL correction: -0.273972
       DOS:  cpu time    0.00: real time    0.00
    CHARGE:  cpu time    0.09: real time    0.09
    MIXING:  cpu time    0.01: real time    0.01
    --------------------------------------------
      LOOP:  cpu time    1.73: real time    1.75

 eigenvalue-minimisations  :   800
 total energy-change (2. order) : 0.4432200E-03  (-0.5865433E-04)
 number of electron      60.0000000 magnetization 
 augmentation part       25.3982537 magnetization 

 Broyden mixing:
  rms(total) = 0.46870E-02    rms(broyden)= 0.46850E-02
  rms(prec ) = 0.50586E-02
  weight for this iteration     100.00

 eigenvalues of (default mixing * dielectric matrix)
  average eigenvalue GAMMA=   0.6874
  1.5443  0.9610  0.0846  0.1595

 Free energy of the ion-electron system (eV)
  ---------------------------------------------------
  alpha Z        PSCENC =       305.72458370
  Ewald energy   TEWEN  =     12728.00387236
  -1/2 Hartree   DENC   =    -17991.60150847
  -exchange  EXHF       =         0.00000000
  -V(xc)+E(xc)   XCENC  =      -177.90607941
  PAW double counting   =      4155.77744897    -3791.51668502
  entropy T*S    EENTRO =         0.00000000
  eigenvalues    EBANDS =      -117.05779616
  atomic energy  EATOM  =      4858.47751158
  ---------------------------------------------------
  free energy    TOTEN  =       -30.09865246 eV

  energy without entropy =      -30.09865246  energy(sigma->0) =      -30.09865246


--------------------------------------------------------------------------------------------------------




----------------------------------------- Iteration   15(   6)  ---------------------------------------


    POTLOK:  cpu time    0.10: real time    0.10
    SETDIJ:  cpu time    0.01: real time    0.01
     EDDAV:  cpu time    1.51: real time    1.52
 BZINTS: Fermi energy:  0.324205; 60.000000 electrons
         Band energy:-117.025353;  BLOECHL correction: -0.273973
       DOS:  cpu time    0.00: real time    0.00
    CHARGE:  cpu time    0.09: real time    0.09
    MIXING:  cpu time    0.00: real time    0.01
    --------------------------------------------
      LOOP:  cpu time    1.72: real time    1.74

 eigenvalue-minimisations  :   800
 total energy-change (2. order) : 0.4403427E-04  (-0.1712259E-04)
 number of electron      60.0000000 magnetization 
 augmentation part       25.3980124 magnetization 

 Broyden mixing:
  rms(total) = 0.24524E-02    rms(broyden)= 0.24522E-02
  rms(prec ) = 0.32666E-02
  weight for this iteration     100.00

 eigenvalues of (default mixing * dielectric matrix)
  average eigenvalue GAMMA=   0.8034
  2.2139  0.7788  0.7788  0.0845  0.1611

 Free energy of the ion-electron system (eV)
  ---------------------------------------------------
  alpha Z        PSCENC =       305.72458370
  Ewald energy   TEWEN  =     12728.00387236
  -1/2 Hartree   DENC   =    -17991.63732644
  -exchange  EXHF       =         0.00000000
  -V(xc)+E(xc)   XCENC  =      -177.90604504
  PAW double counting   =      4155.66136145    -3791.39721314
  entropy T*S    EENTRO =         0.00000000
  eigenvalues    EBANDS =      -117.02535288
  atomic energy  EATOM  =      4858.47751158
  ---------------------------------------------------
  free energy    TOTEN  =       -30.09860843 eV

  energy without entropy =      -30.09860843  energy(sigma->0) =      -30.09860843


--------------------------------------------------------------------------------------------------------




----------------------------------------- Iteration   15(   7)  ---------------------------------------


    POTLOK:  cpu time    0.10: real time    0.10
    SETDIJ:  cpu time    0.02: real time    0.01
     EDDAV:  cpu time    1.63: real time    1.64
 BZINTS: Fermi energy:  0.324396; 60.000000 electrons
         Band energy:-117.015220;  BLOECHL correction: -0.273937
       DOS:  cpu time    0.00: real time    0.00
    CHARGE:  cpu time    0.09: real time    0.09
    MIXING:  cpu time    0.00: real time    0.01
    --------------------------------------------
      LOOP:  cpu time    1.85: real time    1.87

 eigenvalue-minimisations  :   872
 total energy-change (2. order) : 0.3110006E-04  (-0.5143141E-05)
 number of electron      60.0000000 magnetization 
 augmentation part       25.3979576 magnetization 

 Broyden mixing:
  rms(total) = 0.46568E-03    rms(broyden)= 0.46497E-03
  rms(prec ) = 0.56591E-03
  weight for this iteration     100.00

 eigenvalues of (default mixing * dielectric matrix)
  average eigenvalue GAMMA=   0.8764
  2.2896  0.9657  0.9657  0.7922  0.0845  0.1610

 Free energy of the ion-electron system (eV)
  ---------------------------------------------------
  alpha Z        PSCENC =       305.72458370
  Ewald energy   TEWEN  =     12728.00387236
  -1/2 Hartree   DENC   =    -17991.65016924
  -exchange  EXHF       =         0.00000000
  -V(xc)+E(xc)   XCENC  =      -177.90606560
  PAW double counting   =      4155.55760292    -3791.29069306
  entropy T*S    EENTRO =         0.00000000
  eigenvalues    EBANDS =      -117.01521998
  atomic energy  EATOM  =      4858.47751158
  ---------------------------------------------------
  free energy    TOTEN  =       -30.09857733 eV

  energy without entropy =      -30.09857733  energy(sigma->0) =      -30.09857733


--------------------------------------------------------------------------------------------------------




----------------------------------------- Iteration   15(   8)  ---------------------------------------


    POTLOK:  cpu time    0.10: real time    0.10
    SETDIJ:  cpu time    0.01: real time    0.01
     EDDAV:  cpu time    0.89: real time    0.90
 BZINTS: Fermi energy:  0.324714; 60.000000 electrons
         Band energy:-116.998730;  BLOECHL correction: -0.273949
       DOS:  cpu time    0.00: real time    0.00
    CHARGE:  cpu time    0.10: real time    0.10
    MIXING:  cpu time    0.01: real time    0.01
    --------------------------------------------
      LOOP:  cpu time    1.11: real time    1.13

 eigenvalue-minimisations  :   368
 total energy-change (2. order) :-0.1642166E-04  (-0.1949713E-06)
 number of electron      60.0000000 magnetization 
 augmentation part       25.3978553 magnetization 

 Broyden mixing:
  rms(total) = 0.33060E-03    rms(broyden)= 0.33046E-03
  rms(prec ) = 0.37057E-03
  weight for this iteration     100.00

 eigenvalues of (default mixing * dielectric matrix)
  average eigenvalue GAMMA=   0.9770
  2.3727  1.2529  1.2529  0.8576  0.8576  0.0845  0.1610

 Free energy of the ion-electron system (eV)
  ---------------------------------------------------
  alpha Z        PSCENC =       305.72458370
  Ewald energy   TEWEN  =     12728.00387236
  -1/2 Hartree   DENC   =    -17991.66755370
  -exchange  EXHF       =         0.00000000
  -V(xc)+E(xc)   XCENC  =      -177.90597624
  PAW double counting   =      4155.54727286    -3791.27957469
  entropy T*S    EENTRO =         0.00000000
  eigenvalues    EBANDS =      -116.99872961
  atomic energy  EATOM  =      4858.47751158
  ---------------------------------------------------
  free energy    TOTEN  =       -30.09859375 eV

  energy without entropy =      -30.09859375  energy(sigma->0) =      -30.09859375


--------------------------------------------------------------------------------------------------------




----------------------------------------- Iteration   15(   9)  ---------------------------------------


    POTLOK:  cpu time    0.11: real time    0.11
    SETDIJ:  cpu time    0.01: real time    0.01
     EDDAV:  cpu time    0.75: real time    0.76
 BZINTS: Fermi energy:  0.324719; 60.000000 electrons
         Band energy:-116.998428;  BLOECHL correction: -0.273956
       DOS:  cpu time    0.00: real time    0.00
    CHARGE:  cpu time    0.09: real time    0.09
    MIXING:  cpu time    0.00: real time    0.01
    --------------------------------------------
      LOOP:  cpu time    0.97: real time    0.99

 eigenvalue-minimisations  :   288
 total energy-change (2. order) :-0.3177011E-05  (-0.4811285E-07)
 number of electron      60.0000000 magnetization 
 augmentation part       25.3978715 magnetization 

 Broyden mixing:
  rms(total) = 0.17429E-03    rms(broyden)= 0.17429E-03
  rms(prec ) = 0.19596E-03
  weight for this iteration     100.00

 eigenvalues of (default mixing * dielectric matrix)
  average eigenvalue GAMMA=   0.9760
  2.4532  1.3379  1.3379  0.0845  0.1610  0.8485  0.8485  0.7370

 Free energy of the ion-electron system (eV)
  ---------------------------------------------------
  alpha Z        PSCENC =       305.72458370
  Ewald energy   TEWEN  =     12728.00387236
  -1/2 Hartree   DENC   =    -17991.66819703
  -exchange  EXHF       =         0.00000000
  -V(xc)+E(xc)   XCENC  =      -177.90596175
  PAW double counting   =      4155.53953242    -3791.27150984
  entropy T*S    EENTRO =         0.00000000
  eigenvalues    EBANDS =      -116.99842837
  atomic energy  EATOM  =      4858.47751158
  ---------------------------------------------------
  free energy    TOTEN  =       -30.09859692 eV

  energy without entropy =      -30.09859692  energy(sigma->0) =      -30.09859692


--------------------------------------------------------------------------------------------------------




----------------------------------------- Iteration   15(  10)  ---------------------------------------


    POTLOK:  cpu time    0.10: real time    0.10
    SETDIJ:  cpu time    0.01: real time    0.01
     EDDAV:  cpu time    0.77: real time    0.78
 BZINTS: Fermi energy:  0.324681; 60.000000 electrons
         Band energy:-117.000624;  BLOECHL correction: -0.273955
       DOS:  cpu time    0.00: real time    0.00
    CHARGE:  cpu time    0.09: real time    0.09
    MIXING:  cpu time    0.01: real time    0.01
    --------------------------------------------
      LOOP:  cpu time    1.00: real time    1.01

 eigenvalue-minimisations  :   288
 total energy-change (2. order) : 0.1985047E-05  (-0.3019884E-07)
 number of electron      60.0000000 magnetization 
 augmentation part       25.3978839 magnetization 

 Broyden mixing:
  rms(total) = 0.79342E-04    rms(broyden)= 0.79338E-04
  rms(prec ) = 0.86943E-04
  weight for this iteration     100.00

 eigenvalues of (default mixing * dielectric matrix)
  average eigenvalue GAMMA=   0.9777
  2.4805  1.4223  1.4223  0.0845  0.1610  0.8835  0.8835  0.7307  0.7307

 Free energy of the ion-electron system (eV)
  ---------------------------------------------------
  alpha Z        PSCENC =       305.72458370
  Ewald energy   TEWEN  =     12728.00387236
  -1/2 Hartree   DENC   =    -17991.66607927
  -exchange  EXHF       =         0.00000000
  -V(xc)+E(xc)   XCENC  =      -177.90594990
  PAW double counting   =      4155.53686300    -3791.26877218
  entropy T*S    EENTRO =         0.00000000
  eigenvalues    EBANDS =      -117.00062422
  atomic energy  EATOM  =      4858.47751158
  ---------------------------------------------------
  free energy    TOTEN  =       -30.09859494 eV

  energy without entropy =      -30.09859494  energy(sigma->0) =      -30.09859494


--------------------------------------------------------------------------------------------------------




----------------------------------------- Iteration   15(  11)  ---------------------------------------


    POTLOK:  cpu time    0.11: real time    0.11
    SETDIJ:  cpu time    0.01: real time    0.01
     EDDAV:  cpu time    0.77: real time    0.77
 BZINTS: Fermi energy:  0.324700; 60.000000 electrons
         Band energy:-116.999389;  BLOECHL correction: -0.273954
       DOS:  cpu time    0.00: real time    0.00
    --------------------------------------------
      LOOP:  cpu time    0.89: real time    0.91

 eigenvalue-minimisations  :   288
 total energy-change (2. order) : 0.8203860E-06  (-0.1040618E-07)
 number of electron      60.0000000 magnetization 
 augmentation part       25.3978839 magnetization 

 Free energy of the ion-electron system (eV)
  ---------------------------------------------------
  alpha Z        PSCENC =       305.72458370
  Ewald energy   TEWEN  =     12728.00387236
  -1/2 Hartree   DENC   =    -17991.66731793
  -exchange  EXHF       =         0.00000000
  -V(xc)+E(xc)   XCENC  =      -177.90594505
  PAW double counting   =      4155.53595685    -3791.26786661
  entropy T*S    EENTRO =         0.00000000
  eigenvalues    EBANDS =      -116.99938902
  atomic energy  EATOM  =      4858.47751158
  ---------------------------------------------------
  free energy    TOTEN  =       -30.09859412 eV

  energy without entropy =      -30.09859412  energy(sigma->0) =      -30.09859412


--------------------------------------------------------------------------------------------------------




 average (electrostatic) potential at core
  the test charge radii are     1.1199
  (the norm of the test charge is              1.0000)
       1 -50.8755       2 -51.2189       3 -51.1815       4 -51.1816       5 -51.2189
       6 -50.8757
 
 
 
 E-fermi :   0.3247     XC(G=0):  -8.1434     alpha+bet : -6.5480


 k-point   1 :       0.0000    0.0000    0.0000
  band No.  band energies     occupation 
      1      -6.2687      2.00000
      2      -5.6498      2.00000
      3      -4.9220      2.00000
      4      -4.6105      2.00000
      5      -4.3563      2.00000
      6      -4.3501      2.00000
      7      -2.3723      2.00000
      8      -2.3545      2.00000
      9      -2.2877      2.00000
     10      -2.2877      2.00000
     11      -2.2379      2.00000
     12      -2.2379      2.00000
     13      -2.1436      2.00000
     14      -2.1293      2.00000
     15      -2.1293      2.00000
     16      -2.0543      2.00000
     17      -2.0543      2.00000
     18      -1.8952      2.00000
     19      -1.8952      2.00000
     20      -1.8607      2.00000
     21      -1.8607      2.00000
     22      -1.5537      2.00000
     23      -0.8216      2.00000
     24      -0.8216      2.00000
     25      -0.7768      2.00000
     26      -0.7768      2.00000
     27      -0.5746      2.00000
     28      -0.5746      2.00000
     29      -0.2915      2.00000
     30      -0.2333      2.00000
     31      -0.2333      2.00000
     32       0.1120      2.00000
     33       0.1120      2.00000
     34       0.2887      2.00000
     35       0.2887      0.04932
     36       1.2642      0.00000

 k-point   2 :       0.1429    0.0000    0.0000
  band No.  band energies     occupation 
      1      -5.6720      2.00000
      2      -5.0854      2.00000
      3      -4.3883      2.00000
      4      -4.1700      2.00000
      5      -3.9061      2.00000
      6      -3.8441      2.00000
      7      -2.8392      2.00000
      8      -2.6628      2.00000
      9      -2.5991      2.00000
     10      -2.4785      2.00000
     11      -2.3872      2.00000
     12      -2.1893      2.00000
     13      -2.0336      2.00000
     14      -2.0274      2.00000
     15      -1.9777      2.00000
     16      -1.9093      2.00000
     17      -1.9078      2.00000
     18      -1.8050      2.00000
     19      -1.7493      2.00000
     20      -1.7402      2.00000
     21      -1.5566      2.00000
     22      -1.5380      2.00000
     23      -1.4991      2.00000
     24      -1.1154      2.00000
     25      -1.0783      2.00000
     26      -0.9069      2.00000
     27      -0.7688      2.00000
     28      -0.7301      2.00000
     29      -0.5357      2.00000
     30      -0.4316      2.00000
     31      -0.2262      2.00000
     32       0.1243      2.00000
     33       0.2403      2.00631
     34       0.3181      0.83440
     35       1.3076     -0.00697
     36       2.6215      0.00000

 k-point   3 :       0.2857    0.0000    0.0000
  band No.  band energies     occupation 
      1      -4.5241      2.00000
      2      -4.2070      2.00000
      3      -4.0509      2.00000
      4      -3.8832      2.00000
      5      -3.6950      2.00000
      6      -3.5503      2.00000
      7      -3.3547      2.00000
      8      -3.2716      2.00000
      9      -2.9185      2.00000
     10      -2.5373      2.00000
     11      -2.4687      2.00000
     12      -2.1578      2.00000
     13      -2.0859      2.00000
     14      -1.9853      2.00000
     15      -1.9819      2.00000
     16      -1.7043      2.00000
     17      -1.6156      2.00000
     18      -1.3943      2.00000
     19      -1.2231      2.00000
     20      -1.2104      2.00000
     21      -1.0703      2.00000
     22      -0.9470      2.00000
     23      -0.7543      2.00000
     24      -0.7319      2.00000
     25      -0.6277      2.00000
     26      -0.5967      2.00000
     27      -0.4930      2.03806
     28      -0.4190      2.11838
     29      -0.2801      2.23016
     30      -0.1512      2.16710
     31       0.0820      1.28625
     32       0.1393      1.11546
     33       0.3722      0.54165
     34       1.3582     -0.00171
     35       2.9078      0.00000
     36       4.5916      0.00000

 k-point   4 :       0.4286    0.0000    0.0000
  band No.  band energies     occupation 
      1      -4.4978      2.00000
      2      -4.4524      2.00000
      3      -4.2531      2.00000
      4      -4.1796      2.00000
      5      -4.0666      2.00000
      6      -3.8431      2.00000
      7      -3.8150      2.00000
      8      -3.6943      2.00000
      9      -3.2071      2.00000
     10      -2.6688      2.00000
     11      -2.4047      2.00000
     12      -2.3055      2.00000
     13      -2.1981      2.00000
     14      -1.7686      2.00000
     15      -1.7124      2.00000
     16      -1.4092      2.00000
     17      -1.2018      2.00000
     18      -0.9339      2.00000
     19      -0.5866      2.00000
     20      -0.4703      2.00000
     21      -0.1005      2.00000
     22      -0.0716      2.00000
     23       0.1845      2.00000
     24       0.1931      2.00000
     25       0.2503      2.00000
     26       0.2692      2.00000
     27       0.3457      1.51876
     28       0.4150      0.72064
     29       0.4672      0.21939
     30       0.5203      0.12374
     31       1.1328     -0.02643
     32       1.8480     -0.02860
     33       2.2160      0.00000
     34       3.0446      0.00000
     35       4.4133      0.00000
     36       5.7038      0.00000

 k-point   5 :       0.2857    0.1429    0.0000
  band No.  band energies     occupation 
      1      -4.6816      2.00000
      2      -4.2620      2.00000
      3      -3.7449      2.00000
      4      -3.5410      2.00000
      5      -3.4246      2.00000
      6      -3.2877      2.00000
      7      -3.1537      2.00000
      8      -3.1194      2.00000
      9      -2.9470      2.00000
     10      -2.8530      2.00000
     11      -2.5832      2.00000
     12      -2.5063      2.00000
     13      -2.4011      2.00000
     14      -2.2855      2.00000
     15      -2.1147      2.00000
     16      -2.0246      2.00000
     17      -1.9695      2.00000
     18      -1.7179      2.00000
     19      -1.5622      2.00000
     20      -1.3802      2.00000
     21      -1.2599      2.00000
     22      -1.1403      2.00000
     23      -1.1265      2.00000
     24      -0.8735      2.00000
     25      -0.7890      2.00000
     26      -0.5770      2.00000
     27      -0.5181      2.00000
     28      -0.4566      2.00000
     29      -0.2587      2.00000
     30      -0.2271      2.13876
     31      -0.0493      1.64015
     32       0.1367      1.41979
     33       0.1644      1.33928
     34       1.1631     -0.15028
     35       2.5236      0.00000
     36       4.0896      0.00000

 k-point   6 :       0.4286    0.1429    0.0000
  band No.  band energies     occupation 
      1      -4.0756      2.00000
      2      -4.0418      2.00000
      3      -3.8462      2.00000
      4      -3.7030      2.00000
      5      -3.6640      2.00000
      6      -3.5213      2.00000
      7      -3.4040      2.00000
      8      -3.1486      2.00000
      9      -3.0585      2.00000
     10      -2.8049      2.00000
     11      -2.4633      2.00000
     12      -2.4231      2.00000
     13      -2.2966      2.00000
     14      -2.0163      2.00000
     15      -1.9550      2.00000
     16      -1.8590      2.00000
     17      -1.5805      2.00000
     18      -1.4652      2.00000
     19      -1.3446      2.00000
     20      -1.2061      2.00000
     21      -1.0016      2.00000
     22      -0.7709      2.00000
     23      -0.7296      2.00000
     24      -0.5456      2.00000
     25      -0.2757      2.00000
     26      -0.2533      2.00000
     27       0.1909      2.00755
     28       0.2118      1.99356
     29       0.3107      1.53163
     30       0.4457      0.48335
     31       1.3115     -0.11529
     32       1.4921     -0.13877
     33       1.9105     -0.11748
     34       2.9546      0.00000
     35       4.4348      0.00000
     36       6.1209      0.00000

 k-point   7 :      -0.4286    0.1429    0.0000
  band No.  band energies     occupation 
      1      -4.3073      2.00000
      2      -4.1572      2.00000
      3      -4.0362      2.00000
      4      -3.9103      2.00000
      5      -3.7513      2.00000
      6      -3.7032      2.00000
      7      -3.5242      2.00000
      8      -3.3585      2.00000
      9      -3.1471      2.00000
     10      -2.8460      2.00000
     11      -2.7085      2.00000
     12      -2.2051      2.00000
     13      -2.1605      2.00000
     14      -2.0276      2.00000
     15      -1.8296      2.00000
     16      -1.6505      2.00000
     17      -1.3420      2.00000
     18      -1.1028      2.00000
     19      -1.0483      2.00000
     20      -0.6452      2.00000
     21      -0.5570      2.00000
     22      -0.5035      2.00000
     23      -0.2195      2.00000
     24      -0.0588      2.00000
     25       0.0934      2.00000
     26       0.1029      2.00000
     27       0.1818      2.14693
     28       0.2187      1.96086
     29       0.3797      0.01625
     30       0.4855      0.00000
     31       3.4632      0.00000
     32       3.9930      0.00000
     33       4.4472      0.00000
     34       4.7821      0.00000
     35       5.0538      0.00000
     36       5.2092      0.00000

 k-point   8 :      -0.4286    0.2857    0.0000
  band No.  band energies     occupation 
      1      -3.8065      2.00000
      2      -3.8021      2.00000
      3      -3.5818      2.00000
      4      -3.4093      2.00000
      5      -3.3339      2.00000
      6      -3.1939      2.00000
      7      -3.1768      2.00000
      8      -3.0297      2.00000
      9      -3.0216      2.00000
     10      -2.7699      2.00000
     11      -2.7610      2.00000
     12      -2.4432      2.00000
     13      -2.3950      2.00000
     14      -2.1890      2.00000
     15      -2.0249      2.00000
     16      -1.7959      2.00000
     17      -1.7467      2.00000
     18      -1.6184      2.00000
     19      -1.5888      2.00000
     20      -1.1662      2.00000
     21      -1.0789      2.00000
     22      -0.8905      2.00000
     23      -0.7445      2.00000
     24      -0.6855      2.00000
     25      -0.3449      2.00000
     26      -0.0852      2.00000
     27       0.1682      2.00000
     28       0.2441      2.00000
     29       0.2783      2.00102
     30       0.4358      0.00000
     31       4.1086      0.00000
     32       4.4968      0.00000
     33       5.1324      0.00000
     34       6.0616      0.00000
     35       7.1922      0.00000
     36       7.8554      0.00000


--------------------------------------------------------------------------------------------------------


 soft charge-density along one line, spin component           1
         0         1         2         3         4         5         6         7         8         9
 total charge-density along one line
 
 pseudopotential strength for first ion, spin component:           1
-11.401   0.000   0.000   0.000   0.000   0.000  -0.011   0.000   0.000   0.000   0.110   0.000   0.000   0.000   0.000   0.000
  0.000   0.000 -11.289   0.000   0.000   0.000   0.000   0.000  -0.011   0.000   0.000   0.000   0.092   0.000   0.000   0.000
  0.000   0.000   0.000   0.000 -11.270   0.000   0.000   0.000   0.000   0.000   0.000   0.000   0.000   0.000   0.089   0.000
 -0.011   0.000   0.000   0.000   0.000   0.000 -11.289   0.000   0.000   0.000   0.002   0.000   0.000   0.000   0.000   0.000
  0.000   0.000  -0.011   0.000   0.000   0.000   0.000   0.000 -11.401   0.000   0.000   0.000   0.002   0.000   0.000   0.000
  0.110   0.000   0.000   0.000   0.000   0.000   0.002   0.000   0.000   0.000   0.323   0.000   0.000   0.000   0.000   0.000
  0.000   0.000   0.092   0.000   0.000   0.000   0.000   0.000   0.002   0.000   0.000   0.000   0.326   0.000   0.000   0.000
  0.000   0.000   0.000   0.000   0.089   0.000   0.000   0.000   0.000   0.000   0.000   0.000   0.000   0.000   0.327   0.000
  0.002   0.000   0.000   0.000   0.000   0.000   0.092   0.000   0.000   0.000   0.000   0.000   0.000   0.000   0.000   0.000
  0.000   0.000   0.002   0.000   0.000   0.000   0.000   0.000   0.110   0.000   0.000   0.000   0.000   0.000   0.000   0.000
  0.000   0.000   0.000   0.000  -0.029   0.000   0.000   0.000   0.000   0.000   0.000   0.000   0.000   0.000   0.004   0.000
  0.000   0.000   0.000   0.000   0.002   0.000   0.000   0.000   0.000   0.000   0.000   0.000   0.000   0.000   0.000   0.000
  0.000   0.000  -0.011   0.000   0.000   0.000   0.000   0.000   0.000   0.000   0.000   0.000   0.002   0.000   0.000   0.000
  0.000   0.000   0.000   0.000  -0.012   0.000   0.000   0.000   0.000   0.000   0.000   0.000   0.000   0.000   0.002   0.000
  0.000   0.000   0.000   0.000   0.000   0.000  -0.011   0.000   0.000   0.000   0.000   0.000   0.000   0.000   0.000   0.000
  0.000   0.000   0.010   0.000   0.000   0.000   0.000   0.000   0.000   0.000   0.000   0.000  -0.002   0.000   0.000   0.000
  0.000   0.000   0.000   0.000   0.010   0.000   0.000   0.000   0.000   0.000   0.000   0.000   0.000   0.000  -0.002   0.000
  0.000   0.000   0.000   0.000   0.000   0.000   0.010   0.000   0.000   0.000   0.000   0.000   0.000   0.000   0.000   0.000
 total augmentation occupancy for first ion, spin component:           1
  1.724   0.000   0.000  -0.042   0.000   0.132   0.000   0.000   0.021   0.000   0.000   0.000   0.000   0.000   0.003   0.000
  0.000   1.854   0.000   0.000  -0.042   0.000   0.051   0.000   0.000   0.022   0.000   0.000  -0.015   0.000   0.000  -0.015
  0.000   0.000   1.833   0.000   0.000   0.000   0.000   0.079   0.000   0.000   0.016  -0.063   0.000   0.026   0.000   0.000
 -0.042   0.000   0.000   1.854   0.000   0.022   0.000   0.000   0.051   0.000   0.000   0.000   0.000   0.000  -0.015   0.000
  0.000  -0.042   0.000   0.000   1.724   0.000   0.021   0.000   0.000   0.132   0.000   0.000   0.003   0.000   0.000   0.001
  0.132   0.000   0.000   0.022   0.000   0.113   0.000   0.000   0.003   0.000   0.000   0.000   0.000   0.000   0.006   0.000
  0.000   0.051   0.000   0.000   0.021   0.000   0.090   0.000   0.000   0.003   0.000   0.000   0.033   0.000   0.000  -0.001
  0.000   0.000   0.079   0.000   0.000   0.000   0.000   0.118   0.000   0.000  -0.112   0.029   0.000   0.045   0.000   0.000
  0.021   0.000   0.000   0.051   0.000   0.003   0.000   0.000   0.090   0.000   0.000   0.000   0.000   0.000   0.033   0.000
  0.000   0.022   0.000   0.000   0.132   0.000   0.003   0.000   0.000   0.113   0.000   0.000   0.006   0.000   0.000   0.000
  0.000   0.000   0.016   0.000   0.000   0.000   0.000  -0.112   0.000   0.000   1.000  -0.326   0.000   0.073   0.000   0.000
  0.000   0.000  -0.063   0.000   0.000   0.000   0.000   0.029   0.000   0.000  -0.326   0.121   0.000  -0.039   0.000   0.000
  0.000  -0.015   0.000   0.000   0.003   0.000   0.033   0.000   0.000   0.006   0.000   0.000   0.110   0.000   0.000  -0.002
  0.000   0.000   0.026   0.000   0.000   0.000   0.000   0.045   0.000   0.000   0.073  -0.039   0.000   0.062   0.000   0.000
  0.003   0.000   0.000  -0.015   0.000   0.006   0.000   0.000   0.033   0.000   0.000   0.000   0.000   0.000   0.110   0.000
  0.000  -0.015   0.000   0.000   0.001   0.000  -0.001   0.000   0.000   0.000   0.000   0.000  -0.002   0.000   0.000   0.000
  0.000   0.000  -0.020   0.000   0.000   0.000   0.000  -0.001   0.000   0.000  -0.004   0.002   0.000  -0.001   0.000   0.000
  0.001   0.000   0.000  -0.015   0.000   0.000   0.000   0.000  -0.001   0.000   0.000   0.000   0.000   0.000  -0.002   0.000


------------------------ aborting loop because EDIFF is reached ----------------------------------------


    CHARGE:  cpu time    0.10: real time    0.09
    FORLOC:  cpu time    0.01: real time    0.01
    FORNL :  cpu time    0.46: real time    0.46
    STRESS:  cpu time    0.76: real time    0.77
    FORCOR:  cpu time    0.12: real time    0.12
    FORHAR:  cpu time    0.04: real time    0.04
    MIXING:  cpu time    0.01: real time    0.01

  FORCE on cell =-STRESS in cart. coord.  units (eV):
  Direction    XX          YY          ZZ          XY          YZ          ZX
  --------------------------------------------------------------------------------------
  Alpha Z   305.72458   305.72458   305.72458
  Ewald   16055.18811 16055.18811-19382.37251     0.00000     0.00000     0.00000
  Hartree 17506.38138 17506.38138-17021.10571     0.00000     0.00000     0.00000
  E(xc)    -313.74044  -313.74045  -314.88119     0.00001     0.00000     0.00000
  Local  -34304.82216-34304.82244 35652.91740     0.00024     0.00000     0.00000
  n-local  -332.48527  -308.55594  -322.90944     5.24158    -3.09704     1.52230
  augment   256.65993   256.66018   259.97040    -0.00022     0.00000     0.00000
  Kinetic   802.91237   823.51607   822.42844     5.25294     2.99793    -0.76029
  Fock        0.00000     0.00000     0.00000     0.00000     0.00000     0.00000
  -------------------------------------------------------------------------------------
  Total      -1.91501    -1.91501    -0.22804     0.00000     0.00000     0.00000
  in kB     -19.13811   -19.13811    -2.27897     0.00000     0.00000     0.00000
  external pressure =      -13.52 kB  Pullay stress =        0.00 kB


 VOLUME and BASIS-vectors are now :
 -----------------------------------------------------------------------------
  energy-cutoff  :      415.00
  volume of cell :      160.32
      direct lattice vectors                 reciprocal lattice vectors
     2.795185513  0.000000000  0.000000000     0.357758008 -0.206551682  0.000000000
     1.397592758  2.420701664  0.000000000     0.000000000  0.413103364  0.000000000
     0.000000000  0.000000000 23.693556493     0.000000000  0.000000000  0.042205568

  length of vectors
     2.795185513  2.795185515 23.693556493     0.413103364  0.413103364  0.042205568


 FORCES acting on ions
    electron-ion (+dipol)            ewald-force                    non-local-force                 convergence-correction
 -----------------------------------------------------------------------------------------------
   0.208E-06 0.149E-06 0.282E+04   0.258E-07 -.243E-07 -.282E+04   -.520E-17 0.347E-17 -.126E+01   -.263E-10 -.149E-10 0.375E-02
   0.145E-06 0.832E-07 -.569E+03   -.217E-09 0.206E-09 0.569E+03   0.867E-18 0.000E+00 -.399E-01   0.776E-10 0.446E-10 -.405E-03
   0.629E-06 0.363E-06 0.170E+04   0.115E-08 -.208E-09 -.170E+04   0.651E-18 -.867E-18 -.475E-01   -.108E-10 -.585E-11 0.336E-02
   0.698E-06 0.403E-06 -.170E+04   -.108E-10 0.863E-09 0.170E+04   -.867E-18 0.867E-18 0.475E-01   0.138E-10 0.759E-11 -.333E-02
   -.422E-06 -.243E-06 0.569E+03   -.359E-09 -.539E-09 -.569E+03   -.130E-17 0.000E+00 0.399E-01   -.790E-10 -.453E-10 0.453E-03
   -.422E-06 -.272E-06 -.282E+04   -.263E-07 0.240E-07 0.282E+04   0.694E-17 -.867E-18 0.126E+01   0.249E-10 0.141E-10 -.376E-02
 -----------------------------------------------------------------------------------------------
   0.836E-06 0.483E-06 -.860E-03   0.166E-12 -.707E-13 0.455E-12   0.108E-17 0.260E-17 0.000E+00   0.926E-13 0.261E-12 0.765E-04
 
 
 POSITION                                       TOTAL-FORCE (eV/Angst)
 -----------------------------------------------------------------------------------
      0.00000      0.00000      0.01616         0.000000      0.000000      0.002828
      0.00000      0.00000      6.83959         0.000000      0.000000     -0.004445
      1.39759      0.80690      2.30005         0.000000      0.000000      0.000054
      1.39759      0.80690      9.11124         0.000000      0.000000     -0.000054
      2.79519      1.61380      4.57171         0.000000      0.000000      0.004445
      2.79519      1.61380     11.39514         0.000000      0.000000     -0.002828
 -----------------------------------------------------------------------------------
    total drift:                                0.000001      0.000000     -0.000784


--------------------------------------------------------------------------------------------------------



  FREE ENERGIE OF THE ION-ELECTRON SYSTEM (eV)
  ---------------------------------------------------
  free  energy   TOTEN  =       -30.09859412 eV

  energy  without entropy=      -30.09859412  energy(sigma->0) =      -30.09859412
 
 d Force = 0.4826275E-04[-0.248E-04, 0.121E-03]  d Energy = 0.8172563E-03-0.769E-03
 d Force = 0.3633758E+02[ 0.363E+02, 0.364E+02]  d Ewald  = 0.3633758E+02-0.438E-06


--------------------------------------------------------------------------------------------------------


    POTLOK:  cpu time    0.12: real time    0.12


--------------------------------------------------------------------------------------------------------




--------------------------------------------------------------------------------------------------------


  
 reached required accuracy - stopping structural energy minimisation
 writing wavefunctions
     LOOP+:  cpu time   17.68: real time   17.89
    4ORBIT:  cpu time    0.00: real time    0.00
 BZINTS: Fermi energy:  0.324700; 60.000000 electrons
         Band energy:-116.999389;  BLOECHL correction: -0.273954

 total amount of memory used by VASP on root node    56174. kBytes
========================================================================

   base      :      30000. kBytes
   nonl-proj :       3888. kBytes
   fftplans  :       6486. kBytes
   grid      :       8279. kBytes
   one-center:         93. kBytes
   wavefun   :       7428. kBytes
 
  
  
 General timing and accounting informations for this job:
 ========================================================
  
                  Total CPU time used (sec):      265.053
                            User time (sec):      263.992
                          System time (sec):        1.060
                         Elapsed time (sec):      269.575
  
                   Maximum memory used (kb):       75020.
                   Average memory used (kb):           0.
  
                          Minor page faults:        23803
                          Major page faults:           32
                 Voluntary context switches:         1583
