Cu Bulk                                 
   1.00000000000000     
     3.6313548566799998    0.0000000000000000    0.0000000000000000
     0.0000000000000000    3.6313548566799998    0.0000000000000000
     0.0000000000000000    0.0000000000000000   20.8940645700499985
   Cu
    12
Selective dynamics
Direct
  0.0000000000000000  0.0000000000000000  0.0018076496574858   T   T   T
  0.0000000000000000  0.0000000000000000  0.1739438643668353   T   T   T
  0.0000000000000000  0.0000000000000000  0.3478409064851909   T   T   T
  0.5000000000000000  0.5000000000000000  0.0018076496574858   T   T   T
  0.5000000000000000  0.5000000000000000  0.1739438643668353   T   T   T
  0.5000000000000000  0.5000000000000000  0.3478409064851909   T   T   T
  0.5000000000000000  0.0000000000000000  0.0866550773548107   T   T   T
  0.5000000000000000  0.0000000000000000  0.2605521194631618   T   T   T
  0.5000000000000000  0.0000000000000000  0.4326883341825157   T   T   T
  0.0000000000000000  0.5000000000000000  0.0866550773548107   T   T   T
  0.0000000000000000  0.5000000000000000  0.2605521194631618   T   T   T
  0.0000000000000000  0.5000000000000000  0.4326883341825157   T   T   T
 
  0.00000000E+00  0.00000000E+00  0.00000000E+00
  0.00000000E+00  0.00000000E+00  0.00000000E+00
  0.00000000E+00  0.00000000E+00  0.00000000E+00
  0.00000000E+00  0.00000000E+00  0.00000000E+00
  0.00000000E+00  0.00000000E+00  0.00000000E+00
  0.00000000E+00  0.00000000E+00  0.00000000E+00
  0.00000000E+00  0.00000000E+00  0.00000000E+00
  0.00000000E+00  0.00000000E+00  0.00000000E+00
  0.00000000E+00  0.00000000E+00  0.00000000E+00
  0.00000000E+00  0.00000000E+00  0.00000000E+00
  0.00000000E+00  0.00000000E+00  0.00000000E+00
  0.00000000E+00  0.00000000E+00  0.00000000E+00
