 vasp.5.2.12 11Nov11 complex                                                    
  
 executed on             LinuxIFC date 2016.03.07  18:17:33
 running on    2 nodes
 distr:  one band on    1 nodes,    2 groups


--------------------------------------------------------------------------------------------------------


 INCAR:
 POTCAR:   PAW_PBE Cu 05Jan2001                   
 POTCAR:   PAW_PBE Cu 05Jan2001                   
   VRHFIN =Cu: d10 p1                                                           
   LEXCH  = PE                                                                  
   EATOM  =  1390.9800 eV,  102.2341 Ry                                         
                                                                                
   TITEL  = PAW_PBE Cu 05Jan2001                                                
   LULTRA =        F    use ultrasoft PP ?                                      
   IUNSCR =        1    unscreen: 0-lin 1-nonlin 2-no                           
   RPACOR =    2.000    partial core radius                                     
   POMASS =   63.546; ZVAL   =   11.000    mass and valenz                      
   RCORE  =    2.300    outmost cutoff radius                                   
   RWIGS  =    2.480; RWIGS  =    1.312    wigner-seitz radius (au A)           
   ENMAX  =  273.214; ENMIN  =  204.910 eV                                      
   RCLOC  =    1.712    cutoff for local pot                                    
   LCOR   =        T    correct aug charges                                     
   LPAW   =        T    paw PP                                                  
   EAUG   =  516.456                                                            
   DEXC   =    -.008                                                            
   RMAX   =    2.789    core radius for proj-oper                               
   RAUG   =    1.300    factor for augmentation sphere                          
   RDEP   =    2.302    radius for radial grids                                 
   QCUT   =   -4.481; QGAM   =    8.962    optimization parameters              
                                                                                
   Description                                                                  
     l     E      TYP  RCUT    TYP  RCUT                                        
     2   .000     23  2.300                                                     
     2   .000     23  2.300                                                     
     0   .000     23  2.300                                                     
     0   .000     23  2.300                                                     
     1  -.200     23  2.300                                                     
     1   .000     23  2.300                                                     
     3   .000      7   .000                                                     
  local pseudopotential read in
  partial core-charges read in
  atomic valenz-charges read in
  non local Contribution for L=           2  read in
    real space projection operators read in
  non local Contribution for L=           2  read in
    real space projection operators read in
  non local Contribution for L=           0  read in
    real space projection operators read in
  non local Contribution for L=           0  read in
    real space projection operators read in
  non local Contribution for L=           1  read in
    real space projection operators read in
  non local Contribution for L=           1  read in
    real space projection operators read in
    PAW grid and wavefunctions read in
 
   number of l-projection  operators is LMAX  =           6
   number of lm-projection operators is LMMAX =          18
 
 PAW_PBE Cu 05Jan2001                   :
 energy of atom  1       EATOM=-1390.9800
 kinetic energy error for atom=    0.0086 (will be added to EATOM!!)
 
 
 POSCAR: Cu Bulk                                 
  positions in direct lattice
  No initial velocities read in
 exchange correlation table for  LEXCH =        8
   RHO(1)=    0.500       N(1)  =     2000
   RHO(2)=  100.500       N(2)  =     4000
 


--------------------------------------------------------------------------------------------------------


 ion  position               nearest neighbor table
   1  0.000  0.000  0.000-   4 2.57   4 2.57   4 2.57   4 2.57  10 2.57  10 2.57   7 2.57   7 2.57

   2  0.000  0.000  0.174-   7 2.57  10 2.57  10 2.57   7 2.57   5 2.57   5 2.57   5 2.57   5 2.57
                             8 2.57  11 2.57   8 2.57  11 2.57
   3  0.000  0.000  0.348-   6 2.57   6 2.57   6 2.57   6 2.57  12 2.57  12 2.57   9 2.57   9 2.57
                            11 2.57   8 2.57  11 2.57   8 2.57
   4  0.500  0.500  0.000-   1 2.57   1 2.57   1 2.57   1 2.57   7 2.57  10 2.57  10 2.57   7 2.57

   5  0.500  0.500  0.174-   7 2.57  10 2.57   7 2.57  10 2.57   2 2.57   2 2.57   2 2.57   2 2.57
                             8 2.57  11 2.57  11 2.57   8 2.57
   6  0.500  0.500  0.348-   3 2.57   3 2.57   3 2.57   3 2.57   9 2.57  12 2.57  12 2.57   9 2.57
                            11 2.57  11 2.57   8 2.57   8 2.57
   7  0.500  0.000  0.087-   2 2.57   5 2.57   5 2.57   2 2.57  10 2.57  10 2.57  10 2.57  10 2.57
                             1 2.57   4 2.57   1 2.57   4 2.57
   8  0.500  0.000  0.261-  11 2.57  11 2.57  11 2.57  11 2.57   5 2.57   2 2.57   2 2.57   5 2.57
                             6 2.57   3 2.57   6 2.57   3 2.57
   9  0.500  0.000  0.434-  12 2.57  12 2.57  12 2.57  12 2.57   6 2.57   3 2.57   3 2.57   6 2.57

  10  0.000  0.500  0.087-   2 2.57   5 2.57   2 2.57   5 2.57   7 2.57   7 2.57   7 2.57   7 2.57
                             4 2.57   1 2.57   1 2.57   4 2.57
  11  0.000  0.500  0.261-   8 2.57   8 2.57   8 2.57   8 2.57   5 2.57   5 2.57   2 2.57   2 2.57
                             6 2.57   6 2.57   3 2.57   3 2.57
  12  0.000  0.500  0.434-   9 2.57   9 2.57   9 2.57   9 2.57   6 2.57   6 2.57   3 2.57   3 2.57

 
  LATTYP: Found a simple tetragonal cell.
 ALAT       =     3.6313548567
 C/A-ratio  =     5.7537931143
  
  Lattice vectors:
  
 A1 = (   3.6313548567,   0.0000000000,   0.0000000000)
 A2 = (   0.0000000000,   3.6313548567,   0.0000000000)
 A3 = (   0.0000000000,   0.0000000000,  20.8940645700)
 Subroutine PRICEL returns following result:
 
  LATTYP: Found a simple tetragonal cell.
 ALAT       =     2.5677556441
 C/A-ratio  =     8.1370922574
  
  Lattice vectors:
  
 A1 = (   1.8156774283,  -1.8156774283,   0.0000000000)
 A2 = (  -1.8156774283,  -1.8156774283,   0.0000000000)
 A3 = (   0.0000000000,   0.0000000000, -20.8940645700)
 
   2 primitive cells build up your supercell.
 

Analysis of symmetry for initial positions (statically):

 Routine SETGRP: Setting up the symmetry group for a 
 simple tetragonal supercell.


 Subroutine GETGRP returns: Found 16 space group operations
 (whereof  8 operations were pure point group operations)
 out of a pool of 16 trial point group operations.


The static configuration has the point symmetry C_4v.
 The point group associated with its full space group is D_4h.

Analysis of symmetry for dynamics (positions and initial velocities):

 Subroutine DYNSYM returns: Found 16 space group operations
 (whereof  8 operations were pure point group operations)
 out of a pool of 16 trial space group operations
 (whereof  8 operations were pure point group operations)
 and found also     2 'primitive' translations


The dynamic configuration has the point symmetry C_4v.
 The point group associated with its full space group is D_4h.

Analysis of constrained symmetry for selective dynamics:

 Subroutine DYNSYM returns: Found 16 space group operations
 (whereof  8 operations were pure point group operations)
 out of a pool of 16 trial space group operations
 (whereof  8 operations were pure point group operations)
 and found also     2 'primitive' translations


The constrained configuration has the point symmetry C_4v.
 The point group associated with its full space group is D_4h.
 
 
 KPOINTS: K-Points                                

Automatic generation of k-mesh.
 
 Subroutine IBZKPT returns following result:
 ===========================================
 
 Found     10 irreducible k-points:
 
 Following reciprocal coordinates:
            Coordinates               Weight
  0.000000  0.000000  0.000000      1.000000
  0.142857  0.000000  0.000000      4.000000
  0.285714  0.000000  0.000000      4.000000
  0.428571  0.000000  0.000000      4.000000
  0.142857  0.142857  0.000000      4.000000
  0.285714  0.142857  0.000000      8.000000
  0.428571  0.142857  0.000000      8.000000
  0.285714  0.285714  0.000000      4.000000
  0.428571  0.285714  0.000000      8.000000
  0.428571  0.428571  0.000000      4.000000
 
 Following cartesian coordinates:
            Coordinates               Weight
  0.000000  0.000000  0.000000      1.000000
  0.039340  0.000000  0.000000      4.000000
  0.078680  0.000000  0.000000      4.000000
  0.118020  0.000000  0.000000      4.000000
  0.039340  0.039340  0.000000      4.000000
  0.078680  0.039340  0.000000      8.000000
  0.118020  0.039340  0.000000      8.000000
  0.078680  0.078680  0.000000      4.000000
  0.118020  0.078680  0.000000      8.000000
  0.118020  0.118020  0.000000      4.000000
 
 TETIRR: Found     65 inequivalent tetrahedra from      294


--------------------------------------------------------------------------------------------------------




 Dimension of arrays:
   k-points           NKPTS =     10   k-points in BZ     NKDIM =     10   number of bands    NBANDS=     80
   number of dos      NEDOS =    301   number of ions     NIONS =     12
   non local maximal  LDIM  =      6   non local SUM 2l+1 LMDIM =     18
   total plane-waves  NPLWV =  34992
   max r-space proj   IRMAX =      1   max aug-charges    IRDMAX=   4656
   dimension x,y,z NGX =    18 NGY =   18 NGZ =  108
   dimension x,y,z NGXF=    36 NGYF=   36 NGZF=  216
   support grid    NGXF=    36 NGYF=   36 NGZF=  216
   ions per type =              12
 NGX,Y,Z   is equivalent  to a cutoff of   8.24,  8.24,  8.59 a.u.
 NGXF,Y,Z  is equivalent  to a cutoff of  16.48, 16.48, 17.19 a.u.


 I would recommend the setting:
   dimension x,y,z NGX =    18 NGY =   18 NGZ =  104
 SYSTEM =  unknown system                          
 POSCAR =  Cu Bulk                                 

 Startparameter for this run:
   NWRITE =      2    write-flag & timer
   PREC   = normal    normal or accurate (medium, high low for compatibility)
   ISTART =      0    job   : 0-new  1-cont  2-samecut
   ICHARG =      2    charge: 1-file 2-atom 10-const
   ISPIN  =      1    spin polarized calculation?
   LNONCOLLINEAR =      F non collinear calculations
   LSORBIT =      F    spin-orbit coupling
   INIWAV =      1    electr: 0-lowe 1-rand  2-diag
   LASPH  =      F    aspherical Exc in radial PAW
   METAGGA=      F    non-selfconsistent MetaGGA calc.

 Electronic Relaxation 1
   ENCUT  =  415.0 eV  30.50 Ry    5.52 a.u.   6.03  6.03 34.71*2*pi/ulx,y,z
   ENINI  =  415.0     initial cutoff
   ENAUG  =  516.5 eV  augmentation charge cutoff
   NELM   =    101;   NELMIN=  2; NELMDL= -5     # of ELM steps 
   EDIFF  = 0.1E-05   stopping-criterion for ELM
   LREAL  =      F    real-space projection
   NLSPLINE    = F    spline interpolate recip. space projectors
   LCOMPAT=      F    compatible to vasp.4.4
   GGA_COMPAT  = T    GGA compatible to vasp.4.4-vasp.4.6
   LMAXPAW     = -100 max onsite density
   LMAXMIX     =    2 max onsite mixed and CHGCAR
   VOSKOWN=      0    Vosko Wilk Nusair interpolation
   ROPT   =    0.00000
 Ionic relaxation
   EDIFFG = -.1E-01   stopping-criterion for IOM
   NSW    =    101    number of steps for IOM
   NBLOCK =      1;   KBLOCK =    101    inner block; outer block 
   IBRION =      2    ionic relax: 0-MD 1-quasi-New 2-CG
   NFREE  =      1    steps in history (QN), initial steepest desc. (CG)
   ISIF   =      2    stress and relaxation
   IWAVPR =     11    prediction:  0-non 1-charg 2-wave 3-comb
   ISYM   =      2    0-nonsym 1-usesym 2-fastsym
   LCORR  =      T    Harris-Foulkes like correction to forces

   POTIM  = 0.0500    time-step for ionic-motion
   TEIN   =    0.0    initial temperature
   TEBEG  =    0.0;   TEEND  =   0.0 temperature during run
   SMASS  =  -3.00    Nose mass-parameter (am)
   estimated Nose-frequenzy (Omega)   =  0.10E-29 period in steps =****** mass=  -0.301E-27a.u.
   SCALEE = 1.0000    scale energy and forces
   NPACO  =    256;   APACO  = 16.0  distance and # of slots for P.C.
   PSTRESS=    0.0 pullay stress

  Mass of Ions in am
   POMASS =  63.55
  Ionic Valenz
   ZVAL   =  11.00
  Atomic Wigner-Seitz radii
   RWIGS  =  -1.00
  virtual crystal weights 
   VCA    =   1.00
   NELECT =     132.0000    total number of electrons
   NUPDOWN=      -1.0000    fix difference up-down

 DOS related values:
   EMIN   =  10.00;   EMAX   =-10.00  energy-range for DOS
   EFERMI =   0.00
   ISMEAR =    -5;   SIGMA  =   0.20  broadening in eV -4-tet -1-fermi 0-gaus

 Electronic relaxation 2 (details)
   IALGO  =     38    algorithm
   LDIAG  =      T    sub-space diagonalisation (order eigenvalues)
   LSUBROT=      T    optimize rotation matrix (better conditioning)
   TURBO    =      0    0=normal 1=particle mesh
   IRESTART =      0    0=no restart 2=restart with 2 vectors
   NREBOOT  =      0    no. of reboots
   NMIN     =      0    reboot dimension
   EREF     =   0.00    reference energy to select bands
   IMIX   =      4    mixing-type and parameters
     AMIX     =   0.40;   BMIX     =  1.00
     AMIX_MAG =   1.60;   BMIX_MAG =  1.00
     AMIN     =   0.10
     WC   =   100.;   INIMIX=   1;  MIXPRE=   1

 Intra band minimization:
   WEIMIN = 0.0010     energy-eigenvalue tresh-hold
   EBREAK =  0.31E-08  absolut break condition
   DEPER  =   0.30     relativ break condition  

   TIME   =   0.40     timestep for ELM

  volume/ion in A,a.u.               =      22.96       154.94
  Fermi-wavevector in a.u.,A,eV,Ry     =   1.280991  2.420722 22.326312  1.640938
  Thomas-Fermi vector in A             =   2.413387
 
 Write flags
   LWAVE  =      T    write WAVECAR
   LCHARG =      T    write CHGCAR
   LVTOT  =      F    write LOCPOT, total local potential
   LVHAR  =      F    write LOCPOT, Hartree potential only
   LELF   =      F    write electronic localiz. function (ELF)
   LORBIT =      0    0 simple, 1 ext, 2 COOP (PROOUT)


 Dipole corrections
   LMONO  =      F    monopole corrections only (constant potential shift)
   LDIPOL =      F    correct potential (dipole corrections)
   IDIPOL =      0    1-x, 2-y, 3-z, 4-all directions 
   EPSILON=  1.0000000 bulk dielectric constant

 Exchange correlation treatment:
   GGA     =    PE    GGA type
   LEXCH   =     8    internal setting for exchange type
   VOSKOWN=      0    Vosko Wilk Nusair interpolation
   LHFCALC =     F    Hartree Fock is set to
   LHFONE  =     F    Hartree Fock one center treatment
   AEXX    =    0.0000 exact exchange contribution

 Linear response parameters
   LEPSILON=     F    determine dielectric tensor
   LRPA    =     F    only Hartree local field effects (RPA)
   LNABLA  =     F    use nabla operator in PAW spheres
   LVEL    =     F    velocity operator in full k-point grid
   LINTERFAST=   F  fast interpolation
   KINTER  =     0    interpolate to denser k-point grid
   CSHIFT  =0.1000    complex shift for real part using Kramers Kronig
   OMEGAMAX=  -1.0    maximum frequency
   RTIME   =    0.100 relaxation time in fs

 Orbital magnetization related:
   ORBITALMAG=     F  switch on orbital magnetization
   LCHIMAG   =     F  perturbation theory with respect to B field
   DQ        =  0.001000  dq finite difference perturbation B field



--------------------------------------------------------------------------------------------------------


 conjugate gradient relaxation of ions
   using selective dynamics as specified on POSCAR
 charge density and potential will be updated during run
 non-spin polarized calculation
 Variant of blocked Davidson
 Davidson routine will perform the subspace rotation
 perform sub-space diagonalisation
    after iterative eigenvector-optimisation
 modified Broyden-mixing scheme, WC =      100.0
 initial mixing is a Kerker type mixing with AMIX =  0.4000 and BMIX =      1.0000
 Hartree-type preconditioning will be used
 using additional bands           14
 reciprocal scheme for non local part
 use partial core corrections
 calculate Harris-corrections to forces 
   (improved forces if not selfconsistent)
 use gradient corrections 
 use of overlap-Matrix (Vanderbilt PP)
 Fermi weights with tetrahedron method with Bloechl corrections


--------------------------------------------------------------------------------------------------------


  energy-cutoff  :      415.00
  volume of cell :      275.52
      direct lattice vectors                 reciprocal lattice vectors
     3.631354857  0.000000000  0.000000000     0.275379311  0.000000000  0.000000000
     0.000000000  3.631354857  0.000000000     0.000000000  0.275379311  0.000000000
     0.000000000  0.000000000 20.894064570     0.000000000  0.000000000  0.047860482

  length of vectors
     3.631354857  3.631354857 20.894064570     0.275379311  0.275379311  0.047860482


 
 k-points in units of 2pi/SCALE and weight: K-Points                                
   0.00000000  0.00000000  0.00000000       0.020
   0.03933990  0.00000000  0.00000000       0.082
   0.07867980  0.00000000  0.00000000       0.082
   0.11801970  0.00000000  0.00000000       0.082
   0.03933990  0.03933990  0.00000000       0.082
   0.07867980  0.03933990  0.00000000       0.163
   0.11801970  0.03933990  0.00000000       0.163
   0.07867980  0.07867980  0.00000000       0.082
   0.11801970  0.07867980  0.00000000       0.163
   0.11801970  0.11801970  0.00000000       0.082
 
 k-points in reciprocal lattice and weights: K-Points                                
   0.00000000  0.00000000  0.00000000       0.020
   0.14285714  0.00000000  0.00000000       0.082
   0.28571429  0.00000000  0.00000000       0.082
   0.42857143  0.00000000  0.00000000       0.082
   0.14285714  0.14285714  0.00000000       0.082
   0.28571429  0.14285714  0.00000000       0.163
   0.42857143  0.14285714  0.00000000       0.163
   0.28571429  0.28571429  0.00000000       0.082
   0.42857143  0.28571429  0.00000000       0.163
   0.42857143  0.42857143  0.00000000       0.082
 
 position of ions in fractional coordinates (direct lattice) 
   0.00000000  0.00000000  0.00000000
   0.00000000  0.00000000  0.17379839
   0.00000000  0.00000000  0.34759679
   0.50000000  0.50000000  0.00000000
   0.50000000  0.50000000  0.17379839
   0.50000000  0.50000000  0.34759679
   0.50000000  0.00000000  0.08689920
   0.50000000  0.00000000  0.26069759
   0.50000000  0.00000000  0.43449598
   0.00000000  0.50000000  0.08689920
   0.00000000  0.50000000  0.26069759
   0.00000000  0.50000000  0.43449598
 
 position of ions in cartesian coordinates  (Angst):
   0.00000000  0.00000000  0.00000000
   0.00000000  0.00000000  3.63135486
   0.00000000  0.00000000  7.26270971
   1.81567743  1.81567743  0.00000000
   1.81567743  1.81567743  3.63135486
   1.81567743  1.81567743  7.26270971
   1.81567743  0.00000000  1.81567743
   1.81567743  0.00000000  5.44703228
   1.81567743  0.00000000  9.07838714
   0.00000000  1.81567743  1.81567743
   0.00000000  1.81567743  5.44703228
   0.00000000  1.81567743  9.07838714
 


--------------------------------------------------------------------------------------------------------


 k-point  1 :  0.00000.00000.0000  plane waves:    5253
 k-point  2 :  0.14290.00000.0000  plane waves:    5292
 k-point  3 :  0.28570.00000.0000  plane waves:    5244
 k-point  4 :  0.42860.00000.0000  plane waves:    5250
 k-point  5 :  0.14290.14290.0000  plane waves:    5277
 k-point  6 :  0.28570.14290.0000  plane waves:    5284
 k-point  7 :  0.42860.14290.0000  plane waves:    5287
 k-point  8 :  0.28570.28570.0000  plane waves:    5320
 k-point  9 :  0.42860.28570.0000  plane waves:    5326
 k-point 10 :  0.42860.42860.0000  plane waves:    5330

 maximum and minimum number of plane-waves per node :      5330     5244

 maximum number of plane-waves:      5330
 maximum index in each direction: 
   IXMAX=    6   IYMAX=    6   IZMAX=   34
   IXMIN=   -6   IYMIN=   -6   IZMIN=  -34

 WARNING: aliasing errors must be expected set NGX to  26 to avoid them
 WARNING: aliasing errors must be expected set NGY to  26 to avoid them
 WARNING: aliasing errors must be expected set NGZ to 138 to avoid them
 aliasing errors are usually negligible using standard VASP settings
 and one can safely disregard these warnings

 serial   3D FFT for wavefunctions
 parallel 3D FFT for charge:
    minimum data exchange during FFTs selected (reduces bandwidth)


 total amount of memory used by VASP on root node    87417. kBytes
========================================================================

   base      :      30000. kBytes
   nonl-proj :       8698. kBytes
   fftplans  :       4875. kBytes
   grid      :       8164. kBytes
   one-center:        186. kBytes
   wavefun   :      35494. kBytes
 
 Broyden mixing: mesh for mixing (old mesh)
   NGX = 13   NGY = 13   NGZ = 69
  (NGX  = 36   NGY  = 36   NGZ  =216)
  gives a total of  11661 points

 initial charge density was supplied:
 charge density of overlapping atoms calculated
 number of electron     132.0000000 magnetization 
 keeping initial charge density in first step


--------------------------------------------------------------------------------------------------------


 Maximum index for augmentation-charges         2149 (set IRDMAX)


--------------------------------------------------------------------------------------------------------


 First call to EWALD:  gamma=   0.272
 Maximum number of real-space cells 5x 5x 1
 Maximum number of reciprocal cells 2x 2x 8

    FEWALD:  cpu time    0.01: real time    0.01


----------------------------------------- Iteration    1(   1)  ---------------------------------------


    POTLOK:  cpu time    0.44: real time    0.44
    SETDIJ:  cpu time    0.06: real time    0.06
     EDDAV:  cpu time   53.20: real time   53.20
 BZINTS: Fermi energy: 13.474182;132.000000 electrons
         Band energy: 745.940703;  BLOECHL correction: -0.129875
       DOS:  cpu time    0.04: real time    0.04
    --------------------------------------------
      LOOP:  cpu time   53.74: real time   53.75

 eigenvalue-minimisations  :  1600
 total energy-change (2. order) : 0.9537485E+03  (-0.5354186E+04)
 number of electron     132.0000000 magnetization 
 augmentation part      132.0000000 magnetization 

 Free energy of the ion-electron system (eV)
  ---------------------------------------------------
  alpha Z        PSCENC =       667.73722884
  Ewald energy   TEWEN  =     35979.28710139
  -1/2 Hartree   DENC   =    -51926.50586078
  -exchange  EXHF       =         0.00000000
  -V(xc)+E(xc)   XCENC  =       523.92889811
  PAW double counting   =     12984.62750834   -14712.92408101
  entropy T*S    EENTRO =         0.00000000
  eigenvalues    EBANDS =       745.94070300
  atomic energy  EATOM  =     16691.65700843
  ---------------------------------------------------
  free energy    TOTEN  =       953.74850631 eV

  energy without entropy =      953.74850631  energy(sigma->0) =      953.74850631


--------------------------------------------------------------------------------------------------------




----------------------------------------- Iteration    1(   2)  ---------------------------------------


     EDDAV:  cpu time   53.18: real time   53.19
 BZINTS: Fermi energy:  2.130253;132.000000 electrons
         Band energy:-166.203816;  BLOECHL correction: -0.074488
       DOS:  cpu time    0.04: real time    0.05
    --------------------------------------------
      LOOP:  cpu time   53.23: real time   53.23

 eigenvalue-minimisations  :  1600
 total energy-change (2. order) :-0.9121445E+03  (-0.8743821E+03)
 number of electron     132.0000000 magnetization 
 augmentation part      132.0000000 magnetization 

 Free energy of the ion-electron system (eV)
  ---------------------------------------------------
  alpha Z        PSCENC =       667.73722884
  Ewald energy   TEWEN  =     35979.28710139
  -1/2 Hartree   DENC   =    -51926.50586078
  -exchange  EXHF       =         0.00000000
  -V(xc)+E(xc)   XCENC  =       523.92889811
  PAW double counting   =     12984.62750834   -14712.92408101
  entropy T*S    EENTRO =         0.00000000
  eigenvalues    EBANDS =      -166.20381570
  atomic energy  EATOM  =     16691.65700843
  ---------------------------------------------------
  free energy    TOTEN  =        41.60398762 eV

  energy without entropy =       41.60398762  energy(sigma->0) =       41.60398762


--------------------------------------------------------------------------------------------------------




----------------------------------------- Iteration    1(   3)  ---------------------------------------


     EDDAV:  cpu time   55.86: real time   55.87
 BZINTS: Fermi energy:  0.608165;131.991208 electrons
         Band energy:-257.150870;  BLOECHL correction: -0.103316
       DOS:  cpu time    0.06: real time    0.06
    --------------------------------------------
      LOOP:  cpu time   55.93: real time   55.94

 eigenvalue-minimisations  :  1704
 total energy-change (2. order) :-0.9094705E+02  (-0.8683747E+02)
 number of electron     132.0000000 magnetization 
 augmentation part      132.0000000 magnetization 

 Free energy of the ion-electron system (eV)
  ---------------------------------------------------
  alpha Z        PSCENC =       667.73722884
  Ewald energy   TEWEN  =     35979.28710139
  -1/2 Hartree   DENC   =    -51926.50586078
  -exchange  EXHF       =         0.00000000
  -V(xc)+E(xc)   XCENC  =       523.92889811
  PAW double counting   =     12984.62750834   -14712.92408101
  entropy T*S    EENTRO =         0.00000000
  eigenvalues    EBANDS =      -257.15087012
  atomic energy  EATOM  =     16691.65700843
  ---------------------------------------------------
  free energy    TOTEN  =       -49.34306681 eV

  energy without entropy =      -49.34306681  energy(sigma->0) =      -49.34306681


--------------------------------------------------------------------------------------------------------




----------------------------------------- Iteration    1(   4)  ---------------------------------------


     EDDAV:  cpu time   56.23: real time   56.24
 BZINTS: Fermi energy:  0.585672;132.000000 electrons
         Band energy:-259.371219;  BLOECHL correction: -0.105793
       DOS:  cpu time    0.04: real time    0.04
    --------------------------------------------
      LOOP:  cpu time   56.28: real time   56.28

 eigenvalue-minimisations  :  1720
 total energy-change (2. order) :-0.2220349E+01  (-0.2212489E+01)
 number of electron     132.0000000 magnetization 
 augmentation part      132.0000000 magnetization 

 Free energy of the ion-electron system (eV)
  ---------------------------------------------------
  alpha Z        PSCENC =       667.73722884
  Ewald energy   TEWEN  =     35979.28710139
  -1/2 Hartree   DENC   =    -51926.50586078
  -exchange  EXHF       =         0.00000000
  -V(xc)+E(xc)   XCENC  =       523.92889811
  PAW double counting   =     12984.62750834   -14712.92408101
  entropy T*S    EENTRO =         0.00000000
  eigenvalues    EBANDS =      -259.37121863
  atomic energy  EATOM  =     16691.65700843
  ---------------------------------------------------
  free energy    TOTEN  =       -51.56341532 eV

  energy without entropy =      -51.56341532  energy(sigma->0) =      -51.56341532


--------------------------------------------------------------------------------------------------------




----------------------------------------- Iteration    1(   5)  ---------------------------------------


     EDDAV:  cpu time   56.74: real time   56.74
 BZINTS: Fermi energy:  0.585511;132.000000 electrons
         Band energy:-259.384282;  BLOECHL correction: -0.105778
       DOS:  cpu time    0.04: real time    0.04
    CHARGE:  cpu time    1.37: real time    1.37
    MIXING:  cpu time    0.02: real time    0.01
    --------------------------------------------
      LOOP:  cpu time   58.18: real time   58.18

 eigenvalue-minimisations  :  1736
 total energy-change (2. order) :-0.1306313E-01  (-0.1305602E-01)
 number of electron     132.0000002 magnetization 
 augmentation part       80.7986550 magnetization 

 Broyden mixing:
  rms(total) = 0.22851E+01    rms(broyden)= 0.22850E+01
  rms(prec ) = 0.24458E+01
  weight for this iteration     100.00

 Free energy of the ion-electron system (eV)
  ---------------------------------------------------
  alpha Z        PSCENC =       667.73722884
  Ewald energy   TEWEN  =     35979.28710139
  -1/2 Hartree   DENC   =    -51926.50586078
  -exchange  EXHF       =         0.00000000
  -V(xc)+E(xc)   XCENC  =       523.92889811
  PAW double counting   =     12984.62750834   -14712.92408101
  entropy T*S    EENTRO =         0.00000000
  eigenvalues    EBANDS =      -259.38428176
  atomic energy  EATOM  =     16691.65700843
  ---------------------------------------------------
  free energy    TOTEN  =       -51.57647844 eV

  energy without entropy =      -51.57647844  energy(sigma->0) =      -51.57647844


--------------------------------------------------------------------------------------------------------




----------------------------------------- Iteration    1(   6)  ---------------------------------------


    POTLOK:  cpu time    0.44: real time    0.43
    SETDIJ:  cpu time    0.06: real time    0.06
     EDDAV:  cpu time   56.49: real time   56.49
 BZINTS: Fermi energy: -1.390473;132.000000 electrons
         Band energy:-613.522372;  BLOECHL correction: -0.126949
       DOS:  cpu time    0.04: real time    0.04
    CHARGE:  cpu time    1.36: real time    1.36
    MIXING:  cpu time    0.02: real time    0.02
    --------------------------------------------
      LOOP:  cpu time   58.40: real time   58.40

 eigenvalue-minimisations  :  1728
 total energy-change (2. order) : 0.5326333E+01  (-0.1045782E+02)
 number of electron     132.0000004 magnetization 
 augmentation part       89.6804911 magnetization 

 Broyden mixing:
  rms(total) = 0.11003E+01    rms(broyden)= 0.11001E+01
  rms(prec ) = 0.11910E+01
  weight for this iteration     100.00

 eigenvalues of (default mixing * dielectric matrix)
  average eigenvalue GAMMA=   0.6779
  0.6779

 Free energy of the ion-electron system (eV)
  ---------------------------------------------------
  alpha Z        PSCENC =       667.73722884
  Ewald energy   TEWEN  =     35979.28710139
  -1/2 Hartree   DENC   =    -51645.14065964
  -exchange  EXHF       =         0.00000000
  -V(xc)+E(xc)   XCENC  =       509.52798669
  PAW double counting   =     12685.77077307   -14321.56721234
  entropy T*S    EENTRO =         0.00000000
  eigenvalues    EBANDS =      -613.52237195
  atomic energy  EATOM  =     16691.65700843
  ---------------------------------------------------
  free energy    TOTEN  =       -46.25014551 eV

  energy without entropy =      -46.25014551  energy(sigma->0) =      -46.25014551


--------------------------------------------------------------------------------------------------------




----------------------------------------- Iteration    1(   7)  ---------------------------------------


    POTLOK:  cpu time    0.43: real time    0.43
    SETDIJ:  cpu time    0.06: real time    0.06
     EDDAV:  cpu time   58.51: real time   58.51
 BZINTS: Fermi energy: -0.407433;132.000000 electrons
         Band energy:-416.332649;  BLOECHL correction: -0.146321
       DOS:  cpu time    0.04: real time    0.04
    CHARGE:  cpu time    1.34: real time    1.34
    MIXING:  cpu time    0.02: real time    0.02
    --------------------------------------------
      LOOP:  cpu time   60.40: real time   60.40

 eigenvalue-minimisations  :  1808
 total energy-change (2. order) : 0.4026295E+01  (-0.1822542E+01)
 number of electron     132.0000006 magnetization 
 augmentation part       86.6938449 magnetization 

 Broyden mixing:
  rms(total) = 0.28504E+00    rms(broyden)= 0.28499E+00
  rms(prec ) = 0.31687E+00
  weight for this iteration     100.00

 eigenvalues of (default mixing * dielectric matrix)
  average eigenvalue GAMMA=   0.5373
  0.6919  0.3826

 Free energy of the ion-electron system (eV)
  ---------------------------------------------------
  alpha Z        PSCENC =       667.73722884
  Ewald energy   TEWEN  =     35979.28710139
  -1/2 Hartree   DENC   =    -51774.62231937
  -exchange  EXHF       =         0.00000000
  -V(xc)+E(xc)   XCENC  =       513.81335071
  PAW double counting   =     12926.47779399   -14630.24136530
  entropy T*S    EENTRO =         0.00000000
  eigenvalues    EBANDS =      -416.33264914
  atomic energy  EATOM  =     16691.65700843
  ---------------------------------------------------
  free energy    TOTEN  =       -42.22385047 eV

  energy without entropy =      -42.22385047  energy(sigma->0) =      -42.22385047


--------------------------------------------------------------------------------------------------------




----------------------------------------- Iteration    1(   8)  ---------------------------------------


    POTLOK:  cpu time    0.44: real time    0.43
    SETDIJ:  cpu time    0.06: real time    0.06
     EDDAV:  cpu time   58.22: real time   58.22
 BZINTS: Fermi energy: -0.403397;132.000000 electrons
         Band energy:-411.642678;  BLOECHL correction: -0.135702
       DOS:  cpu time    0.04: real time    0.04
    CHARGE:  cpu time    1.36: real time    1.36
    MIXING:  cpu time    0.02: real time    0.02
    --------------------------------------------
      LOOP:  cpu time   60.12: real time   60.13

 eigenvalue-minimisations  :  1792
 total energy-change (2. order) :-0.7764020E-01  (-0.3429086E+00)
 number of electron     132.0000003 magnetization 
 augmentation part       86.3607862 magnetization 

 Broyden mixing:
  rms(total) = 0.20141E+00    rms(broyden)= 0.20140E+00
  rms(prec ) = 0.22467E+00
  weight for this iteration     100.00

 eigenvalues of (default mixing * dielectric matrix)
  average eigenvalue GAMMA=   0.9118
  1.7983  0.6376  0.2995

 Free energy of the ion-electron system (eV)
  ---------------------------------------------------
  alpha Z        PSCENC =       667.73722884
  Ewald energy   TEWEN  =     35979.28710139
  -1/2 Hartree   DENC   =    -51768.79906189
  -exchange  EXHF       =         0.00000000
  -V(xc)+E(xc)   XCENC  =       513.70768670
  PAW double counting   =     12973.61063462   -14687.85941096
  entropy T*S    EENTRO =         0.00000000
  eigenvalues    EBANDS =      -411.64267779
  atomic energy  EATOM  =     16691.65700843
  ---------------------------------------------------
  free energy    TOTEN  =       -42.30149067 eV

  energy without entropy =      -42.30149067  energy(sigma->0) =      -42.30149067


--------------------------------------------------------------------------------------------------------




----------------------------------------- Iteration    1(   9)  ---------------------------------------


    POTLOK:  cpu time    0.44: real time    0.44
    SETDIJ:  cpu time    0.06: real time    0.06
     EDDAV:  cpu time   57.81: real time   57.81
 BZINTS: Fermi energy: -0.290901;132.000000 electrons
         Band energy:-394.578721;  BLOECHL correction: -0.139895
       DOS:  cpu time    0.04: real time    0.04
    CHARGE:  cpu time    1.35: real time    1.35
    MIXING:  cpu time    0.02: real time    0.02
    --------------------------------------------
      LOOP:  cpu time   59.71: real time   59.71

 eigenvalue-minimisations  :  1776
 total energy-change (2. order) : 0.2863190E-01  (-0.5940341E-01)
 number of electron     132.0000004 magnetization 
 augmentation part       86.1010299 magnetization 

 Broyden mixing:
  rms(total) = 0.17954E+00    rms(broyden)= 0.17954E+00
  rms(prec ) = 0.19309E+00
  weight for this iteration     100.00

 eigenvalues of (default mixing * dielectric matrix)
  average eigenvalue GAMMA=   0.9685
  2.0601  0.7358  0.7358  0.3425

 Free energy of the ion-electron system (eV)
  ---------------------------------------------------
  alpha Z        PSCENC =       667.73722884
  Ewald energy   TEWEN  =     35979.28710139
  -1/2 Hartree   DENC   =    -51768.06207377
  -exchange  EXHF       =         0.00000000
  -V(xc)+E(xc)   XCENC  =       513.05386132
  PAW double counting   =     13059.05115398   -14790.41841838
  entropy T*S    EENTRO =         0.00000000
  eigenvalues    EBANDS =      -394.57872058
  atomic energy  EATOM  =     16691.65700843
  ---------------------------------------------------
  free energy    TOTEN  =       -42.27285877 eV

  energy without entropy =      -42.27285877  energy(sigma->0) =      -42.27285877


--------------------------------------------------------------------------------------------------------




----------------------------------------- Iteration    1(  10)  ---------------------------------------


    POTLOK:  cpu time    0.44: real time    0.44
    SETDIJ:  cpu time    0.06: real time    0.06
     EDDAV:  cpu time   56.06: real time   56.06
 BZINTS: Fermi energy: -0.394977;132.000000 electrons
         Band energy:-415.829017;  BLOECHL correction: -0.138399
       DOS:  cpu time    0.04: real time    0.04
    CHARGE:  cpu time    1.32: real time    1.33
    MIXING:  cpu time    0.02: real time    0.02
    --------------------------------------------
      LOOP:  cpu time   57.95: real time   57.95

 eigenvalue-minimisations  :  1712
 total energy-change (2. order) : 0.5845576E-01  (-0.3138654E-01)
 number of electron     132.0000004 magnetization 
 augmentation part       86.5111253 magnetization 

 Broyden mixing:
  rms(total) = 0.53463E-01    rms(broyden)= 0.53458E-01
  rms(prec ) = 0.63531E-01
  weight for this iteration     100.00

 eigenvalues of (default mixing * dielectric matrix)
  average eigenvalue GAMMA=   1.0167
  2.4559  1.2460  0.6864  0.3475  0.3475

 Free energy of the ion-electron system (eV)
  ---------------------------------------------------
  alpha Z        PSCENC =       667.73722884
  Ewald energy   TEWEN  =     35979.28710139
  -1/2 Hartree   DENC   =    -51745.51353253
  -exchange  EXHF       =         0.00000000
  -V(xc)+E(xc)   XCENC  =       512.03993097
  PAW double counting   =     13076.14097936   -14807.73410243
  entropy T*S    EENTRO =         0.00000000
  eigenvalues    EBANDS =      -415.82901704
  atomic energy  EATOM  =     16691.65700843
  ---------------------------------------------------
  free energy    TOTEN  =       -42.21440301 eV

  energy without entropy =      -42.21440301  energy(sigma->0) =      -42.21440301


--------------------------------------------------------------------------------------------------------




----------------------------------------- Iteration    1(  11)  ---------------------------------------


    POTLOK:  cpu time    0.44: real time    0.44
    SETDIJ:  cpu time    0.06: real time    0.06
     EDDAV:  cpu time   56.70: real time   56.70
 BZINTS: Fermi energy: -0.394103;132.000000 electrons
         Band energy:-417.958475;  BLOECHL correction: -0.139767
       DOS:  cpu time    0.04: real time    0.04
    CHARGE:  cpu time    1.37: real time    1.37
    MIXING:  cpu time    0.02: real time    0.02
    --------------------------------------------
      LOOP:  cpu time   58.63: real time   58.63

 eigenvalue-minimisations  :  1736
 total energy-change (2. order) :-0.5095502E-02  (-0.9132705E-02)
 number of electron     132.0000004 magnetization 
 augmentation part       86.6401232 magnetization 

 Broyden mixing:
  rms(total) = 0.63382E-01    rms(broyden)= 0.63380E-01
  rms(prec ) = 0.70699E-01
  weight for this iteration     100.00

 eigenvalues of (default mixing * dielectric matrix)
  average eigenvalue GAMMA=   0.9317
  2.2676  1.2282  0.7113  0.7113  0.3506  0.3213

 Free energy of the ion-electron system (eV)
  ---------------------------------------------------
  alpha Z        PSCENC =       667.73722884
  Ewald energy   TEWEN  =     35979.28710139
  -1/2 Hartree   DENC   =    -51741.25045420
  -exchange  EXHF       =         0.00000000
  -V(xc)+E(xc)   XCENC  =       511.67933156
  PAW double counting   =     13094.22447260   -14827.59571244
  entropy T*S    EENTRO =         0.00000000
  eigenvalues    EBANDS =      -417.95847470
  atomic energy  EATOM  =     16691.65700843
  ---------------------------------------------------
  free energy    TOTEN  =       -42.21949851 eV

  energy without entropy =      -42.21949851  energy(sigma->0) =      -42.21949851


--------------------------------------------------------------------------------------------------------




----------------------------------------- Iteration    1(  12)  ---------------------------------------


    POTLOK:  cpu time    0.44: real time    0.44
    SETDIJ:  cpu time    0.06: real time    0.06
     EDDAV:  cpu time   57.35: real time   57.36
 BZINTS: Fermi energy: -0.349123;132.000000 electrons
         Band energy:-409.732450;  BLOECHL correction: -0.140392
       DOS:  cpu time    0.04: real time    0.04
    CHARGE:  cpu time    1.34: real time    1.34
    MIXING:  cpu time    0.02: real time    0.02
    --------------------------------------------
      LOOP:  cpu time   59.26: real time   59.27

 eigenvalue-minimisations  :  1760
 total energy-change (2. order) : 0.8829586E-02  (-0.2070171E-02)
 number of electron     132.0000004 magnetization 
 augmentation part       86.5444204 magnetization 

 Broyden mixing:
  rms(total) = 0.24360E-01    rms(broyden)= 0.24360E-01
  rms(prec ) = 0.28026E-01
  weight for this iteration     100.00

 eigenvalues of (default mixing * dielectric matrix)
  average eigenvalue GAMMA=   0.9625
  2.3082  1.4344  0.8168  0.8168  0.6928  0.3341  0.3341

 Free energy of the ion-electron system (eV)
  ---------------------------------------------------
  alpha Z        PSCENC =       667.73722884
  Ewald energy   TEWEN  =     35979.28710139
  -1/2 Hartree   DENC   =    -51748.26904086
  -exchange  EXHF       =         0.00000000
  -V(xc)+E(xc)   XCENC  =       511.88174185
  PAW double counting   =     13101.26302674   -14836.03528549
  entropy T*S    EENTRO =         0.00000000
  eigenvalues    EBANDS =      -409.73244982
  atomic energy  EATOM  =     16691.65700843
  ---------------------------------------------------
  free energy    TOTEN  =       -42.21066893 eV

  energy without entropy =      -42.21066893  energy(sigma->0) =      -42.21066893


--------------------------------------------------------------------------------------------------------




----------------------------------------- Iteration    1(  13)  ---------------------------------------


    POTLOK:  cpu time    0.44: real time    0.44
    SETDIJ:  cpu time    0.06: real time    0.06
     EDDAV:  cpu time   53.91: real time   53.95
 BZINTS: Fermi energy: -0.327018;132.000000 electrons
         Band energy:-406.705558;  BLOECHL correction: -0.139975
       DOS:  cpu time    0.04: real time    0.04
    CHARGE:  cpu time    1.33: real time    1.33
    MIXING:  cpu time    0.02: real time    0.02
    --------------------------------------------
      LOOP:  cpu time   55.80: real time   55.85

 eigenvalue-minimisations  :  1624
 total energy-change (2. order) : 0.1375083E-02  (-0.1667256E-03)
 number of electron     132.0000004 magnetization 
 augmentation part       86.5263142 magnetization 

 Broyden mixing:
  rms(total) = 0.19218E-01    rms(broyden)= 0.19218E-01
  rms(prec ) = 0.22942E-01
  weight for this iteration     100.00

 eigenvalues of (default mixing * dielectric matrix)
  average eigenvalue GAMMA=   1.1391
  2.4064  2.4064  1.2357  0.8482  0.8482  0.3350  0.3350  0.6976

 Free energy of the ion-electron system (eV)
  ---------------------------------------------------
  alpha Z        PSCENC =       667.73722884
  Ewald energy   TEWEN  =     35979.28710139
  -1/2 Hartree   DENC   =    -51750.83790356
  -exchange  EXHF       =         0.00000000
  -V(xc)+E(xc)   XCENC  =       511.89810837
  PAW double counting   =     13109.60940379   -14844.85468331
  entropy T*S    EENTRO =         0.00000000
  eigenvalues    EBANDS =      -406.70555780
  atomic energy  EATOM  =     16691.65700843
  ---------------------------------------------------
  free energy    TOTEN  =       -42.20929384 eV

  energy without entropy =      -42.20929384  energy(sigma->0) =      -42.20929384


--------------------------------------------------------------------------------------------------------




----------------------------------------- Iteration    1(  14)  ---------------------------------------


    POTLOK:  cpu time    0.44: real time    0.44
    SETDIJ:  cpu time    0.06: real time    0.06
     EDDAV:  cpu time   56.39: real time   56.39
 BZINTS: Fermi energy: -0.268500;132.000000 electrons
         Band energy:-397.471221;  BLOECHL correction: -0.140417
       DOS:  cpu time    0.04: real time    0.04
    CHARGE:  cpu time    1.34: real time    1.34
    MIXING:  cpu time    0.02: real time    0.02
    --------------------------------------------
      LOOP:  cpu time   58.30: real time   58.30

 eigenvalue-minimisations  :  1720
 total energy-change (2. order) : 0.3979626E-03  (-0.1055661E-02)
 number of electron     132.0000004 magnetization 
 augmentation part       86.4431425 magnetization 

 Broyden mixing:
  rms(total) = 0.13065E-01    rms(broyden)= 0.13063E-01
  rms(prec ) = 0.14244E-01
  weight for this iteration     100.00

 eigenvalues of (default mixing * dielectric matrix)
  average eigenvalue GAMMA=   1.1142
  2.5427  2.5427  1.2267  0.8783  0.8783  0.3354  0.3354  0.6966  0.5918

 Free energy of the ion-electron system (eV)
  ---------------------------------------------------
  alpha Z        PSCENC =       667.73722884
  Ewald energy   TEWEN  =     35979.28710139
  -1/2 Hartree   DENC   =    -51759.33084825
  -exchange  EXHF       =         0.00000000
  -V(xc)+E(xc)   XCENC  =       512.03212233
  PAW double counting   =     13119.07380410   -14855.19409185
  entropy T*S    EENTRO =         0.00000000
  eigenvalues    EBANDS =      -397.47122086
  atomic energy  EATOM  =     16691.65700843
  ---------------------------------------------------
  free energy    TOTEN  =       -42.20889588 eV

  energy without entropy =      -42.20889588  energy(sigma->0) =      -42.20889588


--------------------------------------------------------------------------------------------------------




----------------------------------------- Iteration    1(  15)  ---------------------------------------


    POTLOK:  cpu time    0.44: real time    0.44
    SETDIJ:  cpu time    0.06: real time    0.06
     EDDAV:  cpu time   54.19: real time   54.19
 BZINTS: Fermi energy: -0.267680;132.000000 electrons
         Band energy:-397.740791;  BLOECHL correction: -0.140435
       DOS:  cpu time    0.04: real time    0.04
    CHARGE:  cpu time    1.34: real time    1.34
    MIXING:  cpu time    0.03: real time    0.03
    --------------------------------------------
      LOOP:  cpu time   56.10: real time   56.11

 eigenvalue-minimisations  :  1632
 total energy-change (2. order) : 0.5547624E-03  (-0.1523459E-03)
 number of electron     132.0000004 magnetization 
 augmentation part       86.4711696 magnetization 

 Broyden mixing:
  rms(total) = 0.32461E-02    rms(broyden)= 0.32459E-02
  rms(prec ) = 0.43060E-02
  weight for this iteration     100.00

 eigenvalues of (default mixing * dielectric matrix)
  average eigenvalue GAMMA=   1.2157
  2.5064  2.5064  1.6259  1.6259  0.3352  0.3352  0.8101  0.8101  0.7211  0.8802

 Free energy of the ion-electron system (eV)
  ---------------------------------------------------
  alpha Z        PSCENC =       667.73722884
  Ewald energy   TEWEN  =     35979.28710139
  -1/2 Hartree   DENC   =    -51759.65137167
  -exchange  EXHF       =         0.00000000
  -V(xc)+E(xc)   XCENC  =       511.99998202
  PAW double counting   =     13116.19388044   -14851.69137994
  entropy T*S    EENTRO =         0.00000000
  eigenvalues    EBANDS =      -397.74079062
  atomic energy  EATOM  =     16691.65700843
  ---------------------------------------------------
  free energy    TOTEN  =       -42.20834112 eV

  energy without entropy =      -42.20834112  energy(sigma->0) =      -42.20834112


--------------------------------------------------------------------------------------------------------




----------------------------------------- Iteration    1(  16)  ---------------------------------------


    POTLOK:  cpu time    0.44: real time    0.44
    SETDIJ:  cpu time    0.06: real time    0.06
     EDDAV:  cpu time   53.96: real time   53.97
 BZINTS: Fermi energy: -0.261525;132.000000 electrons
         Band energy:-397.214387;  BLOECHL correction: -0.140393
       DOS:  cpu time    0.04: real time    0.04
    CHARGE:  cpu time    1.33: real time    1.33
    MIXING:  cpu time    0.03: real time    0.03
    --------------------------------------------
      LOOP:  cpu time   55.87: real time   55.87

 eigenvalue-minimisations  :  1624
 total energy-change (2. order) :-0.3539932E-04  (-0.7650171E-04)
 number of electron     132.0000004 magnetization 
 augmentation part       86.4930317 magnetization 

 Broyden mixing:
  rms(total) = 0.58280E-02    rms(broyden)= 0.58277E-02
  rms(prec ) = 0.64580E-02
  weight for this iteration     100.00

 eigenvalues of (default mixing * dielectric matrix)
  average eigenvalue GAMMA=   1.3648
  3.2538  3.2538  2.3010  1.2861  0.3352  0.3352  0.8838  0.8838  0.8910  0.8910
  0.6983

 Free energy of the ion-electron system (eV)
  ---------------------------------------------------
  alpha Z        PSCENC =       667.73722884
  Ewald energy   TEWEN  =     35979.28710139
  -1/2 Hartree   DENC   =    -51760.40808513
  -exchange  EXHF       =         0.00000000
  -V(xc)+E(xc)   XCENC  =       511.97005365
  PAW double counting   =     13113.35878866   -14848.59608497
  entropy T*S    EENTRO =         0.00000000
  eigenvalues    EBANDS =      -397.21438738
  atomic energy  EATOM  =     16691.65700843
  ---------------------------------------------------
  free energy    TOTEN  =       -42.20837652 eV

  energy without entropy =      -42.20837652  energy(sigma->0) =      -42.20837652


--------------------------------------------------------------------------------------------------------




----------------------------------------- Iteration    1(  17)  ---------------------------------------


    POTLOK:  cpu time    0.44: real time    0.44
    SETDIJ:  cpu time    0.06: real time    0.06
     EDDAV:  cpu time   53.69: real time   53.70
 BZINTS: Fermi energy: -0.248381;132.000000 electrons
         Band energy:-395.312468;  BLOECHL correction: -0.140376
       DOS:  cpu time    0.04: real time    0.04
    CHARGE:  cpu time    1.33: real time    1.33
    MIXING:  cpu time    0.03: real time    0.03
    --------------------------------------------
      LOOP:  cpu time   55.60: real time   55.61

 eigenvalue-minimisations  :  1616
 total energy-change (2. order) :-0.2074771E-03  (-0.1487841E-04)
 number of electron     132.0000004 magnetization 
 augmentation part       86.4846904 magnetization 

 Broyden mixing:
  rms(total) = 0.26320E-02    rms(broyden)= 0.26320E-02
  rms(prec ) = 0.29215E-02
  weight for this iteration     100.00

 eigenvalues of (default mixing * dielectric matrix)
  average eigenvalue GAMMA=   1.5215
  4.6857  2.8698  2.1162  2.1162  1.5505  0.3352  0.3352  0.8734  0.8734  0.8989
  0.8989  0.7047

 Free energy of the ion-electron system (eV)
  ---------------------------------------------------
  alpha Z        PSCENC =       667.73722884
  Ewald energy   TEWEN  =     35979.28710139
  -1/2 Hartree   DENC   =    -51762.26078174
  -exchange  EXHF       =         0.00000000
  -V(xc)+E(xc)   XCENC  =       511.98884420
  PAW double counting   =     13112.27489128   -14847.58040862
  entropy T*S    EENTRO =         0.00000000
  eigenvalues    EBANDS =      -395.31246778
  atomic energy  EATOM  =     16691.65700843
  ---------------------------------------------------
  free energy    TOTEN  =       -42.20858400 eV

  energy without entropy =      -42.20858400  energy(sigma->0) =      -42.20858400


--------------------------------------------------------------------------------------------------------




----------------------------------------- Iteration    1(  18)  ---------------------------------------


    POTLOK:  cpu time    0.44: real time    0.44
    SETDIJ:  cpu time    0.06: real time    0.06
     EDDAV:  cpu time   53.52: real time   53.52
 BZINTS: Fermi energy: -0.240857;132.000000 electrons
         Band energy:-394.187829;  BLOECHL correction: -0.140422
       DOS:  cpu time    0.04: real time    0.04
    CHARGE:  cpu time    1.32: real time    1.32
    MIXING:  cpu time    0.04: real time    0.03
    --------------------------------------------
      LOOP:  cpu time   55.41: real time   55.41

 eigenvalue-minimisations  :  1608
 total energy-change (2. order) :-0.2789983E-03  (-0.1222650E-04)
 number of electron     132.0000004 magnetization 
 augmentation part       86.4765694 magnetization 

 Broyden mixing:
  rms(total) = 0.70662E-03    rms(broyden)= 0.70635E-03
  rms(prec ) = 0.97062E-03
  weight for this iteration     100.00

 eigenvalues of (default mixing * dielectric matrix)
  average eigenvalue GAMMA=   1.7553
  6.3317  4.1495  2.3358  2.3358  1.3863  1.3863  0.3352  0.3352  0.8660  0.8660
  0.8936  0.8936  0.7045

 Free energy of the ion-electron system (eV)
  ---------------------------------------------------
  alpha Z        PSCENC =       667.73722884
  Ewald energy   TEWEN  =     35979.28710139
  -1/2 Hartree   DENC   =    -51763.31378651
  -exchange  EXHF       =         0.00000000
  -V(xc)+E(xc)   XCENC  =       512.00110741
  PAW double counting   =     13113.32830251   -14848.71799562
  entropy T*S    EENTRO =         0.00000000
  eigenvalues    EBANDS =      -394.18782944
  atomic energy  EATOM  =     16691.65700843
  ---------------------------------------------------
  free energy    TOTEN  =       -42.20886299 eV

  energy without entropy =      -42.20886299  energy(sigma->0) =      -42.20886299


--------------------------------------------------------------------------------------------------------




----------------------------------------- Iteration    1(  19)  ---------------------------------------


    POTLOK:  cpu time    0.44: real time    0.44
    SETDIJ:  cpu time    0.06: real time    0.06
     EDDAV:  cpu time   52.96: real time   52.96
 BZINTS: Fermi energy: -0.240493;132.000000 electrons
         Band energy:-394.152056;  BLOECHL correction: -0.140365
       DOS:  cpu time    0.04: real time    0.04
    CHARGE:  cpu time    1.33: real time    1.33
    MIXING:  cpu time    0.04: real time    0.04
    --------------------------------------------
      LOOP:  cpu time   54.87: real time   54.88

 eigenvalue-minimisations  :  1584
 total energy-change (2. order) :-0.9865398E-04  (-0.1069273E-05)
 number of electron     132.0000004 magnetization 
 augmentation part       86.4762141 magnetization 

 Broyden mixing:
  rms(total) = 0.72406E-03    rms(broyden)= 0.72405E-03
  rms(prec ) = 0.77781E-03
  weight for this iteration     100.00

 eigenvalues of (default mixing * dielectric matrix)
  average eigenvalue GAMMA=   1.8375
  7.3732  4.2133  2.5613  2.0919  2.0919  1.5093  0.3352  0.3352  0.8653  0.8653
  0.7042  1.0176  0.8807  0.8807

 Free energy of the ion-electron system (eV)
  ---------------------------------------------------
  alpha Z        PSCENC =       667.73722884
  Ewald energy   TEWEN  =     35979.28710139
  -1/2 Hartree   DENC   =    -51763.30772831
  -exchange  EXHF       =         0.00000000
  -V(xc)+E(xc)   XCENC  =       512.00007882
  PAW double counting   =     13113.44350504   -14848.87409964
  entropy T*S    EENTRO =         0.00000000
  eigenvalues    EBANDS =      -394.15205621
  atomic energy  EATOM  =     16691.65700843
  ---------------------------------------------------
  free energy    TOTEN  =       -42.20896165 eV

  energy without entropy =      -42.20896165  energy(sigma->0) =      -42.20896165


--------------------------------------------------------------------------------------------------------




----------------------------------------- Iteration    1(  20)  ---------------------------------------


    POTLOK:  cpu time    0.44: real time    0.44
    SETDIJ:  cpu time    0.06: real time    0.06
     EDDAV:  cpu time   51.39: real time   51.39
 BZINTS: Fermi energy: -0.240477;132.000000 electrons
         Band energy:-394.167189;  BLOECHL correction: -0.140370
       DOS:  cpu time    0.04: real time    0.04
    CHARGE:  cpu time    1.34: real time    1.34
    MIXING:  cpu time    0.04: real time    0.04
    --------------------------------------------
      LOOP:  cpu time   53.31: real time   53.32

 eigenvalue-minimisations  :  1520
 total energy-change (2. order) :-0.2236773E-04  (-0.3852700E-06)
 number of electron     132.0000004 magnetization 
 augmentation part       86.4771581 magnetization 

 Broyden mixing:
  rms(total) = 0.25768E-03    rms(broyden)= 0.25767E-03
  rms(prec ) = 0.27946E-03
  weight for this iteration     100.00

 eigenvalues of (default mixing * dielectric matrix)
  average eigenvalue GAMMA=   1.8800
  7.8768  4.5627  2.6564  2.1668  2.1668  1.5000  1.4622  0.3352  0.3352  0.8663
  0.8663  0.7044  0.9071  0.9071  0.8874

 Free energy of the ion-electron system (eV)
  ---------------------------------------------------
  alpha Z        PSCENC =       667.73722884
  Ewald energy   TEWEN  =     35979.28710139
  -1/2 Hartree   DENC   =    -51763.28867268
  -exchange  EXHF       =         0.00000000
  -V(xc)+E(xc)   XCENC  =       511.99748035
  PAW double counting   =     13113.42945862   -14848.86140015
  entropy T*S    EENTRO =         0.00000000
  eigenvalues    EBANDS =      -394.16718881
  atomic energy  EATOM  =     16691.65700843
  ---------------------------------------------------
  free energy    TOTEN  =       -42.20898402 eV

  energy without entropy =      -42.20898402  energy(sigma->0) =      -42.20898402


--------------------------------------------------------------------------------------------------------




----------------------------------------- Iteration    1(  21)  ---------------------------------------


    POTLOK:  cpu time    0.44: real time    0.44
    SETDIJ:  cpu time    0.06: real time    0.06
     EDDAV:  cpu time   37.91: real time   37.91
 BZINTS: Fermi energy: -0.240387;132.000000 electrons
         Band energy:-394.165302;  BLOECHL correction: -0.140376
       DOS:  cpu time    0.04: real time    0.04
    CHARGE:  cpu time    1.33: real time    1.33
    MIXING:  cpu time    0.04: real time    0.05
    --------------------------------------------
      LOOP:  cpu time   39.83: real time   39.83

 eigenvalue-minimisations  :   984
 total energy-change (2. order) :-0.6414910E-05  (-0.1418324E-06)
 number of electron     132.0000004 magnetization 
 augmentation part       86.4780469 magnetization 

 Broyden mixing:
  rms(total) = 0.90390E-04    rms(broyden)= 0.90362E-04
  rms(prec ) = 0.10220E-03
  weight for this iteration     100.00

 eigenvalues of (default mixing * dielectric matrix)
  average eigenvalue GAMMA=   1.8935
  8.2406  4.4285  3.0734  2.2305  1.9272  1.9272  1.5332  0.3352  0.3352  0.8665
  0.8665  0.7045  1.0695  0.9035  0.9035  0.9517

 Free energy of the ion-electron system (eV)
  ---------------------------------------------------
  alpha Z        PSCENC =       667.73722884
  Ewald energy   TEWEN  =     35979.28710139
  -1/2 Hartree   DENC   =    -51763.31094187
  -exchange  EXHF       =         0.00000000
  -V(xc)+E(xc)   XCENC  =       511.99657281
  PAW double counting   =     13113.40580514   -14848.81646326
  entropy T*S    EENTRO =         0.00000000
  eigenvalues    EBANDS =      -394.16530190
  atomic energy  EATOM  =     16691.65700843
  ---------------------------------------------------
  free energy    TOTEN  =       -42.20899043 eV

  energy without entropy =      -42.20899043  energy(sigma->0) =      -42.20899043


--------------------------------------------------------------------------------------------------------




----------------------------------------- Iteration    1(  22)  ---------------------------------------


    POTLOK:  cpu time    0.44: real time    0.44
    SETDIJ:  cpu time    0.06: real time    0.06
     EDDAV:  cpu time   37.92: real time   37.92
 BZINTS: Fermi energy: -0.240228;132.000000 electrons
         Band energy:-394.141242;  BLOECHL correction: -0.140379
       DOS:  cpu time    0.04: real time    0.04
    CHARGE:  cpu time    1.33: real time    1.33
    MIXING:  cpu time    0.05: real time    0.05
    --------------------------------------------
      LOOP:  cpu time   39.84: real time   39.85

 eigenvalue-minimisations  :   984
 total energy-change (2. order) :-0.4834870E-05  (-0.2649878E-07)
 number of electron     132.0000004 magnetization 
 augmentation part       86.4779141 magnetization 

 Broyden mixing:
  rms(total) = 0.35753E-04    rms(broyden)= 0.35750E-04
  rms(prec ) = 0.38567E-04
  weight for this iteration     100.00

 eigenvalues of (default mixing * dielectric matrix)
  average eigenvalue GAMMA=   1.9004
  8.3648  4.5561  2.7940  2.7940  1.9813  1.9813  1.4899  1.4899  0.3352  0.3352
  0.8665  0.8665  0.7044  0.9127  0.9127  0.9607  0.9607

 Free energy of the ion-electron system (eV)
  ---------------------------------------------------
  alpha Z        PSCENC =       667.73722884
  Ewald energy   TEWEN  =     35979.28710139
  -1/2 Hartree   DENC   =    -51763.33698851
  -exchange  EXHF       =         0.00000000
  -V(xc)+E(xc)   XCENC  =       511.99693271
  PAW double counting   =     13113.41259605   -14848.82163186
  entropy T*S    EENTRO =         0.00000000
  eigenvalues    EBANDS =      -394.14124231
  atomic energy  EATOM  =     16691.65700843
  ---------------------------------------------------
  free energy    TOTEN  =       -42.20899527 eV

  energy without entropy =      -42.20899527  energy(sigma->0) =      -42.20899527


--------------------------------------------------------------------------------------------------------




----------------------------------------- Iteration    1(  23)  ---------------------------------------


    POTLOK:  cpu time    0.44: real time    0.44
    SETDIJ:  cpu time    0.06: real time    0.06
     EDDAV:  cpu time   37.13: real time   37.13
 BZINTS: Fermi energy: -0.240273;132.000000 electrons
         Band energy:-394.147287;  BLOECHL correction: -0.140377
       DOS:  cpu time    0.04: real time    0.04
    CHARGE:  cpu time    1.35: real time    1.35
    MIXING:  cpu time    0.05: real time    0.05
    --------------------------------------------
      LOOP:  cpu time   39.07: real time   39.08

 eigenvalue-minimisations  :   952
 total energy-change (2. order) : 0.1084853E-05  (-0.5125486E-08)
 number of electron     132.0000004 magnetization 
 augmentation part       86.4779328 magnetization 

 Broyden mixing:
  rms(total) = 0.21022E-04    rms(broyden)= 0.21021E-04
  rms(prec ) = 0.23119E-04
  weight for this iteration     100.00

 eigenvalues of (default mixing * dielectric matrix)
  average eigenvalue GAMMA=   1.9092
  8.4911  4.5317  3.1074  2.8521  2.1715  2.1715  1.5268  1.5268  0.3352  0.3352
  0.8666  0.8666  0.7044  1.1933  0.9125  0.9125  0.9301  0.9301

 Free energy of the ion-electron system (eV)
  ---------------------------------------------------
  alpha Z        PSCENC =       667.73722884
  Ewald energy   TEWEN  =     35979.28710139
  -1/2 Hartree   DENC   =    -51763.33443479
  -exchange  EXHF       =         0.00000000
  -V(xc)+E(xc)   XCENC  =       511.99709717
  PAW double counting   =     13113.38734963   -14848.79305821
  entropy T*S    EENTRO =         0.00000000
  eigenvalues    EBANDS =      -394.14728665
  atomic energy  EATOM  =     16691.65700843
  ---------------------------------------------------
  free energy    TOTEN  =       -42.20899418 eV

  energy without entropy =      -42.20899418  energy(sigma->0) =      -42.20899418


--------------------------------------------------------------------------------------------------------




----------------------------------------- Iteration    1(  24)  ---------------------------------------


    POTLOK:  cpu time    0.44: real time    0.44
    SETDIJ:  cpu time    0.06: real time    0.06
     EDDAV:  cpu time   36.55: real time   36.55
 BZINTS: Fermi energy: -0.240245;132.000000 electrons
         Band energy:-394.142553;  BLOECHL correction: -0.140378
       DOS:  cpu time    0.05: real time    0.05
    --------------------------------------------
      LOOP:  cpu time   37.10: real time   37.10

 eigenvalue-minimisations  :   928
 total energy-change (2. order) :-0.8211064E-06  (-0.1443334E-08)
 number of electron     132.0000004 magnetization 
 augmentation part       86.4779328 magnetization 

 Free energy of the ion-electron system (eV)
  ---------------------------------------------------
  alpha Z        PSCENC =       667.73722884
  Ewald energy   TEWEN  =     35979.28710139
  -1/2 Hartree   DENC   =    -51763.33784007
  -exchange  EXHF       =         0.00000000
  -V(xc)+E(xc)   XCENC  =       511.99719221
  PAW double counting   =     13113.39597713   -14848.80310993
  entropy T*S    EENTRO =         0.00000000
  eigenvalues    EBANDS =      -394.14255300
  atomic energy  EATOM  =     16691.65700843
  ---------------------------------------------------
  free energy    TOTEN  =       -42.20899500 eV

  energy without entropy =      -42.20899500  energy(sigma->0) =      -42.20899500


--------------------------------------------------------------------------------------------------------




 average (electrostatic) potential at core
  the test charge radii are     1.0053
  (the norm of the test charge is              1.0000)
       1 -43.4657       2 -43.8055       3 -43.8400       4 -43.4657       5 -43.8055
       6 -43.8400       7 -43.8400       8 -43.8055       9 -43.4656      10 -43.8400
      11 -43.8055      12 -43.4656
 
 
 
 E-fermi :  -0.2402     XC(G=0):  -7.5285     alpha+bet : -4.9539


 k-point   1 :       0.0000    0.0000    0.0000
  band No.  band energies     occupation 
      1      -9.0799      2.00000
      2      -8.2616      2.00000
      3      -6.9881      2.00000
      4      -5.6164      2.00000
      5      -4.8818      2.00000
      6      -4.8565      2.00000
      7      -4.8013      2.00000
      8      -4.8013      2.00000
      9      -4.4668      2.00000
     10      -4.4668      2.00000
     11      -4.4082      2.00000
     12      -4.3976      2.00000
     13      -4.3976      2.00000
     14      -4.1853      2.00000
     15      -4.1075      2.00000
     16      -4.1075      2.00000
     17      -3.9095      2.00000
     18      -3.9095      2.00000
     19      -3.8322      2.00000
     20      -3.6214      2.00000
     21      -3.6214      2.00000
     22      -3.4716      2.00000
     23      -3.2304      2.00000
     24      -3.1335      2.00000
     25      -3.0524      2.00000
     26      -3.0524      2.00000
     27      -2.9906      2.00000
     28      -2.9906      2.00000
     29      -2.8196      2.00000
     30      -2.8196      2.00000
     31      -2.6054      2.00000
     32      -2.6005      2.00000
     33      -2.4611      2.00000
     34      -2.4611      2.00000
     35      -2.3818      2.00000
     36      -2.3341      2.00000
     37      -2.3126      2.00000
     38      -2.3126      2.00000
     39      -2.2799      2.00000
     40      -2.2031      2.00000
     41      -2.2031      2.00000
     42      -2.1847      2.00000
     43      -2.0641      2.00000
     44      -2.0641      2.00000
     45      -2.0201      2.00000
     46      -1.9349      2.00000
     47      -1.9349      2.00000
     48      -1.8497      2.00000
     49      -1.7960      2.00000
     50      -1.7960      2.00000
     51      -1.7683      2.00000
     52      -1.7683      2.00000
     53      -1.7528      2.00000
     54      -1.7528      2.00000
     55      -1.6640      2.00000
     56      -1.6640      2.00000
     57      -1.6405      2.00000
     58      -1.6367      2.00000
     59      -1.6329      2.00000
     60      -1.6329      2.00000
     61      -1.6153      2.00000
     62      -1.6153      2.00000
     63      -1.6142      2.00000
     64      -1.2789      2.00000
     65      -1.2788      2.00000
     66      -0.0023      0.00000
     67       1.0802      0.00000
     68       1.9353      0.00000
     69       1.9353      0.00000
     70       3.2194      0.00000
     71       3.2194      0.00000
     72       4.0068      0.00000
     73       4.6056      0.00000
     74       4.9445      0.00000
     75       4.9445      0.00000
     76       6.6013      0.00000
     77       6.9229      0.00000
     78       6.9229      0.00000
     79       7.0307      0.00000
     80       7.0307      0.00000

 k-point   2 :       0.1429    0.0000    0.0000
  band No.  band energies     occupation 
      1      -8.8374      2.00000
      2      -8.0278      2.00000
      3      -6.7721      2.00000
      4      -5.4310      2.00000
      5      -4.8002      2.00000
      6      -4.7340      2.00000
      7      -4.7321      2.00000
      8      -4.6962      2.00000
      9      -4.4332      2.00000
     10      -4.3933      2.00000
     11      -4.3433      2.00000
     12      -4.3377      2.00000
     13      -4.3212      2.00000
     14      -4.1313      2.00000
     15      -4.0962      2.00000
     16      -4.0606      2.00000
     17      -3.8800      2.00000
     18      -3.8357      2.00000
     19      -3.7956      2.00000
     20      -3.6309      2.00000
     21      -3.6009      2.00000
     22      -3.4569      2.00000
     23      -3.2447      2.00000
     24      -3.0770      2.00000
     25      -3.0725      2.00000
     26      -3.0462      2.00000
     27      -3.0191      2.00000
     28      -3.0145      2.00000
     29      -2.8971      2.00000
     30      -2.8754      2.00000
     31      -2.8268      2.00000
     32      -2.5767      2.00000
     33      -2.4734      2.00000
     34      -2.4466      2.00000
     35      -2.4368      2.00000
     36      -2.4161      2.00000
     37      -2.4137      2.00000
     38      -2.3399      2.00000
     39      -2.3068      2.00000
     40      -2.2720      2.00000
     41      -2.2191      2.00000
     42      -2.1978      2.00000
     43      -2.0767      2.00000
     44      -2.0671      2.00000
     45      -2.0536      2.00000
     46      -2.0387      2.00000
     47      -1.9911      2.00000
     48      -1.9634      2.00000
     49      -1.8928      2.00000
     50      -1.8863      2.00000
     51      -1.8652      2.00000
     52      -1.8324      2.00000
     53      -1.7973      2.00000
     54      -1.7965      2.00000
     55      -1.7963      2.00000
     56      -1.7633      2.00000
     57      -1.7399      2.00000
     58      -1.7341      2.00000
     59      -1.7130      2.00000
     60      -1.6932      2.00000
     61      -1.6718      2.00000
     62      -1.6374      2.00000
     63      -1.4380      2.00000
     64      -1.4193      2.00000
     65      -1.0869      2.00000
     66       0.4284     -0.00159
     67       0.6258      0.00000
     68       1.5777      0.00000
     69       1.7416      0.00000
     70       2.4668      0.00000
     71       3.1822      0.00000
     72       3.6564      0.00000
     73       4.2508      0.00000
     74       4.8246      0.00000
     75       4.8423      0.00000
     76       5.3155      0.00000
     77       6.6939      0.00000
     78       6.8341      0.00000
     79       7.1320      0.00000
     80       7.2522      0.00000

 k-point   3 :       0.2857    0.0000    0.0000
  band No.  band energies     occupation 
      1      -8.1278      2.00000
      2      -7.3481      2.00000
      3      -6.1582      2.00000
      4      -4.9626      2.00000
      5      -4.9354      2.00000
      6      -4.5225      2.00000
      7      -4.4164      2.00000
      8      -4.4035      2.00000
      9      -4.3389      2.00000
     10      -4.2108      2.00000
     11      -4.1684      2.00000
     12      -4.1461      2.00000
     13      -4.1096      2.00000
     14      -4.0708      2.00000
     15      -3.9837      2.00000
     16      -3.9712      2.00000
     17      -3.9308      2.00000
     18      -3.6990      2.00000
     19      -3.6597      2.00000
     20      -3.5549      2.00000
     21      -3.4994      2.00000
     22      -3.4587      2.00000
     23      -3.3859      2.00000
     24      -3.2008      2.00000
     25      -3.1516      2.00000
     26      -3.1402      2.00000
     27      -3.0602      2.00000
     28      -2.9391      2.00000
     29      -2.9192      2.00000
     30      -2.9191      2.00000
     31      -2.9149      2.00000
     32      -2.8132      2.00000
     33      -2.7935      2.00000
     34      -2.7229      2.00000
     35      -2.5805      2.00000
     36      -2.5501      2.00000
     37      -2.4919      2.00000
     38      -2.4542      2.00000
     39      -2.4386      2.00000
     40      -2.3760      2.00000
     41      -2.3138      2.00000
     42      -2.2862      2.00000
     43      -2.2054      2.00000
     44      -2.1665      2.00000
     45      -2.1640      2.00000
     46      -2.1183      2.00000
     47      -2.1172      2.00000
     48      -2.1069      2.00000
     49      -2.0974      2.00000
     50      -2.0832      2.00000
     51      -2.0140      2.00000
     52      -1.9766      2.00000
     53      -1.9744      2.00000
     54      -1.9661      2.00000
     55      -1.9119      2.00000
     56      -1.9114      2.00000
     57      -1.8753      2.00000
     58      -1.8726      2.00000
     59      -1.7893      2.00000
     60      -1.7468      2.00000
     61      -1.7024      2.00000
     62      -1.6483      2.00000
     63      -1.6202      2.00000
     64      -1.3517      2.00000
     65      -1.1692      2.00000
     66      -0.2420      0.74531
     67      -0.2335      0.66222
     68       0.9566      0.00000
     69       1.4032      0.00000
     70       2.4531      0.00000
     71       2.7255      0.00000
     72       3.7409      0.00000
     73       4.2892      0.00000
     74       4.7927      0.00000
     75       4.9831      0.00000
     76       5.4759      0.00000
     77       6.3009      0.00000
     78       6.3325      0.00000
     79       7.4876      0.00000
     80       7.5335      0.00000

 k-point   4 :       0.4286    0.0000    0.0000
  band No.  band energies     occupation 
      1      -7.0239      2.00000
      2      -6.3104      2.00000
      3      -5.7648      2.00000
      4      -5.2851      2.00000
      5      -5.1779      2.00000
      6      -4.4768      2.00000
      7      -4.3678      2.00000
      8      -4.1394      2.00000
      9      -4.0997      2.00000
     10      -4.0773      2.00000
     11      -3.9219      2.00000
     12      -3.9217      2.00000
     13      -3.9103      2.00000
     14      -3.8211      2.00000
     15      -3.8156      2.00000
     16      -3.7534      2.00000
     17      -3.7263      2.00000
     18      -3.6571      2.00000
     19      -3.5609      2.00000
     20      -3.5488      2.00000
     21      -3.5318      2.00000
     22      -3.5135      2.00000
     23      -3.4565      2.00000
     24      -3.3919      2.00000
     25      -3.3452      2.00000
     26      -3.3256      2.00000
     27      -3.2629      2.00000
     28      -3.1481      2.00000
     29      -3.0676      2.00000
     30      -2.9885      2.00000
     31      -2.9400      2.00000
     32      -2.8429      2.00000
     33      -2.6783      2.00000
     34      -2.6780      2.00000
     35      -2.6093      2.00000
     36      -2.6042      2.00000
     37      -2.5666      2.00000
     38      -2.5090      2.00000
     39      -2.4703      2.00000
     40      -2.4529      2.00000
     41      -2.4516      2.00000
     42      -2.4130      2.00000
     43      -2.4071      2.00000
     44      -2.3998      2.00000
     45      -2.3985      2.00000
     46      -2.3340      2.00000
     47      -2.2985      2.00000
     48      -2.2891      2.00000
     49      -2.2735      2.00000
     50      -2.2531      2.00000
     51      -2.1659      2.00000
     52      -2.1588      2.00000
     53      -2.1277      2.00000
     54      -2.1230      2.00000
     55      -2.1123      2.00000
     56      -2.0727      2.00000
     57      -2.0542      2.00000
     58      -1.9162      2.00000
     59      -1.8359      2.00000
     60      -1.8163      2.00000
     61      -1.8151      2.00000
     62      -1.6619      2.00000
     63      -1.6594      2.00000
     64      -1.4145      2.00000
     65      -1.4083      2.00000
     66      -0.6075      2.12045
     67      -0.6037      2.07554
     68       0.6104      0.00000
     69       0.8608      0.00000
     70       2.3387      0.00000
     71       2.7030      0.00000
     72       4.2206      0.00000
     73       4.3256      0.00000
     74       5.4254      0.00000
     75       6.0029      0.00000
     76       6.1971      0.00000
     77       6.3850      0.00000
     78       6.5487      0.00000
     79       7.3976      0.00000
     80       7.8678      0.00000

 k-point   5 :       0.1429    0.1429    0.0000
  band No.  band energies     occupation 
      1      -8.5987      2.00000
      2      -7.8002      2.00000
      3      -6.5685      2.00000
      4      -5.2708      2.00000
      5      -4.6886      2.00000
      6      -4.6886      2.00000
      7      -4.6234      2.00000
      8      -4.6071      2.00000
      9      -4.3691      2.00000
     10      -4.3691      2.00000
     11      -4.2834      2.00000
     12      -4.2557      2.00000
     13      -4.2557      2.00000
     14      -4.0889      2.00000
     15      -4.0888      2.00000
     16      -4.0735      2.00000
     17      -3.8089      2.00000
     18      -3.8088      2.00000
     19      -3.7468      2.00000
     20      -3.6037      2.00000
     21      -3.6037      2.00000
     22      -3.4313      2.00000
     23      -3.2580      2.00000
     24      -3.0622      2.00000
     25      -3.0622      2.00000
     26      -3.0344      2.00000
     27      -3.0252      2.00000
     28      -2.9958      2.00000
     29      -2.9694      2.00000
     30      -2.9423      2.00000
     31      -2.8374      2.00000
     32      -2.6929      2.00000
     33      -2.5969      2.00000
     34      -2.5245      2.00000
     35      -2.5245      2.00000
     36      -2.3888      2.00000
     37      -2.3884      2.00000
     38      -2.3873      2.00000
     39      -2.3033      2.00000
     40      -2.2842      2.00000
     41      -2.2842      2.00000
     42      -2.2582      2.00000
     43      -2.2206      2.00000
     44      -2.1869      2.00000
     45      -2.0998      2.00000
     46      -2.0998      2.00000
     47      -2.0582      2.00000
     48      -2.0089      2.00000
     49      -1.9479      2.00000
     50      -1.9479      2.00000
     51      -1.9318      2.00000
     52      -1.9317      2.00000
     53      -1.8858      2.00000
     54      -1.8382      2.00000
     55      -1.7990      2.00000
     56      -1.7990      2.00000
     57      -1.7572      2.00000
     58      -1.7488      2.00000
     59      -1.7410      2.00000
     60      -1.7410      2.00000
     61      -1.6583      2.00000
     62      -1.6230      2.00000
     63      -1.5310      2.00000
     64      -1.5310      2.00000
     65      -0.8056      2.01837
     66       0.7780     -0.00182
     67       1.1070      0.00000
     68       1.1070      0.00000
     69       2.0029      0.00000
     70       2.0974      0.00000
     71       2.0974      0.00000
     72       3.4328      0.00000
     73       3.4328      0.00000
     74       4.4951      0.00000
     75       5.0418      0.00000
     76       5.1537      0.00000
     77       5.1538      0.00000
     78       7.0324      0.00000
     79       7.0324      0.00000
     80       7.0671      0.00000

 k-point   6 :       0.2857    0.1429    0.0000
  band No.  band energies     occupation 
      1      -7.9015      2.00000
      2      -7.1418      2.00000
      3      -6.0007      2.00000
      4      -4.8694      2.00000
      5      -4.8358      2.00000
      6      -4.4778      2.00000
      7      -4.3909      2.00000
      8      -4.3394      2.00000
      9      -4.3032      2.00000
     10      -4.2280      2.00000
     11      -4.1835      2.00000
     12      -4.1469      2.00000
     13      -4.1060      2.00000
     14      -4.0799      2.00000
     15      -4.0094      2.00000
     16      -3.8950      2.00000
     17      -3.7634      2.00000
     18      -3.6616      2.00000
     19      -3.5958      2.00000
     20      -3.4929      2.00000
     21      -3.4483      2.00000
     22      -3.3931      2.00000
     23      -3.3716      2.00000
     24      -3.1429      2.00000
     25      -3.1414      2.00000
     26      -3.1295      2.00000
     27      -3.0603      2.00000
     28      -2.9592      2.00000
     29      -2.9228      2.00000
     30      -2.9202      2.00000
     31      -2.9168      2.00000
     32      -2.9016      2.00000
     33      -2.8577      2.00000
     34      -2.7787      2.00000
     35      -2.6782      2.00000
     36      -2.5660      2.00000
     37      -2.5568      2.00000
     38      -2.5061      2.00000
     39      -2.4687      2.00000
     40      -2.4531      2.00000
     41      -2.3658      2.00000
     42      -2.3385      2.00000
     43      -2.3319      2.00000
     44      -2.2786      2.00000
     45      -2.2524      2.00000
     46      -2.2311      2.00000
     47      -2.1942      2.00000
     48      -2.1794      2.00000
     49      -2.1386      2.00000
     50      -2.1369      2.00000
     51      -2.0513      2.00000
     52      -1.9961      2.00000
     53      -1.9550      2.00000
     54      -1.9170      2.00000
     55      -1.8485      2.00000
     56      -1.8466      2.00000
     57      -1.8151      2.00000
     58      -1.8108      2.00000
     59      -1.8024      2.00000
     60      -1.7022      2.00000
     61      -1.6641      2.00000
     62      -1.6637      2.00000
     63      -1.6620      2.00000
     64      -1.3536      2.00000
     65      -0.7107      2.00516
     66      -0.0791      0.28234
     67       0.0375      0.07239
     68       1.1346      0.00000
     69       1.6567      0.00000
     70       2.1623      0.00000
     71       2.5311      0.00000
     72       2.9324      0.00000
     73       3.0543      0.00000
     74       4.4637      0.00000
     75       4.5839      0.00000
     76       5.2270      0.00000
     77       5.6829      0.00000
     78       6.0767      0.00000
     79       6.5688      0.00000
     80       7.2084      0.00000

 k-point   7 :       0.4286    0.1429    0.0000
  band No.  band energies     occupation 
      1      -6.8228      2.00000
      2      -6.1519      2.00000
      3      -5.6054      2.00000
      4      -5.2342      2.00000
      5      -5.1034      2.00000
      6      -4.5758      2.00000
      7      -4.4604      2.00000
      8      -4.2408      2.00000
      9      -4.0701      2.00000
     10      -4.0413      2.00000
     11      -3.9974      2.00000
     12      -3.9973      2.00000
     13      -3.8522      2.00000
     14      -3.8485      2.00000
     15      -3.7468      2.00000
     16      -3.6940      2.00000
     17      -3.6048      2.00000
     18      -3.6036      2.00000
     19      -3.5316      2.00000
     20      -3.4549      2.00000
     21      -3.3767      2.00000
     22      -3.3709      2.00000
     23      -3.3614      2.00000
     24      -3.3559      2.00000
     25      -3.3434      2.00000
     26      -3.2777      2.00000
     27      -3.2097      2.00000
     28      -3.0629      2.00000
     29      -3.0455      2.00000
     30      -2.9812      2.00000
     31      -2.9695      2.00000
     32      -2.9198      2.00000
     33      -2.7763      2.00000
     34      -2.7680      2.00000
     35      -2.6817      2.00000
     36      -2.6658      2.00000
     37      -2.6418      2.00000
     38      -2.6335      2.00000
     39      -2.5846      2.00000
     40      -2.5431      2.00000
     41      -2.5391      2.00000
     42      -2.5331      2.00000
     43      -2.4927      2.00000
     44      -2.3989      2.00000
     45      -2.3870      2.00000
     46      -2.3779      2.00000
     47      -2.3025      2.00000
     48      -2.1764      2.00000
     49      -2.1736      2.00000
     50      -2.1081      2.00000
     51      -2.1019      2.00000
     52      -2.0885      2.00000
     53      -2.0333      2.00000
     54      -2.0067      2.00000
     55      -1.9438      2.00000
     56      -1.9296      2.00000
     57      -1.9163      2.00000
     58      -1.9017      2.00000
     59      -1.7990      2.00000
     60      -1.7751      2.00000
     61      -1.7417      2.00000
     62      -1.7121      2.00000
     63      -1.6481      2.00000
     64      -1.4416      2.00000
     65      -1.3209      2.03616
     66      -0.5855      2.05156
     67      -0.5548      1.94349
     68       0.6771      0.00000
     69       0.9783      0.00000
     70       2.3844      0.00000
     71       2.8757      0.00000
     72       3.4561      0.00000
     73       4.4618      0.00000
     74       4.4915      0.00000
     75       4.5633      0.00000
     76       5.2427      0.00000
     77       5.8313      0.00000
     78       6.1327      0.00000
     79       6.2538      0.00000
     80       6.4400      0.00000

 k-point   8 :       0.2857    0.2857    0.0000
  band No.  band energies     occupation 
      1      -7.2466      2.00000
      2      -6.5600      2.00000
      3      -5.5969      2.00000
      4      -4.7401      2.00000
      5      -4.5664      2.00000
      6      -4.5664      2.00000
      7      -4.4737      2.00000
      8      -4.4736      2.00000
      9      -4.2417      2.00000
     10      -4.2065      2.00000
     11      -4.2065      2.00000
     12      -4.1672      2.00000
     13      -3.9657      2.00000
     14      -3.8347      2.00000
     15      -3.8347      2.00000
     16      -3.6774      2.00000
     17      -3.6045      2.00000
     18      -3.6045      2.00000
     19      -3.4019      2.00000
     20      -3.3017      2.00000
     21      -3.3016      2.00000
     22      -3.2917      2.00000
     23      -3.2242      2.00000
     24      -3.1289      2.00000
     25      -3.1289      2.00000
     26      -3.1145      2.00000
     27      -3.1024      2.00000
     28      -3.0502      2.00000
     29      -3.0502      2.00000
     30      -3.0067      2.00000
     31      -2.9416      2.00000
     32      -2.9299      2.00000
     33      -2.8687      2.00000
     34      -2.8612      2.00000
     35      -2.7595      2.00000
     36      -2.6769      2.00000
     37      -2.6591      2.00000
     38      -2.6590      2.00000
     39      -2.6306      2.00000
     40      -2.6289      2.00000
     41      -2.5398      2.00000
     42      -2.5397      2.00000
     43      -2.4320      2.00000
     44      -2.4177      2.00000
     45      -2.4177      2.00000
     46      -2.3441      2.00000
     47      -2.0988      2.00000
     48      -2.0988      2.00000
     49      -2.0951      2.00000
     50      -2.0879      2.00000
     51      -2.0623      2.00000
     52      -1.9887      2.00000
     53      -1.9841      2.00000
     54      -1.9360      2.00000
     55      -1.9360      2.00000
     56      -1.8322      2.00000
     57      -1.7709      2.00000
     58      -1.7709      2.00000
     59      -1.7594      2.00000
     60      -1.7033      2.00000
     61      -1.6813      2.00000
     62      -1.6812      2.00000
     63      -1.6680      2.00000
     64      -1.1816      2.00000
     65       0.1474      0.88409
     66       0.1474     -0.05614
     67       0.4296     -0.31592
     68       0.6860     -0.00255
     69       0.6860      0.00000
     70       1.4580      0.00000
     71       1.4580      0.00000
     72       2.3295      0.00000
     73       3.7248      0.00000
     74       3.7249      0.00000
     75       3.9063      0.00000
     76       4.8305      0.00000
     77       5.4696      0.00000
     78       5.4696      0.00000
     79       5.7518      0.00000
     80       5.9574      0.00000

 k-point   9 :       0.4286    0.2857    0.0000
  band No.  band energies     occupation 
      1      -6.2593      2.00000
      2      -5.7437      2.00000
      3      -5.2034      2.00000
      4      -5.1330      2.00000
      5      -4.9819      2.00000
      6      -4.7523      2.00000
      7      -4.6174      2.00000
      8      -4.4940      2.00000
      9      -4.1817      2.00000
     10      -4.1687      2.00000
     11      -4.0234      2.00000
     12      -3.9788      2.00000
     13      -3.8065      2.00000
     14      -3.6872      2.00000
     15      -3.5657      2.00000
     16      -3.5301      2.00000
     17      -3.5100      2.00000
     18      -3.4809      2.00000
     19      -3.4796      2.00000
     20      -3.2517      2.00000
     21      -3.2458      2.00000
     22      -3.2241      2.00000
     23      -3.1969      2.00000
     24      -3.1945      2.00000
     25      -3.0984      2.00000
     26      -3.0781      2.00000
     27      -3.0655      2.00000
     28      -3.0571      2.00000
     29      -3.0512      2.00000
     30      -3.0057      2.00000
     31      -2.9854      2.00000
     32      -2.9826      2.00000
     33      -2.8753      2.00000
     34      -2.8534      2.00000
     35      -2.8346      2.00000
     36      -2.7664      2.00000
     37      -2.7324      2.00000
     38      -2.7306      2.00000
     39      -2.7010      2.00000
     40      -2.6212      2.00000
     41      -2.5060      2.00000
     42      -2.4856      2.00000
     43      -2.4529      2.00000
     44      -2.4522      2.00000
     45      -2.4310      2.00000
     46      -2.3085      2.00000
     47      -2.2810      2.00000
     48      -2.1178      2.00000
     49      -2.0650      2.00000
     50      -2.0219      2.00000
     51      -1.9878      2.00000
     52      -1.9617      2.00000
     53      -1.8834      2.00000
     54      -1.8483      2.00000
     55      -1.8425      2.00000
     56      -1.8344      2.00000
     57      -1.8126      2.00000
     58      -1.8040      2.00000
     59      -1.7671      2.00000
     60      -1.7454      2.00000
     61      -1.7396      2.00000
     62      -1.6899      2.00000
     63      -1.5337      2.00000
     64      -1.1499      2.00000
     65      -0.9459      2.05125
     66      -0.4976      1.93335
     67      -0.3845      1.68431
     68       0.6729     -0.07842
     69       1.2130      0.00000
     70       1.2626      0.00000
     71       1.4559      0.00000
     72       2.5268      0.00000
     73       3.5137      0.00000
     74       3.5262      0.00000
     75       3.7431      0.00000
     76       3.8212      0.00000
     77       5.0512      0.00000
     78       5.1889      0.00000
     79       5.3387      0.00000
     80       5.3499      0.00000

 k-point  10 :       0.4286    0.4286    0.0000
  band No.  band energies     occupation 
      1      -5.4879      2.00000
      2      -5.2859      2.00000
      3      -5.0326      2.00000
      4      -4.9849      2.00000
      5      -4.9849      2.00000
      6      -4.7977      2.00000
      7      -4.7977      2.00000
      8      -4.7116      2.00000
      9      -4.2992      2.00000
     10      -4.2503      2.00000
     11      -4.2503      2.00000
     12      -4.1186      2.00000
     13      -3.5556      2.00000
     14      -3.4339      2.00000
     15      -3.4339      2.00000
     16      -3.3648      2.00000
     17      -3.3566      2.00000
     18      -3.3465      2.00000
     19      -3.3465      2.00000
     20      -3.2563      2.00000
     21      -3.2563      2.00000
     22      -3.2303      2.00000
     23      -3.1813      2.00000
     24      -3.1704      2.00000
     25      -3.1016      2.00000
     26      -3.1016      2.00000
     27      -3.0588      2.00000
     28      -3.0525      2.00000
     29      -2.9722      2.00000
     30      -2.9294      2.00000
     31      -2.9289      2.00000
     32      -2.9289      2.00000
     33      -2.8562      2.00000
     34      -2.8562      2.00000
     35      -2.8479      2.00000
     36      -2.8214      2.00000
     37      -2.7013      2.00000
     38      -2.6965      2.00000
     39      -2.6709      2.00000
     40      -2.6709      2.00000
     41      -2.5149      2.00000
     42      -2.4607      2.00000
     43      -2.4485      2.00000
     44      -2.4485      2.00000
     45      -2.1500      2.00000
     46      -2.0972      2.00000
     47      -2.0972      2.00000
     48      -2.0927      2.00000
     49      -2.0036      2.00000
     50      -2.0007      2.00000
     51      -2.0007      2.00000
     52      -1.8856      2.00000
     53      -1.8391      2.00000
     54      -1.7966      2.00000
     55      -1.7965      2.00000
     56      -1.7793      2.00000
     57      -1.7539      2.00000
     58      -1.7539      2.00000
     59      -1.7524      2.00000
     60      -1.7055      2.00000
     61      -1.4859      2.00000
     62      -1.3399      2.00000
     63      -1.2044      2.00000
     64      -0.4488      2.00000
     65      -0.4488      1.96014
     66      -0.3227      1.89568
     67      -0.3227      1.84162
     68      -0.2642      0.71144
     69       0.0053      0.00000
     70       0.0054      0.00000
     71       0.7741      0.00000
     72       0.8674      0.00000
     73       3.1048      0.00000
     74       3.1048      0.00000
     75       3.1824      0.00000
     76       3.2118      0.00000
     77       4.7486      0.00000
     78       4.7926      0.00000
     79       4.7926      0.00000
     80       4.9744      0.00000


--------------------------------------------------------------------------------------------------------


 soft charge-density along one line, spin component           1
         0         1         2         3         4         5         6         7         8         9
 total charge-density along one line
 
 pseudopotential strength for first ion, spin component:           1
 -9.056   0.000   0.000   0.000   0.000   0.925   0.000   0.000
  0.000  -9.030   0.000   0.000   0.000   0.000   0.912   0.000
  0.000   0.000  -9.014   0.000   0.000   0.000   0.000   0.905
  0.000   0.000   0.000  -9.030   0.000   0.000   0.000   0.000
  0.000   0.000   0.000   0.000  -9.032   0.000   0.000   0.000
  0.925   0.000   0.000   0.000   0.000   1.150   0.000   0.000
  0.000   0.912   0.000   0.000   0.000   0.000   1.156   0.000
  0.000   0.000   0.905   0.000   0.000   0.000   0.000   1.159
  0.000   0.000   0.000   0.912   0.000   0.000   0.000   0.000
  0.000   0.000   0.000   0.000   0.914   0.000   0.000   0.000
  0.000   0.000  -0.005   0.000   0.000   0.000   0.000   0.002
  0.000   0.000   0.000   0.000   0.000   0.000   0.000   0.000
  0.000  -0.014   0.000   0.000   0.000   0.000   0.007   0.000
  0.000   0.000  -0.015   0.000   0.000   0.000   0.000   0.008
  0.000   0.000   0.000  -0.014   0.000   0.000   0.000   0.000
  0.000   0.007   0.000   0.000   0.000   0.000  -0.004   0.000
  0.000   0.000   0.009   0.000   0.000   0.000   0.000  -0.004
  0.000   0.000   0.000   0.007   0.000   0.000   0.000   0.000
 total augmentation occupancy for first ion, spin component:           1
  1.916   0.000   0.000   0.000   0.000   0.003   0.000   0.000   0.000   0.000   0.000   0.000   0.000   0.000   0.000   0.000
  0.000   1.919   0.000   0.000   0.000   0.000  -0.037   0.000   0.000   0.000   0.000   0.000   0.012   0.000   0.000  -0.008
  0.000   0.000   1.931   0.000   0.000   0.000   0.000  -0.059   0.000   0.000   0.018   0.031   0.000   0.015   0.000   0.000
  0.000   0.000   0.000   1.919   0.000   0.000   0.000   0.000  -0.037   0.000   0.000   0.000   0.000   0.000   0.012   0.000
  0.000   0.000   0.000   0.000   1.919   0.000   0.000   0.000   0.000  -0.055   0.000   0.000   0.000   0.000   0.000   0.000
  0.003   0.000   0.000   0.000   0.000   0.057   0.000   0.000   0.000   0.000   0.000   0.000   0.000   0.000   0.000   0.000
  0.000  -0.037   0.000   0.000   0.000   0.000   0.043   0.000   0.000   0.000   0.000   0.000   0.041   0.000   0.000  -0.003
  0.000   0.000  -0.059   0.000   0.000   0.000   0.000   0.049   0.000   0.000  -0.062   0.008   0.000   0.037   0.000   0.000
  0.000   0.000   0.000  -0.037   0.000   0.000   0.000   0.000   0.043   0.000   0.000   0.000   0.000   0.000   0.041   0.000
  0.000   0.000   0.000   0.000  -0.055   0.000   0.000   0.000   0.000   0.053   0.000   0.000   0.000   0.000   0.000   0.000
  0.000   0.000   0.018   0.000   0.000   0.000   0.000  -0.062   0.000   0.000   1.216  -0.270   0.000   0.088   0.000   0.000
  0.000   0.000   0.031   0.000   0.000   0.000   0.000   0.008   0.000   0.000  -0.270   0.104   0.000  -0.051   0.000   0.000
  0.000   0.012   0.000   0.000   0.000   0.000   0.041   0.000   0.000   0.000   0.000   0.000   0.146   0.000   0.000  -0.009
  0.000   0.000   0.015   0.000   0.000   0.000   0.000   0.037   0.000   0.000   0.088  -0.051   0.000   0.085   0.000   0.000
  0.000   0.000   0.000   0.012   0.000   0.000   0.000   0.000   0.041   0.000   0.000   0.000   0.000   0.000   0.146   0.000
  0.000  -0.008   0.000   0.000   0.000   0.000  -0.003   0.000   0.000   0.000   0.000   0.000  -0.009   0.000   0.000   0.001
  0.000   0.000  -0.009   0.000   0.000   0.000   0.000  -0.002   0.000   0.000  -0.016   0.006   0.000  -0.007   0.000   0.000
  0.000   0.000   0.000  -0.008   0.000   0.000   0.000   0.000  -0.003   0.000   0.000   0.000   0.000   0.000  -0.009   0.000


------------------------ aborting loop because EDIFF is reached ----------------------------------------


    CHARGE:  cpu time    1.41: real time    1.41
    FORLOC:  cpu time    0.04: real time    0.05
    FORNL :  cpu time   23.21: real time   23.21
    STRESS:  cpu time   62.58: real time   62.58
    FORCOR:  cpu time    0.47: real time    0.47
    FORHAR:  cpu time    0.16: real time    0.16
    MIXING:  cpu time    0.06: real time    0.06

  FORCE on cell =-STRESS in cart. coord.  units (eV):
  Direction    XX          YY          ZZ          XY          YZ          ZX
  --------------------------------------------------------------------------------------
  Alpha Z   667.73723   667.73723   667.73723
  Ewald   44639.17246 44639.17246-53299.08174     0.00000     0.00000     0.00000
  Hartree 49218.77737 49218.77737-46674.21921     0.00000     0.00000     0.00000
  E(xc)    -750.64309  -750.64309  -751.60588     0.00000     0.00000     0.00000
  Local  -94947.22860-94947.22860 98882.24357     0.00000     0.00000     0.00000
  n-local  -439.55626  -451.83334  -446.73928     3.84783     0.00000     0.00000
  augment   674.74987   674.74984   676.20406    -0.00001     0.00000    -0.00001
  Kinetic   954.24286   926.16300   943.86951    -3.65779     0.00000     0.00000
  Fock        0.00000     0.00000     0.00000     0.00000     0.00000     0.00000
  -------------------------------------------------------------------------------------
  Total      -2.92665    -2.92665    -1.59174     0.00000     0.00000     0.00000
  in kB     -17.01850   -17.01850    -9.25598     0.00000     0.00000     0.00000
  external pressure =      -14.43 kB  Pullay stress =        0.00 kB


 VOLUME and BASIS-vectors are now :
 -----------------------------------------------------------------------------
  energy-cutoff  :      415.00
  volume of cell :      275.52
      direct lattice vectors                 reciprocal lattice vectors
     3.631354857  0.000000000  0.000000000     0.275379311  0.000000000  0.000000000
     0.000000000  3.631354857  0.000000000     0.000000000  0.275379311  0.000000000
     0.000000000  0.000000000 20.894064570     0.000000000  0.000000000  0.047860482

  length of vectors
     3.631354857  3.631354857 20.894064570     0.275379311  0.275379311  0.047860482


 FORCES acting on ions
    electron-ion (+dipol)            ewald-force                    non-local-force                 convergence-correction
 -----------------------------------------------------------------------------------------------
   -.235E-13 0.114E-13 0.391E+04   -.456E-14 0.902E-14 -.391E+04   0.331E-22 -.132E-22 -.267E+01   0.577E-14 0.289E-13 0.244E-04
   -.452E-13 -.502E-13 0.795E+03   0.168E-13 0.417E-14 -.795E+03   -.106E-21 0.000E+00 0.388E-01   -.275E-13 0.957E-13 0.743E-04
   -.542E-13 0.190E-13 -.239E+04   -.181E-15 0.174E-13 0.238E+04   0.265E-22 0.529E-22 0.775E+00   -.328E-13 0.469E-13 -.824E-04
   0.620E-12 0.616E-12 0.391E+04   -.193E-13 -.791E-14 -.391E+04   0.596E-22 -.132E-22 -.267E+01   0.285E-13 0.664E-13 0.244E-04
   0.657E-12 0.626E-12 0.795E+03   0.307E-14 -.134E-13 -.795E+03   -.106E-21 0.000E+00 0.388E-01   -.515E-13 0.125E-12 0.743E-04
   0.641E-12 0.638E-12 -.239E+04   -.137E-13 0.100E-14 0.238E+04   0.265E-22 0.529E-22 0.775E+00   -.160E-13 0.528E-13 -.824E-04
   0.613E-12 -.537E-13 0.239E+04   -.187E-13 0.124E-13 -.238E+04   -.265E-22 -.529E-22 -.775E+00   0.431E-13 0.736E-13 0.815E-04
   0.602E-12 -.266E-13 -.795E+03   -.820E-14 0.132E-14 0.795E+03   0.529E-22 -.529E-22 -.388E-01   -.796E-13 0.510E-13 -.753E-04
   0.584E-12 -.484E-13 -.391E+04   -.273E-14 0.578E-14 0.391E+04   -.529E-22 0.331E-22 0.267E+01   0.138E-12 0.636E-13 -.251E-04
   -.286E-13 0.690E-12 0.239E+04   -.336E-13 -.450E-14 -.238E+04   -.265E-22 -.529E-22 -.775E+00   0.757E-13 0.333E-13 0.815E-04
   -.404E-13 0.376E-12 -.795E+03   -.168E-13 -.161E-13 0.795E+03   0.159E-21 -.529E-22 -.388E-01   -.466E-13 0.255E-13 -.753E-04
   -.640E-13 0.854E-12 -.391E+04   -.112E-13 -.104E-13 0.391E+04   -.265E-22 0.331E-22 0.267E+01   0.943E-13 0.539E-13 -.251E-04
 -----------------------------------------------------------------------------------------------
   0.346E-11 0.365E-11 0.190E-02   -.109E-12 -.129E-14 0.000E+00   0.132E-22 -.662E-22 0.888E-15   0.131E-12 0.716E-12 -.534E-05
 
 
 POSITION                                       TOTAL-FORCE (eV/Angst)
 -----------------------------------------------------------------------------------
      0.00000      0.00000      0.00000         0.000000      0.000000      0.157952
      0.00000      0.00000      3.63135         0.000000      0.000000      0.039240
      0.00000      0.00000      7.26271         0.000000      0.000000      0.179322
      1.81568      1.81568      0.00000         0.000000      0.000000      0.157952
      1.81568      1.81568      3.63135         0.000000      0.000000      0.039240
      1.81568      1.81568      7.26271         0.000000      0.000000      0.179322
      1.81568      0.00000      1.81568         0.000000      0.000000     -0.179322
      1.81568      0.00000      5.44703         0.000000      0.000000     -0.039240
      1.81568      0.00000      9.07839         0.000000      0.000000     -0.157952
      0.00000      1.81568      1.81568         0.000000      0.000000     -0.179322
      0.00000      1.81568      5.44703         0.000000      0.000000     -0.039240
      0.00000      1.81568      9.07839         0.000000      0.000000     -0.157952
 -----------------------------------------------------------------------------------
    total drift:                                0.000000      0.000000      0.001893


--------------------------------------------------------------------------------------------------------



  FREE ENERGIE OF THE ION-ELECTRON SYSTEM (eV)
  ---------------------------------------------------
  free  energy   TOTEN  =       -42.208995 eV

  energy  without entropy=      -42.208995  energy(sigma->0) =      -42.208995
 


--------------------------------------------------------------------------------------------------------


    POTLOK:  cpu time    0.51: real time    0.51


--------------------------------------------------------------------------------------------------------




--------------------------------------------------------------------------------------------------------


    WAVPRE:  cpu time    0.10: real time    0.10
    FEWALD:  cpu time    0.00: real time    0.00
    ORTHCH:  cpu time    7.74: real time    7.74
     LOOP+:  cpu time 1390.39: real time 1390.53


----------------------------------------- Iteration    2(   1)  ---------------------------------------


    POTLOK:  cpu time    0.44: real time    0.44
    SETDIJ:  cpu time    0.06: real time    0.06
     EDDAV:  cpu time   53.32: real time   53.33
 BZINTS: Fermi energy: -0.240140;132.000000 electrons
         Band energy:-394.180227;  BLOECHL correction: -0.140361
       DOS:  cpu time    0.04: real time    0.04
    CHARGE:  cpu time    1.32: real time    1.32
    MIXING:  cpu time    0.02: real time    0.02
    --------------------------------------------
      LOOP:  cpu time   55.20: real time   55.21

 eigenvalue-minimisations  :  1600
 total energy-change (2. order) :-0.1072184E-02  (-0.2888224E-02)
 number of electron     131.9999993 magnetization 
 augmentation part       86.4768594 magnetization 

 Broyden mixing:
  rms(total) = 0.11424E-02    rms(broyden)= 0.11415E-02
  rms(prec ) = 0.12023E-02
  weight for this iteration     100.00

 Free energy of the ion-electron system (eV)
  ---------------------------------------------------
  alpha Z        PSCENC =       667.73722884
  Ewald energy   TEWEN  =     35983.55174802
  -1/2 Hartree   DENC   =    -51767.57034066
  -exchange  EXHF       =         0.00000000
  -V(xc)+E(xc)   XCENC  =       512.00189889
  PAW double counting   =     13113.39685815   -14848.80424060
  entropy T*S    EENTRO =         0.00000000
  eigenvalues    EBANDS =      -394.18022743
  atomic energy  EATOM  =     16691.65700843
  ---------------------------------------------------
  free energy    TOTEN  =       -42.21006636 eV

  energy without entropy =      -42.21006636  energy(sigma->0) =      -42.21006636


--------------------------------------------------------------------------------------------------------




----------------------------------------- Iteration    2(   2)  ---------------------------------------


    POTLOK:  cpu time    0.44: real time    0.44
    SETDIJ:  cpu time    0.06: real time    0.06
     EDDAV:  cpu time   54.35: real time   54.35
 BZINTS: Fermi energy: -0.240140;132.000000 electrons
         Band energy:-394.190366;  BLOECHL correction: -0.140382
       DOS:  cpu time    0.04: real time    0.04
    CHARGE:  cpu time    1.40: real time    1.40
    MIXING:  cpu time    0.02: real time    0.02
    --------------------------------------------
      LOOP:  cpu time   56.31: real time   56.31

 eigenvalue-minimisations  :  1640
 total energy-change (2. order) :-0.1908015E-04  (-0.1129582E-04)
 number of electron     131.9999993 magnetization 
 augmentation part       86.4777102 magnetization 

 Broyden mixing:
  rms(total) = 0.88687E-03    rms(broyden)= 0.88672E-03
  rms(prec ) = 0.94172E-03
  weight for this iteration     100.00

 eigenvalues of (default mixing * dielectric matrix)
  average eigenvalue GAMMA=   0.8165
  0.8165

 Free energy of the ion-electron system (eV)
  ---------------------------------------------------
  alpha Z        PSCENC =       667.73722884
  Ewald energy   TEWEN  =     35983.55174802
  -1/2 Hartree   DENC   =    -51767.56662663
  -exchange  EXHF       =         0.00000000
  -V(xc)+E(xc)   XCENC  =       512.00027103
  PAW double counting   =     13113.45360098   -14848.85294967
  entropy T*S    EENTRO =         0.00000000
  eigenvalues    EBANDS =      -394.19036644
  atomic energy  EATOM  =     16691.65700843
  ---------------------------------------------------
  free energy    TOTEN  =       -42.21008545 eV

  energy without entropy =      -42.21008545  energy(sigma->0) =      -42.21008545


--------------------------------------------------------------------------------------------------------




----------------------------------------- Iteration    2(   3)  ---------------------------------------


    POTLOK:  cpu time    0.44: real time    0.44
    SETDIJ:  cpu time    0.06: real time    0.06
     EDDAV:  cpu time   53.88: real time   53.89
 BZINTS: Fermi energy: -0.240172;132.000000 electrons
         Band energy:-394.191897;  BLOECHL correction: -0.140360
       DOS:  cpu time    0.04: real time    0.04
    CHARGE:  cpu time    1.34: real time    1.34
    MIXING:  cpu time    0.02: real time    0.02
    --------------------------------------------
      LOOP:  cpu time   55.78: real time   55.79

 eigenvalue-minimisations  :  1624
 total energy-change (2. order) : 0.1370439E-04  (-0.1916033E-05)
 number of electron     131.9999993 magnetization 
 augmentation part       86.4775372 magnetization 

 Broyden mixing:
  rms(total) = 0.76057E-03    rms(broyden)= 0.76053E-03
  rms(prec ) = 0.82630E-03
  weight for this iteration     100.00

 eigenvalues of (default mixing * dielectric matrix)
  average eigenvalue GAMMA=   1.3291
  0.3744  2.2838

 Free energy of the ion-electron system (eV)
  ---------------------------------------------------
  alpha Z        PSCENC =       667.73722884
  Ewald energy   TEWEN  =     35983.55174802
  -1/2 Hartree   DENC   =    -51767.55706080
  -exchange  EXHF       =         0.00000000
  -V(xc)+E(xc)   XCENC  =       512.00071530
  PAW double counting   =     13113.51896898   -14848.92678310
  entropy T*S    EENTRO =         0.00000000
  eigenvalues    EBANDS =      -394.19189740
  atomic energy  EATOM  =     16691.65700843
  ---------------------------------------------------
  free energy    TOTEN  =       -42.21007174 eV

  energy without entropy =      -42.21007174  energy(sigma->0) =      -42.21007174


--------------------------------------------------------------------------------------------------------




----------------------------------------- Iteration    2(   4)  ---------------------------------------


    POTLOK:  cpu time    0.44: real time    0.44
    SETDIJ:  cpu time    0.06: real time    0.06
     EDDAV:  cpu time   38.28: real time   38.28
 BZINTS: Fermi energy: -0.239908;132.000000 electrons
         Band energy:-394.148102;  BLOECHL correction: -0.140372
       DOS:  cpu time    0.04: real time    0.04
    CHARGE:  cpu time    1.36: real time    1.36
    MIXING:  cpu time    0.02: real time    0.02
    --------------------------------------------
      LOOP:  cpu time   40.20: real time   40.20

 eigenvalue-minimisations  :  1000
 total energy-change (2. order) :-0.1279136E-04  (-0.2246982E-06)
 number of electron     131.9999993 magnetization 
 augmentation part       86.4770614 magnetization 

 Broyden mixing:
  rms(total) = 0.18466E-03    rms(broyden)= 0.18465E-03
  rms(prec ) = 0.19766E-03
  weight for this iteration     100.00

 eigenvalues of (default mixing * dielectric matrix)
  average eigenvalue GAMMA=   1.2521
  2.6819  0.6842  0.3903

 Free energy of the ion-electron system (eV)
  ---------------------------------------------------
  alpha Z        PSCENC =       667.73722884
  Ewald energy   TEWEN  =     35983.55174802
  -1/2 Hartree   DENC   =    -51767.58760308
  -exchange  EXHF       =         0.00000000
  -V(xc)+E(xc)   XCENC  =       512.00114352
  PAW double counting   =     13113.63927144   -14849.06077955
  entropy T*S    EENTRO =         0.00000000
  eigenvalues    EBANDS =      -394.14810214
  atomic energy  EATOM  =     16691.65700843
  ---------------------------------------------------
  free energy    TOTEN  =       -42.21008453 eV

  energy without entropy =      -42.21008453  energy(sigma->0) =      -42.21008453


--------------------------------------------------------------------------------------------------------




----------------------------------------- Iteration    2(   5)  ---------------------------------------


    POTLOK:  cpu time    0.45: real time    0.45
    SETDIJ:  cpu time    0.06: real time    0.06
     EDDAV:  cpu time   35.65: real time   35.65
 BZINTS: Fermi energy: -0.240028;132.000000 electrons
         Band energy:-394.170881;  BLOECHL correction: -0.140366
       DOS:  cpu time    0.04: real time    0.04
    CHARGE:  cpu time    1.35: real time    1.35
    MIXING:  cpu time    0.02: real time    0.02
    --------------------------------------------
      LOOP:  cpu time   37.57: real time   37.57

 eigenvalue-minimisations  :   896
 total energy-change (2. order) : 0.6651986E-05  (-0.7992843E-07)
 number of electron     131.9999993 magnetization 
 augmentation part       86.4773383 magnetization 

 Broyden mixing:
  rms(total) = 0.87111E-04    rms(broyden)= 0.87105E-04
  rms(prec ) = 0.10071E-03
  weight for this iteration     100.00

 eigenvalues of (default mixing * dielectric matrix)
  average eigenvalue GAMMA=   1.1353
  2.5930  0.3753  0.7863  0.7863

 Free energy of the ion-electron system (eV)
  ---------------------------------------------------
  alpha Z        PSCENC =       667.73722884
  Ewald energy   TEWEN  =     35983.55174802
  -1/2 Hartree   DENC   =    -51767.56892251
  -exchange  EXHF       =         0.00000000
  -V(xc)+E(xc)   XCENC  =       512.00047167
  PAW double counting   =     13113.63524576   -14849.05197755
  entropy T*S    EENTRO =         0.00000000
  eigenvalues    EBANDS =      -394.17088054
  atomic energy  EATOM  =     16691.65700843
  ---------------------------------------------------
  free energy    TOTEN  =       -42.21007788 eV

  energy without entropy =      -42.21007788  energy(sigma->0) =      -42.21007788


--------------------------------------------------------------------------------------------------------




----------------------------------------- Iteration    2(   6)  ---------------------------------------


    POTLOK:  cpu time    0.44: real time    0.44
    SETDIJ:  cpu time    0.06: real time    0.06
     EDDAV:  cpu time   35.46: real time   35.49
 BZINTS: Fermi energy: -0.240006;132.000000 electrons
         Band energy:-394.168679;  BLOECHL correction: -0.140370
       DOS:  cpu time    0.04: real time    0.04
    CHARGE:  cpu time    1.36: real time    1.37
    MIXING:  cpu time    0.02: real time    0.02
    --------------------------------------------
      LOOP:  cpu time   37.39: real time   37.41

 eigenvalue-minimisations  :   888
 total energy-change (2. order) :-0.2098273E-05  (-0.2913981E-07)
 number of electron     131.9999993 magnetization 
 augmentation part       86.4773754 magnetization 

 Broyden mixing:
  rms(total) = 0.83272E-04    rms(broyden)= 0.83269E-04
  rms(prec ) = 0.88934E-04
  weight for this iteration     100.00

 eigenvalues of (default mixing * dielectric matrix)
  average eigenvalue GAMMA=   0.9684
  2.5363  0.8567  0.8567  0.3755  0.2168

 Free energy of the ion-electron system (eV)
  ---------------------------------------------------
  alpha Z        PSCENC =       667.73722884
  Ewald energy   TEWEN  =     35983.55174802
  -1/2 Hartree   DENC   =    -51767.57229803
  -exchange  EXHF       =         0.00000000
  -V(xc)+E(xc)   XCENC  =       512.00037378
  PAW double counting   =     13113.62883024   -14849.04429262
  entropy T*S    EENTRO =         0.00000000
  eigenvalues    EBANDS =      -394.16867863
  atomic energy  EATOM  =     16691.65700843
  ---------------------------------------------------
  free energy    TOTEN  =       -42.21007998 eV

  energy without entropy =      -42.21007998  energy(sigma->0) =      -42.21007998


--------------------------------------------------------------------------------------------------------




----------------------------------------- Iteration    2(   7)  ---------------------------------------


    POTLOK:  cpu time    0.44: real time    0.44
    SETDIJ:  cpu time    0.06: real time    0.06
     EDDAV:  cpu time   33.65: real time   33.66
 BZINTS: Fermi energy: -0.240009;132.000000 electrons
         Band energy:-394.169039;  BLOECHL correction: -0.140369
       DOS:  cpu time    0.04: real time    0.04
    --------------------------------------------
      LOOP:  cpu time   34.20: real time   34.20

 eigenvalue-minimisations  :   816
 total energy-change (2. order) : 0.1275512E-06  (-0.5838852E-08)
 number of electron     131.9999993 magnetization 
 augmentation part       86.4773754 magnetization 

 Free energy of the ion-electron system (eV)
  ---------------------------------------------------
  alpha Z        PSCENC =       667.73722884
  Ewald energy   TEWEN  =     35983.55174802
  -1/2 Hartree   DENC   =    -51767.57232526
  -exchange  EXHF       =         0.00000000
  -V(xc)+E(xc)   XCENC  =       512.00035212
  PAW double counting   =     13113.62640875   -14849.04146164
  entropy T*S    EENTRO =         0.00000000
  eigenvalues    EBANDS =      -394.16903910
  atomic energy  EATOM  =     16691.65700843
  ---------------------------------------------------
  free energy    TOTEN  =       -42.21007985 eV

  energy without entropy =      -42.21007985  energy(sigma->0) =      -42.21007985


--------------------------------------------------------------------------------------------------------




 average (electrostatic) potential at core
  the test charge radii are     1.0053
  (the norm of the test charge is              1.0000)
       1 -43.4666       2 -43.8048       3 -43.8402       4 -43.4666       5 -43.8048
       6 -43.8402       7 -43.8402       8 -43.8048       9 -43.4665      10 -43.8402
      11 -43.8048      12 -43.4665
 
 
 
 E-fermi :  -0.2400     XC(G=0):  -7.5277     alpha+bet : -4.9539


 k-point   1 :       0.0000    0.0000    0.0000
  band No.  band energies     occupation 
      1      -9.0793      2.00000
      2      -8.2626      2.00000
      3      -6.9900      2.00000
      4      -5.6159      2.00000
      5      -4.8822      2.00000
      6      -4.8564      2.00000
      7      -4.8008      2.00000
      8      -4.8008      2.00000
      9      -4.4670      2.00000
     10      -4.4670      2.00000
     11      -4.4076      2.00000
     12      -4.3970      2.00000
     13      -4.3970      2.00000
     14      -4.1858      2.00000
     15      -4.1079      2.00000
     16      -4.1079      2.00000
     17      -3.9114      2.00000
     18      -3.9114      2.00000
     19      -3.8338      2.00000
     20      -3.6233      2.00000
     21      -3.6233      2.00000
     22      -3.4715      2.00000
     23      -3.2302      2.00000
     24      -3.1333      2.00000
     25      -3.0518      2.00000
     26      -3.0518      2.00000
     27      -2.9909      2.00000
     28      -2.9909      2.00000
     29      -2.8199      2.00000
     30      -2.8199      2.00000
     31      -2.6070      2.00000
     32      -2.5995      2.00000
     33      -2.4624      2.00000
     34      -2.4624      2.00000
     35      -2.3808      2.00000
     36      -2.3337      2.00000
     37      -2.3124      2.00000
     38      -2.3124      2.00000
     39      -2.2793      2.00000
     40      -2.2028      2.00000
     41      -2.2028      2.00000
     42      -2.1847      2.00000
     43      -2.0642      2.00000
     44      -2.0642      2.00000
     45      -2.0207      2.00000
     46      -1.9348      2.00000
     47      -1.9348      2.00000
     48      -1.8494      2.00000
     49      -1.7959      2.00000
     50      -1.7959      2.00000
     51      -1.7683      2.00000
     52      -1.7683      2.00000
     53      -1.7528      2.00000
     54      -1.7528      2.00000
     55      -1.6642      2.00000
     56      -1.6642      2.00000
     57      -1.6411      2.00000
     58      -1.6371      2.00000
     59      -1.6328      2.00000
     60      -1.6328      2.00000
     61      -1.6145      2.00000
     62      -1.6145      2.00000
     63      -1.6141      2.00000
     64      -1.2798      2.00000
     65      -1.2797      2.00000
     66      -0.0004      0.00000
     67       1.0815      0.00000
     68       1.9357      0.00000
     69       1.9357      0.00000
     70       3.2181      0.00000
     71       3.2181      0.00000
     72       4.0077      0.00000
     73       4.6058      0.00000
     74       4.9429      0.00000
     75       4.9429      0.00000
     76       6.6027      0.00000
     77       6.9260      0.00000
     78       6.9260      0.00000
     79       7.0310      0.00000
     80       7.0310      0.00000

 k-point   2 :       0.1429    0.0000    0.0000
  band No.  band energies     occupation 
      1      -8.8369      2.00000
      2      -8.0289      2.00000
      3      -6.7739      2.00000
      4      -5.4305      2.00000
      5      -4.7997      2.00000
      6      -4.7339      2.00000
      7      -4.7325      2.00000
      8      -4.6958      2.00000
      9      -4.4334      2.00000
     10      -4.3933      2.00000
     11      -4.3427      2.00000
     12      -4.3371      2.00000
     13      -4.3209      2.00000
     14      -4.1318      2.00000
     15      -4.0965      2.00000
     16      -4.0610      2.00000
     17      -3.8819      2.00000
     18      -3.8375      2.00000
     19      -3.7972      2.00000
     20      -3.6326      2.00000
     21      -3.6028      2.00000
     22      -3.4570      2.00000
     23      -3.2444      2.00000
     24      -3.0768      2.00000
     25      -3.0730      2.00000
     26      -3.0458      2.00000
     27      -3.0194      2.00000
     28      -3.0139      2.00000
     29      -2.8968      2.00000
     30      -2.8768      2.00000
     31      -2.8271      2.00000
     32      -2.5766      2.00000
     33      -2.4747      2.00000
     34      -2.4466      2.00000
     35      -2.4370      2.00000
     36      -2.4157      2.00000
     37      -2.4134      2.00000
     38      -2.3394      2.00000
     39      -2.3070      2.00000
     40      -2.2716      2.00000
     41      -2.2189      2.00000
     42      -2.1974      2.00000
     43      -2.0768      2.00000
     44      -2.0682      2.00000
     45      -2.0541      2.00000
     46      -2.0384      2.00000
     47      -1.9912      2.00000
     48      -1.9635      2.00000
     49      -1.8921      2.00000
     50      -1.8864      2.00000
     51      -1.8651      2.00000
     52      -1.8323      2.00000
     53      -1.7977      2.00000
     54      -1.7964      2.00000
     55      -1.7961      2.00000
     56      -1.7633      2.00000
     57      -1.7402      2.00000
     58      -1.7338      2.00000
     59      -1.7122      2.00000
     60      -1.6937      2.00000
     61      -1.6722      2.00000
     62      -1.6373      2.00000
     63      -1.4387      2.00000
     64      -1.4199      2.00000
     65      -1.0866      2.00000
     66       0.4300     -0.00122
     67       0.6262      0.00000
     68       1.5788      0.00000
     69       1.7407      0.00000
     70       2.4671      0.00000
     71       3.1812      0.00000
     72       3.6552      0.00000
     73       4.2518      0.00000
     74       4.8248      0.00000
     75       4.8442      0.00000
     76       5.3139      0.00000
     77       6.6952      0.00000
     78       6.8355      0.00000
     79       7.1323      0.00000
     80       7.2552      0.00000

 k-point   3 :       0.2857    0.0000    0.0000
  band No.  band energies     occupation 
      1      -8.1272      2.00000
      2      -7.3491      2.00000
      3      -6.1600      2.00000
      4      -4.9620      2.00000
      5      -4.9351      2.00000
      6      -4.5231      2.00000
      7      -4.4164      2.00000
      8      -4.4028      2.00000
      9      -4.3394      2.00000
     10      -4.2104      2.00000
     11      -4.1677      2.00000
     12      -4.1455      2.00000
     13      -4.1098      2.00000
     14      -4.0708      2.00000
     15      -3.9853      2.00000
     16      -3.9714      2.00000
     17      -3.9311      2.00000
     18      -3.7005      2.00000
     19      -3.6611      2.00000
     20      -3.5568      2.00000
     21      -3.5008      2.00000
     22      -3.4592      2.00000
     23      -3.3856      2.00000
     24      -3.2018      2.00000
     25      -3.1525      2.00000
     26      -3.1408      2.00000
     27      -3.0592      2.00000
     28      -2.9398      2.00000
     29      -2.9191      2.00000
     30      -2.9185      2.00000
     31      -2.9148      2.00000
     32      -2.8129      2.00000
     33      -2.7937      2.00000
     34      -2.7234      2.00000
     35      -2.5807      2.00000
     36      -2.5516      2.00000
     37      -2.4932      2.00000
     38      -2.4535      2.00000
     39      -2.4393      2.00000
     40      -2.3753      2.00000
     41      -2.3136      2.00000
     42      -2.2856      2.00000
     43      -2.2048      2.00000
     44      -2.1670      2.00000
     45      -2.1639      2.00000
     46      -2.1187      2.00000
     47      -2.1177      2.00000
     48      -2.1068      2.00000
     49      -2.0965      2.00000
     50      -2.0834      2.00000
     51      -2.0141      2.00000
     52      -1.9769      2.00000
     53      -1.9740      2.00000
     54      -1.9664      2.00000
     55      -1.9123      2.00000
     56      -1.9121      2.00000
     57      -1.8752      2.00000
     58      -1.8727      2.00000
     59      -1.7892      2.00000
     60      -1.7468      2.00000
     61      -1.7022      2.00000
     62      -1.6481      2.00000
     63      -1.6200      2.00000
     64      -1.3516      2.00000
     65      -1.1691      2.00000
     66      -0.2413      0.74281
     67      -0.2340      0.66497
     68       0.9560      0.00000
     69       1.4045      0.00000
     70       2.4549      0.00000
     71       2.7265      0.00000
     72       3.7413      0.00000
     73       4.2905      0.00000
     74       4.7917      0.00000
     75       4.9841      0.00000
     76       5.4762      0.00000
     77       6.3018      0.00000
     78       6.3311      0.00000
     79       7.4879      0.00000
     80       7.5349      0.00000

 k-point   4 :       0.4286    0.0000    0.0000
  band No.  band energies     occupation 
      1      -7.0234      2.00000
      2      -6.3114      2.00000
      3      -5.7642      2.00000
      4      -5.2867      2.00000
      5      -5.1787      2.00000
      6      -4.4783      2.00000
      7      -4.3675      2.00000
      8      -4.1388      2.00000
      9      -4.0997      2.00000
     10      -4.0774      2.00000
     11      -3.9212      2.00000
     12      -3.9211      2.00000
     13      -3.9109      2.00000
     14      -3.8215      2.00000
     15      -3.8147      2.00000
     16      -3.7533      2.00000
     17      -3.7257      2.00000
     18      -3.6565      2.00000
     19      -3.5630      2.00000
     20      -3.5504      2.00000
     21      -3.5334      2.00000
     22      -3.5131      2.00000
     23      -3.4572      2.00000
     24      -3.3930      2.00000
     25      -3.3451      2.00000
     26      -3.3264      2.00000
     27      -3.2637      2.00000
     28      -3.1496      2.00000
     29      -3.0676      2.00000
     30      -2.9891      2.00000
     31      -2.9410      2.00000
     32      -2.8441      2.00000
     33      -2.6788      2.00000
     34      -2.6785      2.00000
     35      -2.6092      2.00000
     36      -2.6054      2.00000
     37      -2.5664      2.00000
     38      -2.5084      2.00000
     39      -2.4701      2.00000
     40      -2.4525      2.00000
     41      -2.4525      2.00000
     42      -2.4127      2.00000
     43      -2.4079      2.00000
     44      -2.4008      2.00000
     45      -2.3994      2.00000
     46      -2.3335      2.00000
     47      -2.2983      2.00000
     48      -2.2884      2.00000
     49      -2.2730      2.00000
     50      -2.2535      2.00000
     51      -2.1662      2.00000
     52      -2.1593      2.00000
     53      -2.1273      2.00000
     54      -2.1239      2.00000
     55      -2.1127      2.00000
     56      -2.0721      2.00000
     57      -2.0542      2.00000
     58      -1.9161      2.00000
     59      -1.8360      2.00000
     60      -1.8160      2.00000
     61      -1.8146      2.00000
     62      -1.6616      2.00000
     63      -1.6592      2.00000
     64      -1.4145      2.00000
     65      -1.4080      2.00000
     66      -0.6076      2.12070
     67      -0.6028      2.07561
     68       0.6119      0.00000
     69       0.8617      0.00000
     70       2.3399      0.00000
     71       2.7041      0.00000
     72       4.2215      0.00000
     73       4.3266      0.00000
     74       5.4258      0.00000
     75       6.0038      0.00000
     76       6.1981      0.00000
     77       6.3842      0.00000
     78       6.5490      0.00000
     79       7.3980      0.00000
     80       7.8689      0.00000

 k-point   5 :       0.1429    0.1429    0.0000
  band No.  band energies     occupation 
      1      -8.5982      2.00000
      2      -7.8012      2.00000
      3      -6.5703      2.00000
      4      -5.2704      2.00000
      5      -4.6881      2.00000
      6      -4.6881      2.00000
      7      -4.6233      2.00000
      8      -4.6076      2.00000
      9      -4.3691      2.00000
     10      -4.3691      2.00000
     11      -4.2828      2.00000
     12      -4.2555      2.00000
     13      -4.2555      2.00000
     14      -4.0891      2.00000
     15      -4.0891      2.00000
     16      -4.0739      2.00000
     17      -3.8107      2.00000
     18      -3.8107      2.00000
     19      -3.7484      2.00000
     20      -3.6056      2.00000
     21      -3.6056      2.00000
     22      -3.4315      2.00000
     23      -3.2577      2.00000
     24      -3.0625      2.00000
     25      -3.0625      2.00000
     26      -3.0343      2.00000
     27      -3.0249      2.00000
     28      -2.9951      2.00000
     29      -2.9707      2.00000
     30      -2.9419      2.00000
     31      -2.8374      2.00000
     32      -2.6933      2.00000
     33      -2.5976      2.00000
     34      -2.5245      2.00000
     35      -2.5245      2.00000
     36      -2.3886      2.00000
     37      -2.3878      2.00000
     38      -2.3872      2.00000
     39      -2.3024      2.00000
     40      -2.2839      2.00000
     41      -2.2839      2.00000
     42      -2.2585      2.00000
     43      -2.2215      2.00000
     44      -2.1880      2.00000
     45      -2.0997      2.00000
     46      -2.0997      2.00000
     47      -2.0583      2.00000
     48      -2.0085      2.00000
     49      -1.9481      2.00000
     50      -1.9481      2.00000
     51      -1.9320      2.00000
     52      -1.9320      2.00000
     53      -1.8861      2.00000
     54      -1.8384      2.00000
     55      -1.7989      2.00000
     56      -1.7989      2.00000
     57      -1.7574      2.00000
     58      -1.7491      2.00000
     59      -1.7406      2.00000
     60      -1.7406      2.00000
     61      -1.6583      2.00000
     62      -1.6230      2.00000
     63      -1.5315      2.00000
     64      -1.5314      2.00000
     65      -0.8051      2.01834
     66       0.7795     -0.00139
     67       1.1073      0.00000
     68       1.1073      0.00000
     69       2.0040      0.00000
     70       2.0965      0.00000
     71       2.0966      0.00000
     72       3.4319      0.00000
     73       3.4319      0.00000
     74       4.4960      0.00000
     75       5.0420      0.00000
     76       5.1555      0.00000
     77       5.1555      0.00000
     78       7.0335      0.00000
     79       7.0335      0.00000
     80       7.0684      0.00000

 k-point   6 :       0.2857    0.1429    0.0000
  band No.  band energies     occupation 
      1      -7.9009      2.00000
      2      -7.1428      2.00000
      3      -6.0024      2.00000
      4      -4.8692      2.00000
      5      -4.8352      2.00000
      6      -4.4780      2.00000
      7      -4.3904      2.00000
      8      -4.3395      2.00000
      9      -4.3039      2.00000
     10      -4.2274      2.00000
     11      -4.1843      2.00000
     12      -4.1471      2.00000
     13      -4.1054      2.00000
     14      -4.0796      2.00000
     15      -4.0097      2.00000
     16      -3.8953      2.00000
     17      -3.7650      2.00000
     18      -3.6632      2.00000
     19      -3.5970      2.00000
     20      -3.4946      2.00000
     21      -3.4499      2.00000
     22      -3.3935      2.00000
     23      -3.3715      2.00000
     24      -3.1429      2.00000
     25      -3.1423      2.00000
     26      -3.1298      2.00000
     27      -3.0595      2.00000
     28      -2.9599      2.00000
     29      -2.9223      2.00000
     30      -2.9200      2.00000
     31      -2.9167      2.00000
     32      -2.9017      2.00000
     33      -2.8576      2.00000
     34      -2.7792      2.00000
     35      -2.6788      2.00000
     36      -2.5665      2.00000
     37      -2.5573      2.00000
     38      -2.5061      2.00000
     39      -2.4686      2.00000
     40      -2.4527      2.00000
     41      -2.3657      2.00000
     42      -2.3388      2.00000
     43      -2.3316      2.00000
     44      -2.2792      2.00000
     45      -2.2533      2.00000
     46      -2.2312      2.00000
     47      -2.1944      2.00000
     48      -2.1795      2.00000
     49      -2.1385      2.00000
     50      -2.1370      2.00000
     51      -2.0513      2.00000
     52      -1.9962      2.00000
     53      -1.9551      2.00000
     54      -1.9175      2.00000
     55      -1.8486      2.00000
     56      -1.8464      2.00000
     57      -1.8150      2.00000
     58      -1.8107      2.00000
     59      -1.8019      2.00000
     60      -1.7021      2.00000
     61      -1.6640      2.00000
     62      -1.6639      2.00000
     63      -1.6621      2.00000
     64      -1.3535      2.00000
     65      -0.7105      2.00515
     66      -0.0784      0.28070
     67       0.0369      0.07332
     68       1.1340      0.00000
     69       1.6580      0.00000
     70       2.1627      0.00000
     71       2.5323      0.00000
     72       2.9319      0.00000
     73       3.0553      0.00000
     74       4.4633      0.00000
     75       4.5851      0.00000
     76       5.2279      0.00000
     77       5.6831      0.00000
     78       6.0779      0.00000
     79       6.5692      0.00000
     80       7.2088      0.00000

 k-point   7 :       0.4286    0.1429    0.0000
  band No.  band energies     occupation 
      1      -6.8222      2.00000
      2      -6.1527      2.00000
      3      -5.6047      2.00000
      4      -5.2357      2.00000
      5      -5.1040      2.00000
      6      -4.5768      2.00000
      7      -4.4605      2.00000
      8      -4.2411      2.00000
      9      -4.0696      2.00000
     10      -4.0410      2.00000
     11      -3.9982      2.00000
     12      -3.9976      2.00000
     13      -3.8518      2.00000
     14      -3.8485      2.00000
     15      -3.7472      2.00000
     16      -3.6943      2.00000
     17      -3.6049      2.00000
     18      -3.6042      2.00000
     19      -3.5329      2.00000
     20      -3.4544      2.00000
     21      -3.3776      2.00000
     22      -3.3722      2.00000
     23      -3.3614      2.00000
     24      -3.3566      2.00000
     25      -3.3433      2.00000
     26      -3.2784      2.00000
     27      -3.2100      2.00000
     28      -3.0640      2.00000
     29      -3.0452      2.00000
     30      -2.9817      2.00000
     31      -2.9702      2.00000
     32      -2.9201      2.00000
     33      -2.7767      2.00000
     34      -2.7677      2.00000
     35      -2.6819      2.00000
     36      -2.6665      2.00000
     37      -2.6419      2.00000
     38      -2.6334      2.00000
     39      -2.5855      2.00000
     40      -2.5437      2.00000
     41      -2.5393      2.00000
     42      -2.5337      2.00000
     43      -2.4926      2.00000
     44      -2.3989      2.00000
     45      -2.3865      2.00000
     46      -2.3787      2.00000
     47      -2.3024      2.00000
     48      -2.1770      2.00000
     49      -2.1738      2.00000
     50      -2.1084      2.00000
     51      -2.1023      2.00000
     52      -2.0891      2.00000
     53      -2.0332      2.00000
     54      -2.0063      2.00000
     55      -1.9435      2.00000
     56      -1.9298      2.00000
     57      -1.9159      2.00000
     58      -1.9017      2.00000
     59      -1.7993      2.00000
     60      -1.7749      2.00000
     61      -1.7414      2.00000
     62      -1.7118      2.00000
     63      -1.6477      2.00000
     64      -1.4414      2.00000
     65      -1.3210      2.03616
     66      -0.5846      2.05122
     67      -0.5550      1.94412
     68       0.6785      0.00000
     69       0.9792      0.00000
     70       2.3854      0.00000
     71       2.8768      0.00000
     72       3.4566      0.00000
     73       4.4627      0.00000
     74       4.4910      0.00000
     75       4.5640      0.00000
     76       5.2430      0.00000
     77       5.8306      0.00000
     78       6.1321      0.00000
     79       6.2544      0.00000
     80       6.4410      0.00000

 k-point   8 :       0.2857    0.2857    0.0000
  band No.  band energies     occupation 
      1      -7.2460      2.00000
      2      -6.5609      2.00000
      3      -5.5983      2.00000
      4      -4.7403      2.00000
      5      -4.5656      2.00000
      6      -4.5656      2.00000
      7      -4.4736      2.00000
      8      -4.4736      2.00000
      9      -4.2427      2.00000
     10      -4.2076      2.00000
     11      -4.2076      2.00000
     12      -4.1676      2.00000
     13      -3.9652      2.00000
     14      -3.8351      2.00000
     15      -3.8351      2.00000
     16      -3.6778      2.00000
     17      -3.6058      2.00000
     18      -3.6058      2.00000
     19      -3.4015      2.00000
     20      -3.3030      2.00000
     21      -3.3029      2.00000
     22      -3.2930      2.00000
     23      -3.2241      2.00000
     24      -3.1287      2.00000
     25      -3.1287      2.00000
     26      -3.1153      2.00000
     27      -3.1026      2.00000
     28      -3.0503      2.00000
     29      -3.0503      2.00000
     30      -3.0066      2.00000
     31      -2.9409      2.00000
     32      -2.9293      2.00000
     33      -2.8682      2.00000
     34      -2.8606      2.00000
     35      -2.7599      2.00000
     36      -2.6775      2.00000
     37      -2.6590      2.00000
     38      -2.6590      2.00000
     39      -2.6311      2.00000
     40      -2.6295      2.00000
     41      -2.5404      2.00000
     42      -2.5403      2.00000
     43      -2.4332      2.00000
     44      -2.4175      2.00000
     45      -2.4175      2.00000
     46      -2.3453      2.00000
     47      -2.0990      2.00000
     48      -2.0990      2.00000
     49      -2.0955      2.00000
     50      -2.0878      2.00000
     51      -2.0621      2.00000
     52      -1.9889      2.00000
     53      -1.9839      2.00000
     54      -1.9360      2.00000
     55      -1.9360      2.00000
     56      -1.8322      2.00000
     57      -1.7707      2.00000
     58      -1.7707      2.00000
     59      -1.7592      2.00000
     60      -1.7032      2.00000
     61      -1.6814      2.00000
     62      -1.6813      2.00000
     63      -1.6679      2.00000
     64      -1.1812      2.00000
     65       0.1477      0.88403
     66       0.1477     -0.05704
     67       0.4304     -0.31575
     68       0.6856     -0.00251
     69       0.6856      0.00000
     70       1.4574      0.00000
     71       1.4575      0.00000
     72       2.3307      0.00000
     73       3.7262      0.00000
     74       3.7262      0.00000
     75       3.9072      0.00000
     76       4.8309      0.00000
     77       5.4701      0.00000
     78       5.4701      0.00000
     79       5.7513      0.00000
     80       5.9583      0.00000

 k-point   9 :       0.4286    0.2857    0.0000
  band No.  band energies     occupation 
      1      -6.2587      2.00000
      2      -5.7443      2.00000
      3      -5.2026      2.00000
      4      -5.1339      2.00000
      5      -4.9819      2.00000
      6      -4.7527      2.00000
      7      -4.6178      2.00000
      8      -4.4945      2.00000
      9      -4.1832      2.00000
     10      -4.1701      2.00000
     11      -4.0242      2.00000
     12      -3.9798      2.00000
     13      -3.8060      2.00000
     14      -3.6881      2.00000
     15      -3.5648      2.00000
     16      -3.5305      2.00000
     17      -3.5104      2.00000
     18      -3.4822      2.00000
     19      -3.4790      2.00000
     20      -3.2520      2.00000
     21      -3.2467      2.00000
     22      -3.2235      2.00000
     23      -3.1980      2.00000
     24      -3.1952      2.00000
     25      -3.0977      2.00000
     26      -3.0779      2.00000
     27      -3.0649      2.00000
     28      -3.0577      2.00000
     29      -3.0514      2.00000
     30      -3.0055      2.00000
     31      -2.9852      2.00000
     32      -2.9828      2.00000
     33      -2.8751      2.00000
     34      -2.8530      2.00000
     35      -2.8346      2.00000
     36      -2.7666      2.00000
     37      -2.7329      2.00000
     38      -2.7307      2.00000
     39      -2.7012      2.00000
     40      -2.6217      2.00000
     41      -2.5061      2.00000
     42      -2.4871      2.00000
     43      -2.4536      2.00000
     44      -2.4522      2.00000
     45      -2.4319      2.00000
     46      -2.3096      2.00000
     47      -2.2818      2.00000
     48      -2.1187      2.00000
     49      -2.0654      2.00000
     50      -2.0218      2.00000
     51      -1.9880      2.00000
     52      -1.9615      2.00000
     53      -1.8834      2.00000
     54      -1.8483      2.00000
     55      -1.8424      2.00000
     56      -1.8344      2.00000
     57      -1.8126      2.00000
     58      -1.8038      2.00000
     59      -1.7672      2.00000
     60      -1.7452      2.00000
     61      -1.7395      2.00000
     62      -1.6897      2.00000
     63      -1.5337      2.00000
     64      -1.1496      2.00000
     65      -0.9461      2.05129
     66      -0.4967      1.93264
     67      -0.3850      1.68539
     68       0.6738     -0.07839
     69       1.2138      0.00000
     70       1.2629      0.00000
     71       1.4558      0.00000
     72       2.5274      0.00000
     73       3.5145      0.00000
     74       3.5263      0.00000
     75       3.7436      0.00000
     76       3.8209      0.00000
     77       5.0520      0.00000
     78       5.1884      0.00000
     79       5.3391      0.00000
     80       5.3498      0.00000

 k-point  10 :       0.4286    0.4286    0.0000
  band No.  band energies     occupation 
      1      -5.4871      2.00000
      2      -5.2860      2.00000
      3      -5.0330      2.00000
      4      -4.9843      2.00000
      5      -4.9843      2.00000
      6      -4.7978      2.00000
      7      -4.7977      2.00000
      8      -4.7121      2.00000
      9      -4.3012      2.00000
     10      -4.2525      2.00000
     11      -4.2525      2.00000
     12      -4.1203      2.00000
     13      -3.5552      2.00000
     14      -3.4346      2.00000
     15      -3.4346      2.00000
     16      -3.3645      2.00000
     17      -3.3571      2.00000
     18      -3.3457      2.00000
     19      -3.3457      2.00000
     20      -3.2564      2.00000
     21      -3.2564      2.00000
     22      -3.2306      2.00000
     23      -3.1816      2.00000
     24      -3.1696      2.00000
     25      -3.1014      2.00000
     26      -3.1014      2.00000
     27      -3.0583      2.00000
     28      -3.0518      2.00000
     29      -2.9721      2.00000
     30      -2.9291      2.00000
     31      -2.9287      2.00000
     32      -2.9287      2.00000
     33      -2.8569      2.00000
     34      -2.8569      2.00000
     35      -2.8484      2.00000
     36      -2.8215      2.00000
     37      -2.7015      2.00000
     38      -2.6970      2.00000
     39      -2.6708      2.00000
     40      -2.6708      2.00000
     41      -2.5166      2.00000
     42      -2.4624      2.00000
     43      -2.4497      2.00000
     44      -2.4497      2.00000
     45      -2.1500      2.00000
     46      -2.0975      2.00000
     47      -2.0975      2.00000
     48      -2.0936      2.00000
     49      -2.0035      2.00000
     50      -2.0008      2.00000
     51      -2.0008      2.00000
     52      -1.8854      2.00000
     53      -1.8392      2.00000
     54      -1.7966      2.00000
     55      -1.7966      2.00000
     56      -1.7791      2.00000
     57      -1.7539      2.00000
     58      -1.7538      2.00000
     59      -1.7524      2.00000
     60      -1.7054      2.00000
     61      -1.4863      2.00000
     62      -1.3399      2.00000
     63      -1.2046      2.00000
     64      -0.4484      2.00000
     65      -0.4484      1.96009
     66      -0.3227      1.89577
     67      -0.3226      1.84179
     68      -0.2636      0.71062
     69       0.0046      0.00000
     70       0.0046      0.00000
     71       0.7741      0.00000
     72       0.8677      0.00000
     73       3.1058      0.00000
     74       3.1058      0.00000
     75       3.1830      0.00000
     76       3.2120      0.00000
     77       4.7492      0.00000
     78       4.7927      0.00000
     79       4.7928      0.00000
     80       4.9742      0.00000


--------------------------------------------------------------------------------------------------------


 soft charge-density along one line, spin component           1
         0         1         2         3         4         5         6         7         8         9
 total charge-density along one line
 
 pseudopotential strength for first ion, spin component:           1
 -9.057   0.000   0.000   0.000   0.000   0.925   0.000   0.000
  0.000  -9.031   0.000   0.000   0.000   0.000   0.912   0.000
  0.000   0.000  -9.015   0.000   0.000   0.000   0.000   0.905
  0.000   0.000   0.000  -9.031   0.000   0.000   0.000   0.000
  0.000   0.000   0.000   0.000  -9.033   0.000   0.000   0.000
  0.925   0.000   0.000   0.000   0.000   1.150   0.000   0.000
  0.000   0.912   0.000   0.000   0.000   0.000   1.156   0.000
  0.000   0.000   0.905   0.000   0.000   0.000   0.000   1.159
  0.000   0.000   0.000   0.912   0.000   0.000   0.000   0.000
  0.000   0.000   0.000   0.000   0.915   0.000   0.000   0.000
  0.000   0.000  -0.005   0.000   0.000   0.000   0.000   0.002
  0.000   0.000   0.000   0.000   0.000   0.000   0.000   0.000
  0.000  -0.014   0.000   0.000   0.000   0.000   0.007   0.000
  0.000   0.000  -0.015   0.000   0.000   0.000   0.000   0.008
  0.000   0.000   0.000  -0.014   0.000   0.000   0.000   0.000
  0.000   0.007   0.000   0.000   0.000   0.000  -0.004   0.000
  0.000   0.000   0.009   0.000   0.000   0.000   0.000  -0.004
  0.000   0.000   0.000   0.007   0.000   0.000   0.000   0.000
 total augmentation occupancy for first ion, spin component:           1
  1.916   0.000   0.000   0.000   0.000   0.003   0.000   0.000   0.000   0.000   0.000   0.000   0.000   0.000   0.000   0.000
  0.000   1.919   0.000   0.000   0.000   0.000  -0.037   0.000   0.000   0.000   0.000   0.000   0.012   0.000   0.000  -0.008
  0.000   0.000   1.931   0.000   0.000   0.000   0.000  -0.059   0.000   0.000   0.018   0.031   0.000   0.015   0.000   0.000
  0.000   0.000   0.000   1.919   0.000   0.000   0.000   0.000  -0.037   0.000   0.000   0.000   0.000   0.000   0.012   0.000
  0.000   0.000   0.000   0.000   1.919   0.000   0.000   0.000   0.000  -0.055   0.000   0.000   0.000   0.000   0.000   0.000
  0.003   0.000   0.000   0.000   0.000   0.057   0.000   0.000   0.000   0.000   0.000   0.000   0.000   0.000   0.000   0.000
  0.000  -0.037   0.000   0.000   0.000   0.000   0.044   0.000   0.000   0.000   0.000   0.000   0.041   0.000   0.000  -0.003
  0.000   0.000  -0.059   0.000   0.000   0.000   0.000   0.049   0.000   0.000  -0.062   0.008   0.000   0.037   0.000   0.000
  0.000   0.000   0.000  -0.037   0.000   0.000   0.000   0.000   0.044   0.000   0.000   0.000   0.000   0.000   0.041   0.000
  0.000   0.000   0.000   0.000  -0.055   0.000   0.000   0.000   0.000   0.053   0.000   0.000   0.000   0.000   0.000   0.000
  0.000   0.000   0.018   0.000   0.000   0.000   0.000  -0.062   0.000   0.000   1.217  -0.270   0.000   0.088   0.000   0.000
  0.000   0.000   0.031   0.000   0.000   0.000   0.000   0.008   0.000   0.000  -0.270   0.104   0.000  -0.051   0.000   0.000
  0.000   0.012   0.000   0.000   0.000   0.000   0.041   0.000   0.000   0.000   0.000   0.000   0.146   0.000   0.000  -0.009
  0.000   0.000   0.015   0.000   0.000   0.000   0.000   0.037   0.000   0.000   0.088  -0.051   0.000   0.085   0.000   0.000
  0.000   0.000   0.000   0.012   0.000   0.000   0.000   0.000   0.041   0.000   0.000   0.000   0.000   0.000   0.146   0.000
  0.000  -0.008   0.000   0.000   0.000   0.000  -0.003   0.000   0.000   0.000   0.000   0.000  -0.009   0.000   0.000   0.001
  0.000   0.000  -0.009   0.000   0.000   0.000   0.000  -0.002   0.000   0.000  -0.016   0.006   0.000  -0.007   0.000   0.000
  0.000   0.000   0.000  -0.008   0.000   0.000   0.000   0.000  -0.003   0.000   0.000   0.000   0.000   0.000  -0.009   0.000


------------------------ aborting loop because EDIFF is reached ----------------------------------------


    CHARGE:  cpu time    1.32: real time    1.32
    FORLOC:  cpu time    0.04: real time    0.05
    FORNL :  cpu time   23.01: real time   23.00
    STRESS:  cpu time   62.62: real time   62.63
    FORCOR:  cpu time    0.47: real time    0.47
    FORHAR:  cpu time    0.16: real time    0.15
    MIXING:  cpu time    0.02: real time    0.02

  FORCE on cell =-STRESS in cart. coord.  units (eV):
  Direction    XX          YY          ZZ          XY          YZ          ZX
  --------------------------------------------------------------------------------------
  Alpha Z   667.73723   667.73723   667.73723
  Ewald   44643.84755 44643.84755-53304.16729     0.00000     0.00000     0.00000
  Hartree 49223.26915 49223.26915-46678.95373     0.00000     0.00000     0.00000
  E(xc)    -750.64592  -750.64592  -751.60879     0.00000     0.00000     0.00000
  Local  -94956.41160-94956.41160 98892.05429     0.00000     0.00000     0.00000
  n-local  -439.53986  -451.82231  -446.72409     3.84526     0.00000     0.00000
  augment   674.75334   674.75335   676.20473    -0.00001    -0.00003    -0.00001
  Kinetic   954.25350   926.17139   943.87926    -3.66011     0.00000     0.00000
  Fock        0.00000     0.00000     0.00000     0.00000     0.00000     0.00000
  -------------------------------------------------------------------------------------
  Total      -2.91888    -2.91888    -1.57840     0.00000     0.00000     0.00000
  in kB     -16.97332   -16.97332    -9.17839     0.00000     0.00000     0.00000
  external pressure =      -14.38 kB  Pullay stress =        0.00 kB


 VOLUME and BASIS-vectors are now :
 -----------------------------------------------------------------------------
  energy-cutoff  :      415.00
  volume of cell :      275.52
      direct lattice vectors                 reciprocal lattice vectors
     3.631354857  0.000000000  0.000000000     0.275379311  0.000000000  0.000000000
     0.000000000  3.631354857  0.000000000     0.000000000  0.275379311  0.000000000
     0.000000000  0.000000000 20.894064570     0.000000000  0.000000000  0.047860482

  length of vectors
     3.631354857  3.631354857 20.894064570     0.275379311  0.275379311  0.047860482


 FORCES acting on ions
    electron-ion (+dipol)            ewald-force                    non-local-force                 convergence-correction
 -----------------------------------------------------------------------------------------------
   -.783E-13 -.317E-13 0.391E+04   -.101E-13 0.157E-13 -.391E+04   0.103E-24 -.155E-24 -.267E+01   0.350E-13 0.112E-12 -.211E-02
   -.400E-13 -.126E-13 0.795E+03   -.169E-13 0.166E-14 -.795E+03   -.207E-24 -.517E-24 0.363E-01   0.168E-13 0.330E-13 -.998E-04
   -.677E-13 0.315E-13 -.239E+04   0.599E-14 0.335E-14 0.238E+04   0.155E-24 -.207E-24 0.773E+00   0.323E-14 0.271E-13 -.143E-02
   0.562E-12 0.144E-12 0.391E+04   -.288E-13 -.202E-14 -.391E+04   0.000E+00 -.258E-25 -.267E+01   0.442E-13 0.762E-13 -.211E-02
   0.660E-12 -.144E-11 0.795E+03   -.394E-13 -.179E-13 -.795E+03   -.207E-24 0.310E-24 0.363E-01   0.456E-13 0.536E-14 -.998E-04
   0.614E-12 0.780E-12 -.239E+04   -.129E-13 -.143E-13 0.238E+04   0.103E-24 0.207E-24 0.773E+00   0.949E-13 0.256E-14 -.143E-02
   0.572E-12 -.746E-13 0.239E+04   0.345E-13 0.564E-14 -.238E+04   -.103E-24 0.000E+00 -.773E+00   0.603E-13 0.569E-13 0.145E-02
   0.603E-12 -.124E-13 -.795E+03   -.195E-13 0.113E-13 0.795E+03   0.181E-24 -.388E-24 -.363E-01   0.485E-13 -.304E-13 0.102E-03
   0.606E-12 0.809E-14 -.391E+04   0.302E-14 0.127E-13 0.391E+04   0.000E+00 0.000E+00 0.267E+01   0.114E-12 0.303E-14 0.212E-02
   -.496E-13 0.706E-12 0.239E+04   0.151E-13 -.985E-14 -.238E+04   0.155E-24 -.362E-24 -.773E+00   0.517E-13 0.659E-13 0.145E-02
   -.492E-13 0.683E-12 -.795E+03   -.338E-13 -.440E-14 0.795E+03   0.207E-24 0.517E-24 -.363E-01   -.310E-13 -.958E-16 0.102E-03
   -.629E-13 0.526E-12 -.391E+04   -.642E-14 -.313E-14 0.391E+04   -.155E-24 0.155E-24 0.267E+01   0.928E-13 0.735E-14 0.212E-02
 -----------------------------------------------------------------------------------------------
   0.327E-11 0.131E-11 0.172E-02   -.109E-12 -.129E-14 -.909E-12   0.233E-24 -.465E-24 -.444E-15   0.576E-12 0.359E-12 0.647E-04
 
 
 POSITION                                       TOTAL-FORCE (eV/Angst)
 -----------------------------------------------------------------------------------
      0.00000      0.00000      0.00076         0.000000      0.000000      0.152392
      0.00000      0.00000      3.63154         0.000000      0.000000      0.034754
      0.00000      0.00000      7.26357         0.000000      0.000000      0.170353
      1.81568      1.81568      0.00076         0.000000      0.000000      0.152392
      1.81568      1.81568      3.63154         0.000000      0.000000      0.034754
      1.81568      1.81568      7.26357         0.000000      0.000000      0.170353
      1.81568      0.00000      1.81481         0.000000      0.000000     -0.170353
      1.81568      0.00000      5.44684         0.000000      0.000000     -0.034754
      1.81568      0.00000      9.07763         0.000000      0.000000     -0.152392
      0.00000      1.81568      1.81481         0.000000      0.000000     -0.170353
      0.00000      1.81568      5.44684         0.000000      0.000000     -0.034754
      0.00000      1.81568      9.07763         0.000000      0.000000     -0.152392
 -----------------------------------------------------------------------------------
    total drift:                                0.000000      0.000000      0.001787


--------------------------------------------------------------------------------------------------------



  FREE ENERGIE OF THE ION-ELECTRON SYSTEM (eV)
  ---------------------------------------------------
  free  energy   TOTEN  =       -42.210080 eV

  energy  without entropy=      -42.210080  energy(sigma->0) =      -42.210080
 
 d Force = 0.1105988E-02[ 0.108E-02, 0.113E-02]  d Energy = 0.1084849E-02 0.211E-04
 d Force =-0.4264646E+01[-0.427E+01,-0.426E+01]  d Ewald  =-0.4264647E+01 0.334E-06


--------------------------------------------------------------------------------------------------------


    POTLOK:  cpu time    0.50: real time    0.50


--------------------------------------------------------------------------------------------------------


 Steepest descent step on ions:
 trial-energy change:   -0.001085  1 .order   -0.001106   -0.001132   -0.001080
  (g-gl).g = 0.113E-02      g.g   = 0.113E-02  gl.gl    = 0.000E+00
 g(Force)  = 0.113E-02   g(Stress)= 0.000E+00 ortho     = 0.000E+00
 gamma     =   0.00000
 trial     =   1.00000
 opt step  =   4.00000  (harmonic =  22.02525) maximal distance =0.00346040
 next E    =   -42.221458   (d E  =  -0.01246)


--------------------------------------------------------------------------------------------------------


    WAVPRE:  cpu time    0.11: real time    0.11
    FEWALD:  cpu time    0.00: real time    0.00
    ORTHCH:  cpu time    7.70: real time    7.70
     LOOP+:  cpu time  412.68: real time  412.73


----------------------------------------- Iteration    3(   1)  ---------------------------------------


    POTLOK:  cpu time    0.44: real time    0.44
    SETDIJ:  cpu time    0.06: real time    0.06
     EDDAV:  cpu time   53.44: real time   53.44
 BZINTS: Fermi energy: -0.239682;132.000000 electrons
         Band energy:-394.282188;  BLOECHL correction: -0.140318
       DOS:  cpu time    0.04: real time    0.04
    CHARGE:  cpu time    1.33: real time    1.33
    MIXING:  cpu time    0.02: real time    0.01
    --------------------------------------------
      LOOP:  cpu time   55.34: real time   55.34

 eigenvalue-minimisations  :  1600
 total energy-change (2. order) :-0.2855668E-02  (-0.2599244E-01)
 number of electron     131.9999956 magnetization 
 augmentation part       86.4744078 magnetization 

 Broyden mixing:
  rms(total) = 0.34302E-02    rms(broyden)= 0.34276E-02
  rms(prec ) = 0.36098E-02
  weight for this iteration     100.00

 Free energy of the ion-electron system (eV)
  ---------------------------------------------------
  alpha Z        PSCENC =       667.73722884
  Ewald energy   TEWEN  =     35996.36340233
  -1/2 Hartree   DENC   =    -51780.28916501
  -exchange  EXHF       =         0.00000000
  -V(xc)+E(xc)   XCENC  =       512.01466310
  PAW double counting   =     13113.62138935   -14849.03527508
  entropy T*S    EENTRO =         0.00000000
  eigenvalues    EBANDS =      -394.28218760
  atomic energy  EATOM  =     16691.65700843
  ---------------------------------------------------
  free energy    TOTEN  =       -42.21293565 eV

  energy without entropy =      -42.21293565  energy(sigma->0) =      -42.21293565


--------------------------------------------------------------------------------------------------------




----------------------------------------- Iteration    3(   2)  ---------------------------------------


    POTLOK:  cpu time    0.44: real time    0.44
    SETDIJ:  cpu time    0.06: real time    0.06
     EDDAV:  cpu time   54.04: real time   54.04
 BZINTS: Fermi energy: -0.239660;132.000000 electrons
         Band energy:-394.309227;  BLOECHL correction: -0.140381
       DOS:  cpu time    0.04: real time    0.04
    CHARGE:  cpu time    1.35: real time    1.35
    MIXING:  cpu time    0.02: real time    0.02
    --------------------------------------------
      LOOP:  cpu time   55.95: real time   55.96

 eigenvalue-minimisations  :  1632
 total energy-change (2. order) :-0.1123205E-03  (-0.1014650E-03)
 number of electron     131.9999956 magnetization 
 augmentation part       86.4768941 magnetization 

 Broyden mixing:
  rms(total) = 0.26524E-02    rms(broyden)= 0.26520E-02
  rms(prec ) = 0.28178E-02
  weight for this iteration     100.00

 eigenvalues of (default mixing * dielectric matrix)
  average eigenvalue GAMMA=   0.8249
  0.8249

 Free energy of the ion-electron system (eV)
  ---------------------------------------------------
  alpha Z        PSCENC =       667.73722884
  Ewald energy   TEWEN  =     35996.36340233
  -1/2 Hartree   DENC   =    -51780.27966462
  -exchange  EXHF       =         0.00000000
  -V(xc)+E(xc)   XCENC  =       512.00983378
  PAW double counting   =     13113.79521345   -14849.18684350
  entropy T*S    EENTRO =         0.00000000
  eigenvalues    EBANDS =      -394.30922667
  atomic energy  EATOM  =     16691.65700843
  ---------------------------------------------------
  free energy    TOTEN  =       -42.21304797 eV

  energy without entropy =      -42.21304797  energy(sigma->0) =      -42.21304797


--------------------------------------------------------------------------------------------------------




----------------------------------------- Iteration    3(   3)  ---------------------------------------


    POTLOK:  cpu time    0.44: real time    0.44
    SETDIJ:  cpu time    0.06: real time    0.06
     EDDAV:  cpu time   53.98: real time   53.99
 BZINTS: Fermi energy: -0.239774;132.000000 electrons
         Band energy:-394.316001;  BLOECHL correction: -0.140314
       DOS:  cpu time    0.04: real time    0.04
    CHARGE:  cpu time    1.32: real time    1.32
    MIXING:  cpu time    0.02: real time    0.02
    --------------------------------------------
      LOOP:  cpu time   55.87: real time   55.87

 eigenvalue-minimisations  :  1632
 total energy-change (2. order) : 0.3805701E-04  (-0.1725363E-04)
 number of electron     131.9999956 magnetization 
 augmentation part       86.4764006 magnetization 

 Broyden mixing:
  rms(total) = 0.22913E-02    rms(broyden)= 0.22912E-02
  rms(prec ) = 0.24919E-02
  weight for this iteration     100.00

 eigenvalues of (default mixing * dielectric matrix)
  average eigenvalue GAMMA=   1.3372
  0.3742  2.3001

 Free energy of the ion-electron system (eV)
  ---------------------------------------------------
  alpha Z        PSCENC =       667.73722884
  Ewald energy   TEWEN  =     35996.36340233
  -1/2 Hartree   DENC   =    -51780.24907097
  -exchange  EXHF       =         0.00000000
  -V(xc)+E(xc)   XCENC  =       512.01113305
  PAW double counting   =     13113.99492480   -14849.41163500
  entropy T*S    EENTRO =         0.00000000
  eigenvalues    EBANDS =      -394.31600139
  atomic energy  EATOM  =     16691.65700843
  ---------------------------------------------------
  free energy    TOTEN  =       -42.21300991 eV

  energy without entropy =      -42.21300991  energy(sigma->0) =      -42.21300991


--------------------------------------------------------------------------------------------------------




----------------------------------------- Iteration    3(   4)  ---------------------------------------


    POTLOK:  cpu time    0.44: real time    0.44
    SETDIJ:  cpu time    0.06: real time    0.06
     EDDAV:  cpu time   57.74: real time   57.75
 BZINTS: Fermi energy: -0.238964;132.000000 electrons
         Band energy:-394.182737;  BLOECHL correction: -0.140352
       DOS:  cpu time    0.04: real time    0.04
    CHARGE:  cpu time    1.32: real time    1.32
    MIXING:  cpu time    0.02: real time    0.02
    --------------------------------------------
      LOOP:  cpu time   59.62: real time   59.63

 eigenvalue-minimisations  :  1776
 total energy-change (2. order) :-0.2979603E-04  (-0.2160698E-05)
 number of electron     131.9999956 magnetization 
 augmentation part       86.4749415 magnetization 

 Broyden mixing:
  rms(total) = 0.57102E-03    rms(broyden)= 0.57099E-03
  rms(prec ) = 0.61144E-03
  weight for this iteration     100.00

 eigenvalues of (default mixing * dielectric matrix)
  average eigenvalue GAMMA=   1.2464
  2.6723  0.6733  0.3935

 Free energy of the ion-electron system (eV)
  ---------------------------------------------------
  alpha Z        PSCENC =       667.73722884
  Ewald energy   TEWEN  =     35996.36340233
  -1/2 Hartree   DENC   =    -51780.34278555
  -exchange  EXHF       =         0.00000000
  -V(xc)+E(xc)   XCENC  =       512.01239105
  PAW double counting   =     13114.36373182   -14849.82127915
  entropy T*S    EENTRO =         0.00000000
  eigenvalues    EBANDS =      -394.18273747
  atomic energy  EATOM  =     16691.65700843
  ---------------------------------------------------
  free energy    TOTEN  =       -42.21303971 eV

  energy without entropy =      -42.21303971  energy(sigma->0) =      -42.21303971


--------------------------------------------------------------------------------------------------------




----------------------------------------- Iteration    3(   5)  ---------------------------------------


    POTLOK:  cpu time    0.44: real time    0.44
    SETDIJ:  cpu time    0.06: real time    0.06
     EDDAV:  cpu time   52.78: real time   52.79
 BZINTS: Fermi energy: -0.239340;132.000000 electrons
         Band energy:-394.253977;  BLOECHL correction: -0.140332
       DOS:  cpu time    0.04: real time    0.04
    CHARGE:  cpu time    1.34: real time    1.34
    MIXING:  cpu time    0.02: real time    0.02
    --------------------------------------------
      LOOP:  cpu time   54.68: real time   54.69

 eigenvalue-minimisations  :  1576
 total energy-change (2. order) : 0.2050104E-04  (-0.7760190E-06)
 number of electron     131.9999956 magnetization 
 augmentation part       86.4758071 magnetization 

 Broyden mixing:
  rms(total) = 0.24313E-03    rms(broyden)= 0.24311E-03
  rms(prec ) = 0.28682E-03
  weight for this iteration     100.00

 eigenvalues of (default mixing * dielectric matrix)
  average eigenvalue GAMMA=   1.1282
  2.5440  0.3792  0.7948  0.7948

 Free energy of the ion-electron system (eV)
  ---------------------------------------------------
  alpha Z        PSCENC =       667.73722884
  Ewald energy   TEWEN  =     35996.36340233
  -1/2 Hartree   DENC   =    -51780.28456483
  -exchange  EXHF       =         0.00000000
  -V(xc)+E(xc)   XCENC  =       512.01032375
  PAW double counting   =     13114.34621548   -14849.78865589
  entropy T*S    EENTRO =         0.00000000
  eigenvalues    EBANDS =      -394.25397730
  atomic energy  EATOM  =     16691.65700843
  ---------------------------------------------------
  free energy    TOTEN  =       -42.21301920 eV

  energy without entropy =      -42.21301920  energy(sigma->0) =      -42.21301920


--------------------------------------------------------------------------------------------------------




----------------------------------------- Iteration    3(   6)  ---------------------------------------


    POTLOK:  cpu time    0.44: real time    0.44
    SETDIJ:  cpu time    0.06: real time    0.06
     EDDAV:  cpu time   35.39: real time   35.39
 BZINTS: Fermi energy: -0.239264;132.000000 electrons
         Band energy:-394.245128;  BLOECHL correction: -0.140345
       DOS:  cpu time    0.04: real time    0.04
    CHARGE:  cpu time    1.33: real time    1.33
    MIXING:  cpu time    0.02: real time    0.02
    --------------------------------------------
      LOOP:  cpu time   37.28: real time   37.28

 eigenvalue-minimisations  :   888
 total energy-change (2. order) :-0.6987993E-05  (-0.1397474E-06)
 number of electron     131.9999956 magnetization 
 augmentation part       86.4759238 magnetization 

 Broyden mixing:
  rms(total) = 0.21421E-03    rms(broyden)= 0.21420E-03
  rms(prec ) = 0.22832E-03
  weight for this iteration     100.00

 eigenvalues of (default mixing * dielectric matrix)
  average eigenvalue GAMMA=   0.9541
  2.5033  0.8366  0.8366  0.3785  0.2155

 Free energy of the ion-electron system (eV)
  ---------------------------------------------------
  alpha Z        PSCENC =       667.73722884
  Ewald energy   TEWEN  =     35996.36340233
  -1/2 Hartree   DENC   =    -51780.29706703
  -exchange  EXHF       =         0.00000000
  -V(xc)+E(xc)   XCENC  =       512.01005981
  PAW double counting   =     13114.32665361   -14849.76518454
  entropy T*S    EENTRO =         0.00000000
  eigenvalues    EBANDS =      -394.24512763
  atomic energy  EATOM  =     16691.65700843
  ---------------------------------------------------
  free energy    TOTEN  =       -42.21302619 eV

  energy without entropy =      -42.21302619  energy(sigma->0) =      -42.21302619


--------------------------------------------------------------------------------------------------------




----------------------------------------- Iteration    3(   7)  ---------------------------------------


    POTLOK:  cpu time    0.44: real time    0.44
    SETDIJ:  cpu time    0.06: real time    0.06
     EDDAV:  cpu time   36.66: real time   36.66
 BZINTS: Fermi energy: -0.239271;132.000000 electrons
         Band energy:-394.245801;  BLOECHL correction: -0.140343
       DOS:  cpu time    0.04: real time    0.04
    --------------------------------------------
      LOOP:  cpu time   37.21: real time   37.21

 eigenvalue-minimisations  :   936
 total energy-change (2. order) : 0.3215355E-06  (-0.2136085E-07)
 number of electron     131.9999956 magnetization 
 augmentation part       86.4759238 magnetization 

 Free energy of the ion-electron system (eV)
  ---------------------------------------------------
  alpha Z        PSCENC =       667.73722884
  Ewald energy   TEWEN  =     35996.36340233
  -1/2 Hartree   DENC   =    -51780.29735219
  -exchange  EXHF       =         0.00000000
  -V(xc)+E(xc)   XCENC  =       512.01000920
  PAW double counting   =     13114.32079202   -14849.75831344
  entropy T*S    EENTRO =         0.00000000
  eigenvalues    EBANDS =      -394.24580105
  atomic energy  EATOM  =     16691.65700843
  ---------------------------------------------------
  free energy    TOTEN  =       -42.21302587 eV

  energy without entropy =      -42.21302587  energy(sigma->0) =      -42.21302587


--------------------------------------------------------------------------------------------------------




 average (electrostatic) potential at core
  the test charge radii are     1.0053
  (the norm of the test charge is              1.0000)
       1 -43.4691       2 -43.8027       3 -43.8407       4 -43.4691       5 -43.8027
       6 -43.8407       7 -43.8408       8 -43.8027       9 -43.4690      10 -43.8408
      11 -43.8027      12 -43.4690
 
 
 
 E-fermi :  -0.2393     XC(G=0):  -7.5262     alpha+bet : -4.9539


 k-point   1 :       0.0000    0.0000    0.0000
  band No.  band energies     occupation 
      1      -9.0776      2.00000
      2      -8.2658      2.00000
      3      -6.9955      2.00000
      4      -5.6144      2.00000
      5      -4.8834      2.00000
      6      -4.8560      2.00000
      7      -4.7995      2.00000
      8      -4.7995      2.00000
      9      -4.4677      2.00000
     10      -4.4677      2.00000
     11      -4.4060      2.00000
     12      -4.3953      2.00000
     13      -4.3953      2.00000
     14      -4.1873      2.00000
     15      -4.1094      2.00000
     16      -4.1094      2.00000
     17      -3.9170      2.00000
     18      -3.9170      2.00000
     19      -3.8386      2.00000
     20      -3.6291      2.00000
     21      -3.6291      2.00000
     22      -3.4713      2.00000
     23      -3.2294      2.00000
     24      -3.1325      2.00000
     25      -3.0501      2.00000
     26      -3.0501      2.00000
     27      -2.9915      2.00000
     28      -2.9915      2.00000
     29      -2.8208      2.00000
     30      -2.8208      2.00000
     31      -2.6120      2.00000
     32      -2.5965      2.00000
     33      -2.4663      2.00000
     34      -2.4663      2.00000
     35      -2.3778      2.00000
     36      -2.3327      2.00000
     37      -2.3118      2.00000
     38      -2.3118      2.00000
     39      -2.2777      2.00000
     40      -2.2020      2.00000
     41      -2.2020      2.00000
     42      -2.1849      2.00000
     43      -2.0646      2.00000
     44      -2.0646      2.00000
     45      -2.0227      2.00000
     46      -1.9346      2.00000
     47      -1.9346      2.00000
     48      -1.8487      2.00000
     49      -1.7955      2.00000
     50      -1.7955      2.00000
     51      -1.7681      2.00000
     52      -1.7681      2.00000
     53      -1.7530      2.00000
     54      -1.7530      2.00000
     55      -1.6648      2.00000
     56      -1.6648      2.00000
     57      -1.6426      2.00000
     58      -1.6385      2.00000
     59      -1.6325      2.00000
     60      -1.6325      2.00000
     61      -1.6139      2.00000
     62      -1.6123      2.00000
     63      -1.6123      2.00000
     64      -1.2824      2.00000
     65      -1.2823      2.00000
     66       0.0053      0.00000
     67       1.0852      0.00000
     68       1.9368      0.00000
     69       1.9368      0.00000
     70       3.2143      0.00000
     71       3.2143      0.00000
     72       4.0083      0.00000
     73       4.6064      0.00000
     74       4.9381      0.00000
     75       4.9381      0.00000
     76       6.6038      0.00000
     77       6.9355      0.00000
     78       6.9355      0.00000
     79       7.0318      0.00000
     80       7.0318      0.00000

 k-point   2 :       0.1429    0.0000    0.0000
  band No.  band energies     occupation 
      1      -8.8352      2.00000
      2      -8.0320      2.00000
      3      -6.7794      2.00000
      4      -5.4291      2.00000
      5      -4.7982      2.00000
      6      -4.7339      2.00000
      7      -4.7336      2.00000
      8      -4.6946      2.00000
      9      -4.4342      2.00000
     10      -4.3932      2.00000
     11      -4.3410      2.00000
     12      -4.3353      2.00000
     13      -4.3200      2.00000
     14      -4.1331      2.00000
     15      -4.0974      2.00000
     16      -4.0623      2.00000
     17      -3.8876      2.00000
     18      -3.8428      2.00000
     19      -3.8019      2.00000
     20      -3.6378      2.00000
     21      -3.6085      2.00000
     22      -3.4572      2.00000
     23      -3.2434      2.00000
     24      -3.0761      2.00000
     25      -3.0742      2.00000
     26      -3.0446      2.00000
     27      -3.0203      2.00000
     28      -3.0121      2.00000
     29      -2.8958      2.00000
     30      -2.8811      2.00000
     31      -2.8281      2.00000
     32      -2.5763      2.00000
     33      -2.4786      2.00000
     34      -2.4466      2.00000
     35      -2.4376      2.00000
     36      -2.4146      2.00000
     37      -2.4128      2.00000
     38      -2.3379      2.00000
     39      -2.3074      2.00000
     40      -2.2702      2.00000
     41      -2.2182      2.00000
     42      -2.1960      2.00000
     43      -2.0770      2.00000
     44      -2.0714      2.00000
     45      -2.0556      2.00000
     46      -2.0375      2.00000
     47      -1.9914      2.00000
     48      -1.9638      2.00000
     49      -1.8902      2.00000
     50      -1.8863      2.00000
     51      -1.8649      2.00000
     52      -1.8321      2.00000
     53      -1.7987      2.00000
     54      -1.7962      2.00000
     55      -1.7954      2.00000
     56      -1.7633      2.00000
     57      -1.7413      2.00000
     58      -1.7331      2.00000
     59      -1.7098      2.00000
     60      -1.6952      2.00000
     61      -1.6733      2.00000
     62      -1.6369      2.00000
     63      -1.4407      2.00000
     64      -1.4217      2.00000
     65      -1.0854      2.00000
     66       0.4351     -0.00011
     67       0.6271      0.00000
     68       1.5821      0.00000
     69       1.7381      0.00000
     70       2.4683      0.00000
     71       3.1783      0.00000
     72       3.6517      0.00000
     73       4.2525      0.00000
     74       4.8255      0.00000
     75       4.8499      0.00000
     76       5.3093      0.00000
     77       6.6993      0.00000
     78       6.8367      0.00000
     79       7.1332      0.00000
     80       7.2641      0.00000

 k-point   3 :       0.2857    0.0000    0.0000
  band No.  band energies     occupation 
      1      -8.1255      2.00000
      2      -7.3521      2.00000
      3      -6.1653      2.00000
      4      -4.9603      2.00000
      5      -4.9340      2.00000
      6      -4.5252      2.00000
      7      -4.4164      2.00000
      8      -4.4010      2.00000
      9      -4.3411      2.00000
     10      -4.2094      2.00000
     11      -4.1659      2.00000
     12      -4.1437      2.00000
     13      -4.1104      2.00000
     14      -4.0709      2.00000
     15      -3.9902      2.00000
     16      -3.9723      2.00000
     17      -3.9320      2.00000
     18      -3.7050      2.00000
     19      -3.6651      2.00000
     20      -3.5623      2.00000
     21      -3.5052      2.00000
     22      -3.4604      2.00000
     23      -3.3847      2.00000
     24      -3.2047      2.00000
     25      -3.1553      2.00000
     26      -3.1424      2.00000
     27      -3.0562      2.00000
     28      -2.9419      2.00000
     29      -2.9190      2.00000
     30      -2.9169      2.00000
     31      -2.9146      2.00000
     32      -2.8120      2.00000
     33      -2.7944      2.00000
     34      -2.7248      2.00000
     35      -2.5814      2.00000
     36      -2.5561      2.00000
     37      -2.4968      2.00000
     38      -2.4511      2.00000
     39      -2.4410      2.00000
     40      -2.3731      2.00000
     41      -2.3130      2.00000
     42      -2.2838      2.00000
     43      -2.2028      2.00000
     44      -2.1686      2.00000
     45      -2.1638      2.00000
     46      -2.1202      2.00000
     47      -2.1192      2.00000
     48      -2.1065      2.00000
     49      -2.0939      2.00000
     50      -2.0841      2.00000
     51      -2.0145      2.00000
     52      -1.9777      2.00000
     53      -1.9728      2.00000
     54      -1.9674      2.00000
     55      -1.9141      2.00000
     56      -1.9137      2.00000
     57      -1.8749      2.00000
     58      -1.8728      2.00000
     59      -1.7887      2.00000
     60      -1.7470      2.00000
     61      -1.7015      2.00000
     62      -1.6476      2.00000
     63      -1.6194      2.00000
     64      -1.3510      2.00000
     65      -1.1688      2.00000
     66      -0.2394      0.73535
     67      -0.2356      0.67325
     68       0.9543      0.00000
     69       1.4087      0.00000
     70       2.4602      0.00000
     71       2.7294      0.00000
     72       3.7425      0.00000
     73       4.2943      0.00000
     74       4.7887      0.00000
     75       4.9849      0.00000
     76       5.4771      0.00000
     77       6.3046      0.00000
     78       6.3269      0.00000
     79       7.4888      0.00000
     80       7.5363      0.00000

 k-point   4 :       0.4286    0.0000    0.0000
  band No.  band energies     occupation 
      1      -7.0216      2.00000
      2      -6.3141      2.00000
      3      -5.7624      2.00000
      4      -5.2917      2.00000
      5      -5.1811      2.00000
      6      -4.4827      2.00000
      7      -4.3665      2.00000
      8      -4.1370      2.00000
      9      -4.0996      2.00000
     10      -4.0774      2.00000
     11      -3.9196      2.00000
     12      -3.9190      2.00000
     13      -3.9125      2.00000
     14      -3.8230      2.00000
     15      -3.8123      2.00000
     16      -3.7530      2.00000
     17      -3.7239      2.00000
     18      -3.6545      2.00000
     19      -3.5693      2.00000
     20      -3.5548      2.00000
     21      -3.5381      2.00000
     22      -3.5122      2.00000
     23      -3.4595      2.00000
     24      -3.3960      2.00000
     25      -3.3448      2.00000
     26      -3.3285      2.00000
     27      -3.2662      2.00000
     28      -3.1539      2.00000
     29      -3.0675      2.00000
     30      -2.9912      2.00000
     31      -2.9440      2.00000
     32      -2.8477      2.00000
     33      -2.6802      2.00000
     34      -2.6800      2.00000
     35      -2.6088      2.00000
     36      -2.6087      2.00000
     37      -2.5660      2.00000
     38      -2.5066      2.00000
     39      -2.4696      2.00000
     40      -2.4550      2.00000
     41      -2.4511      2.00000
     42      -2.4119      2.00000
     43      -2.4102      2.00000
     44      -2.4036      2.00000
     45      -2.4022      2.00000
     46      -2.3322      2.00000
     47      -2.2976      2.00000
     48      -2.2865      2.00000
     49      -2.2717      2.00000
     50      -2.2547      2.00000
     51      -2.1670      2.00000
     52      -2.1609      2.00000
     53      -2.1265      2.00000
     54      -2.1259      2.00000
     55      -2.1138      2.00000
     56      -2.0701      2.00000
     57      -2.0540      2.00000
     58      -1.9158      2.00000
     59      -1.8360      2.00000
     60      -1.8148      2.00000
     61      -1.8128      2.00000
     62      -1.6607      2.00000
     63      -1.6584      2.00000
     64      -1.4146      2.00000
     65      -1.4073      2.00000
     66      -0.6077      2.12144
     67      -0.6002      2.07582
     68       0.6166      0.00000
     69       0.8645      0.00000
     70       2.3433      0.00000
     71       2.7076      0.00000
     72       4.2243      0.00000
     73       4.3296      0.00000
     74       5.4271      0.00000
     75       6.0065      0.00000
     76       6.1990      0.00000
     77       6.3816      0.00000
     78       6.5502      0.00000
     79       7.3993      0.00000
     80       7.8698      0.00000

 k-point   5 :       0.1429    0.1429    0.0000
  band No.  band energies     occupation 
      1      -8.5965      2.00000
      2      -7.8043      2.00000
      3      -6.5757      2.00000
      4      -5.2693      2.00000
      5      -4.6867      2.00000
      6      -4.6867      2.00000
      7      -4.6231      2.00000
      8      -4.6092      2.00000
      9      -4.3691      2.00000
     10      -4.3691      2.00000
     11      -4.2810      2.00000
     12      -4.2547      2.00000
     13      -4.2547      2.00000
     14      -4.0898      2.00000
     15      -4.0898      2.00000
     16      -4.0752      2.00000
     17      -3.8162      2.00000
     18      -3.8162      2.00000
     19      -3.7530      2.00000
     20      -3.6111      2.00000
     21      -3.6111      2.00000
     22      -3.4319      2.00000
     23      -3.2568      2.00000
     24      -3.0635      2.00000
     25      -3.0635      2.00000
     26      -3.0337      2.00000
     27      -3.0240      2.00000
     28      -2.9933      2.00000
     29      -2.9747      2.00000
     30      -2.9407      2.00000
     31      -2.8375      2.00000
     32      -2.6944      2.00000
     33      -2.6000      2.00000
     34      -2.5246      2.00000
     35      -2.5246      2.00000
     36      -2.3891      2.00000
     37      -2.3869      2.00000
     38      -2.3847      2.00000
     39      -2.2998      2.00000
     40      -2.2827      2.00000
     41      -2.2827      2.00000
     42      -2.2595      2.00000
     43      -2.2242      2.00000
     44      -2.1913      2.00000
     45      -2.0991      2.00000
     46      -2.0991      2.00000
     47      -2.0587      2.00000
     48      -2.0072      2.00000
     49      -1.9487      2.00000
     50      -1.9486      2.00000
     51      -1.9325      2.00000
     52      -1.9324      2.00000
     53      -1.8872      2.00000
     54      -1.8389      2.00000
     55      -1.7987      2.00000
     56      -1.7987      2.00000
     57      -1.7578      2.00000
     58      -1.7500      2.00000
     59      -1.7395      2.00000
     60      -1.7395      2.00000
     61      -1.6582      2.00000
     62      -1.6228      2.00000
     63      -1.5328      2.00000
     64      -1.5328      2.00000
     65      -0.8036      2.01826
     66       0.7842     -0.00012
     67       1.1084      0.00000
     68       1.1084      0.00000
     69       2.0071      0.00000
     70       2.0942      0.00000
     71       2.0942      0.00000
     72       3.4291      0.00000
     73       3.4291      0.00000
     74       4.4967      0.00000
     75       5.0428      0.00000
     76       5.1609      0.00000
     77       5.1609      0.00000
     78       7.0367      0.00000
     79       7.0367      0.00000
     80       7.0697      0.00000

 k-point   6 :       0.2857    0.1429    0.0000
  band No.  band energies     occupation 
      1      -7.8992      2.00000
      2      -7.1457      2.00000
      3      -6.0075      2.00000
      4      -4.8687      2.00000
      5      -4.8334      2.00000
      6      -4.4787      2.00000
      7      -4.3888      2.00000
      8      -4.3397      2.00000
      9      -4.3059      2.00000
     10      -4.2256      2.00000
     11      -4.1868      2.00000
     12      -4.1477      2.00000
     13      -4.1037      2.00000
     14      -4.0787      2.00000
     15      -4.0104      2.00000
     16      -3.8963      2.00000
     17      -3.7698      2.00000
     18      -3.6681      2.00000
     19      -3.6008      2.00000
     20      -3.4998      2.00000
     21      -3.4546      2.00000
     22      -3.3945      2.00000
     23      -3.3710      2.00000
     24      -3.1451      2.00000
     25      -3.1430      2.00000
     26      -3.1307      2.00000
     27      -3.0573      2.00000
     28      -2.9617      2.00000
     29      -2.9212      2.00000
     30      -2.9190      2.00000
     31      -2.9162      2.00000
     32      -2.9017      2.00000
     33      -2.8572      2.00000
     34      -2.7805      2.00000
     35      -2.6806      2.00000
     36      -2.5682      2.00000
     37      -2.5589      2.00000
     38      -2.5061      2.00000
     39      -2.4683      2.00000
     40      -2.4516      2.00000
     41      -2.3654      2.00000
     42      -2.3395      2.00000
     43      -2.3306      2.00000
     44      -2.2809      2.00000
     45      -2.2560      2.00000
     46      -2.2311      2.00000
     47      -2.1949      2.00000
     48      -2.1798      2.00000
     49      -2.1381      2.00000
     50      -2.1374      2.00000
     51      -2.0512      2.00000
     52      -1.9965      2.00000
     53      -1.9556      2.00000
     54      -1.9188      2.00000
     55      -1.8489      2.00000
     56      -1.8458      2.00000
     57      -1.8147      2.00000
     58      -1.8102      2.00000
     59      -1.8004      2.00000
     60      -1.7017      2.00000
     61      -1.6644      2.00000
     62      -1.6634      2.00000
     63      -1.6621      2.00000
     64      -1.3529      2.00000
     65      -0.7098      2.00510
     66      -0.0763      0.27583
     67       0.0354      0.07613
     68       1.1321      0.00000
     69       1.6620      0.00000
     70       2.1641      0.00000
     71       2.5361      0.00000
     72       2.9303      0.00000
     73       3.0581      0.00000
     74       4.4621      0.00000
     75       4.5885      0.00000
     76       5.2287      0.00000
     77       5.6841      0.00000
     78       6.0817      0.00000
     79       6.5703      0.00000
     80       7.2101      0.00000

 k-point   7 :       0.4286    0.1429    0.0000
  band No.  band energies     occupation 
      1      -6.8204      2.00000
      2      -6.1553      2.00000
      3      -5.6029      2.00000
      4      -5.2399      2.00000
      5      -5.1058      2.00000
      6      -4.5795      2.00000
      7      -4.4609      2.00000
      8      -4.2420      2.00000
      9      -4.0682      2.00000
     10      -4.0404      2.00000
     11      -4.0008      2.00000
     12      -3.9980      2.00000
     13      -3.8506      2.00000
     14      -3.8484      2.00000
     15      -3.7485      2.00000
     16      -3.6954      2.00000
     17      -3.6085      2.00000
     18      -3.6025      2.00000
     19      -3.5370      2.00000
     20      -3.4529      2.00000
     21      -3.3800      2.00000
     22      -3.3759      2.00000
     23      -3.3613      2.00000
     24      -3.3586      2.00000
     25      -3.3427      2.00000
     26      -3.2803      2.00000
     27      -3.2112      2.00000
     28      -3.0671      2.00000
     29      -3.0445      2.00000
     30      -2.9832      2.00000
     31      -2.9724      2.00000
     32      -2.9212      2.00000
     33      -2.7780      2.00000
     34      -2.7667      2.00000
     35      -2.6827      2.00000
     36      -2.6685      2.00000
     37      -2.6420      2.00000
     38      -2.6332      2.00000
     39      -2.5881      2.00000
     40      -2.5454      2.00000
     41      -2.5400      2.00000
     42      -2.5355      2.00000
     43      -2.4921      2.00000
     44      -2.3989      2.00000
     45      -2.3860      2.00000
     46      -2.3800      2.00000
     47      -2.3024      2.00000
     48      -2.1787      2.00000
     49      -2.1743      2.00000
     50      -2.1095      2.00000
     51      -2.1033      2.00000
     52      -2.0911      2.00000
     53      -2.0328      2.00000
     54      -2.0048      2.00000
     55      -1.9425      2.00000
     56      -1.9302      2.00000
     57      -1.9145      2.00000
     58      -1.9017      2.00000
     59      -1.8001      2.00000
     60      -1.7741      2.00000
     61      -1.7403      2.00000
     62      -1.7111      2.00000
     63      -1.6466      2.00000
     64      -1.4408      2.00000
     65      -1.3212      2.03616
     66      -0.5819      2.05021
     67      -0.5556      1.94597
     68       0.6827      0.00000
     69       0.9820      0.00000
     70       2.3885      0.00000
     71       2.8801      0.00000
     72       3.4581      0.00000
     73       4.4653      0.00000
     74       4.4897      0.00000
     75       4.5661      0.00000
     76       5.2441      0.00000
     77       5.8285      0.00000
     78       6.1305      0.00000
     79       6.2564      0.00000
     80       6.4417      0.00000

 k-point   8 :       0.2857    0.2857    0.0000
  band No.  band energies     occupation 
      1      -7.2443      2.00000
      2      -6.5635      2.00000
      3      -5.6026      2.00000
      4      -4.7408      2.00000
      5      -4.5630      2.00000
      6      -4.5630      2.00000
      7      -4.4734      2.00000
      8      -4.4734      2.00000
      9      -4.2459      2.00000
     10      -4.2108      2.00000
     11      -4.2108      2.00000
     12      -4.1688      2.00000
     13      -3.9636      2.00000
     14      -3.8363      2.00000
     15      -3.8363      2.00000
     16      -3.6791      2.00000
     17      -3.6096      2.00000
     18      -3.6096      2.00000
     19      -3.4002      2.00000
     20      -3.3068      2.00000
     21      -3.3067      2.00000
     22      -3.2967      2.00000
     23      -3.2240      2.00000
     24      -3.1282      2.00000
     25      -3.1282      2.00000
     26      -3.1179      2.00000
     27      -3.1032      2.00000
     28      -3.0504      2.00000
     29      -3.0504      2.00000
     30      -3.0061      2.00000
     31      -2.9388      2.00000
     32      -2.9276      2.00000
     33      -2.8666      2.00000
     34      -2.8588      2.00000
     35      -2.7611      2.00000
     36      -2.6795      2.00000
     37      -2.6589      2.00000
     38      -2.6589      2.00000
     39      -2.6327      2.00000
     40      -2.6310      2.00000
     41      -2.5420      2.00000
     42      -2.5420      2.00000
     43      -2.4367      2.00000
     44      -2.4168      2.00000
     45      -2.4168      2.00000
     46      -2.3488      2.00000
     47      -2.0998      2.00000
     48      -2.0998      2.00000
     49      -2.0967      2.00000
     50      -2.0876      2.00000
     51      -2.0613      2.00000
     52      -1.9893      2.00000
     53      -1.9832      2.00000
     54      -1.9361      2.00000
     55      -1.9361      2.00000
     56      -1.8321      2.00000
     57      -1.7700      2.00000
     58      -1.7700      2.00000
     59      -1.7585      2.00000
     60      -1.7027      2.00000
     61      -1.6816      2.00000
     62      -1.6816      2.00000
     63      -1.6673      2.00000
     64      -1.1798      2.00000
     65       0.1488      0.88387
     66       0.1488     -0.05974
     67       0.4327     -0.31525
     68       0.6845     -0.00241
     69       0.6845      0.00000
     70       1.4558      0.00000
     71       1.4558      0.00000
     72       2.3341      0.00000
     73       3.7302      0.00000
     74       3.7302      0.00000
     75       3.9097      0.00000
     76       4.8319      0.00000
     77       5.4715      0.00000
     78       5.4715      0.00000
     79       5.7496      0.00000
     80       5.9590      0.00000

 k-point   9 :       0.4286    0.2857    0.0000
  band No.  band energies     occupation 
      1      -6.2568      2.00000
      2      -5.7462      2.00000
      3      -5.2004      2.00000
      4      -5.1365      2.00000
      5      -4.9819      2.00000
      6      -4.7537      2.00000
      7      -4.6191      2.00000
      8      -4.4959      2.00000
      9      -4.1875      2.00000
     10      -4.1741      2.00000
     11      -4.0264      2.00000
     12      -3.9828      2.00000
     13      -3.8044      2.00000
     14      -3.6909      2.00000
     15      -3.5618      2.00000
     16      -3.5316      2.00000
     17      -3.5114      2.00000
     18      -3.4863      2.00000
     19      -3.4774      2.00000
     20      -3.2529      2.00000
     21      -3.2495      2.00000
     22      -3.2217      2.00000
     23      -3.2011      2.00000
     24      -3.1971      2.00000
     25      -3.0959      2.00000
     26      -3.0770      2.00000
     27      -3.0630      2.00000
     28      -3.0594      2.00000
     29      -3.0522      2.00000
     30      -3.0049      2.00000
     31      -2.9846      2.00000
     32      -2.9831      2.00000
     33      -2.8744      2.00000
     34      -2.8516      2.00000
     35      -2.8344      2.00000
     36      -2.7672      2.00000
     37      -2.7344      2.00000
     38      -2.7309      2.00000
     39      -2.7018      2.00000
     40      -2.6232      2.00000
     41      -2.5064      2.00000
     42      -2.4916      2.00000
     43      -2.4556      2.00000
     44      -2.4523      2.00000
     45      -2.4347      2.00000
     46      -2.3129      2.00000
     47      -2.2843      2.00000
     48      -2.1212      2.00000
     49      -2.0665      2.00000
     50      -2.0212      2.00000
     51      -1.9887      2.00000
     52      -1.9609      2.00000
     53      -1.8834      2.00000
     54      -1.8484      2.00000
     55      -1.8419      2.00000
     56      -1.8341      2.00000
     57      -1.8126      2.00000
     58      -1.8032      2.00000
     59      -1.7673      2.00000
     60      -1.7444      2.00000
     61      -1.7391      2.00000
     62      -1.6889      2.00000
     63      -1.5336      2.00000
     64      -1.1488      2.00000
     65      -0.9466      2.05139
     66      -0.4938      1.93051
     67      -0.3865      1.68858
     68       0.6762     -0.07827
     69       1.2161      0.00000
     70       1.2638      0.00000
     71       1.4556      0.00000
     72       2.5292      0.00000
     73       3.5166      0.00000
     74       3.5267      0.00000
     75       3.7451      0.00000
     76       3.8202      0.00000
     77       5.0542      0.00000
     78       5.1868      0.00000
     79       5.3404      0.00000
     80       5.3496      0.00000

 k-point  10 :       0.4286    0.4286    0.0000
  band No.  band energies     occupation 
      1      -5.4849      2.00000
      2      -5.2862      2.00000
      3      -5.0342      2.00000
      4      -4.9825      2.00000
      5      -4.9825      2.00000
      6      -4.7980      2.00000
      7      -4.7980      2.00000
      8      -4.7134      2.00000
      9      -4.3072      2.00000
     10      -4.2591      2.00000
     11      -4.2591      2.00000
     12      -4.1252      2.00000
     13      -3.5539      2.00000
     14      -3.4366      2.00000
     15      -3.4366      2.00000
     16      -3.3634      2.00000
     17      -3.3586      2.00000
     18      -3.3432      2.00000
     19      -3.3432      2.00000
     20      -3.2566      2.00000
     21      -3.2566      2.00000
     22      -3.2316      2.00000
     23      -3.1825      2.00000
     24      -3.1673      2.00000
     25      -3.1009      2.00000
     26      -3.1009      2.00000
     27      -3.0567      2.00000
     28      -3.0498      2.00000
     29      -2.9718      2.00000
     30      -2.9282      2.00000
     31      -2.9282      2.00000
     32      -2.9281      2.00000
     33      -2.8592      2.00000
     34      -2.8592      2.00000
     35      -2.8499      2.00000
     36      -2.8221      2.00000
     37      -2.7021      2.00000
     38      -2.6985      2.00000
     39      -2.6706      2.00000
     40      -2.6706      2.00000
     41      -2.5215      2.00000
     42      -2.4676      2.00000
     43      -2.4535      2.00000
     44      -2.4535      2.00000
     45      -2.1500      2.00000
     46      -2.0983      2.00000
     47      -2.0983      2.00000
     48      -2.0963      2.00000
     49      -2.0030      2.00000
     50      -2.0010      2.00000
     51      -2.0009      2.00000
     52      -1.8846      2.00000
     53      -1.8394      2.00000
     54      -1.7967      2.00000
     55      -1.7967      2.00000
     56      -1.7784      2.00000
     57      -1.7536      2.00000
     58      -1.7536      2.00000
     59      -1.7523      2.00000
     60      -1.7049      2.00000
     61      -1.4874      2.00000
     62      -1.3401      2.00000
     63      -1.2050      2.00000
     64      -0.4473      2.00000
     65      -0.4473      1.95994
     66      -0.3225      1.89602
     67      -0.3225      1.84230
     68      -0.2619      0.70813
     69       0.0024      0.00000
     70       0.0025      0.00000
     71       0.7741      0.00000
     72       0.8686      0.00000
     73       3.1088      0.00000
     74       3.1088      0.00000
     75       3.1846      0.00000
     76       3.2125      0.00000
     77       4.7511      0.00000
     78       4.7931      0.00000
     79       4.7931      0.00000
     80       4.9735      0.00000


--------------------------------------------------------------------------------------------------------


 soft charge-density along one line, spin component           1
         0         1         2         3         4         5         6         7         8         9
 total charge-density along one line
 
 pseudopotential strength for first ion, spin component:           1
 -9.059   0.000   0.000   0.000   0.000   0.926   0.000   0.000
  0.000  -9.033   0.000   0.000   0.000   0.000   0.913   0.000
  0.000   0.000  -9.017   0.000   0.000   0.000   0.000   0.906
  0.000   0.000   0.000  -9.033   0.000   0.000   0.000   0.000
  0.000   0.000   0.000   0.000  -9.035   0.000   0.000   0.000
  0.926   0.000   0.000   0.000   0.000   1.149   0.000   0.000
  0.000   0.913   0.000   0.000   0.000   0.000   1.155   0.000
  0.000   0.000   0.906   0.000   0.000   0.000   0.000   1.159
  0.000   0.000   0.000   0.913   0.000   0.000   0.000   0.000
  0.000   0.000   0.000   0.000   0.916   0.000   0.000   0.000
  0.000   0.000  -0.005   0.000   0.000   0.000   0.000   0.002
  0.000   0.000   0.000   0.000   0.000   0.000   0.000   0.000
  0.000  -0.014   0.000   0.000   0.000   0.000   0.007   0.000
  0.000   0.000  -0.015   0.000   0.000   0.000   0.000   0.008
  0.000   0.000   0.000  -0.014   0.000   0.000   0.000   0.000
  0.000   0.007   0.000   0.000   0.000   0.000  -0.004   0.000
  0.000   0.000   0.009   0.000   0.000   0.000   0.000  -0.004
  0.000   0.000   0.000   0.007   0.000   0.000   0.000   0.000
 total augmentation occupancy for first ion, spin component:           1
  1.916   0.000   0.000   0.000   0.000   0.003   0.000   0.000   0.000   0.000   0.000   0.000   0.000   0.000   0.000   0.000
  0.000   1.919   0.000   0.000   0.000   0.000  -0.037   0.000   0.000   0.000   0.000   0.000   0.012   0.000   0.000  -0.008
  0.000   0.000   1.931   0.000   0.000   0.000   0.000  -0.059   0.000   0.000   0.018   0.031   0.000   0.015   0.000   0.000
  0.000   0.000   0.000   1.919   0.000   0.000   0.000   0.000  -0.037   0.000   0.000   0.000   0.000   0.000   0.012   0.000
  0.000   0.000   0.000   0.000   1.919   0.000   0.000   0.000   0.000  -0.055   0.000   0.000   0.000   0.000   0.000   0.000
  0.003   0.000   0.000   0.000   0.000   0.057   0.000   0.000   0.000   0.000   0.000   0.000   0.000   0.000   0.000   0.000
  0.000  -0.037   0.000   0.000   0.000   0.000   0.044   0.000   0.000   0.000   0.000   0.000   0.042   0.000   0.000  -0.003
  0.000   0.000  -0.059   0.000   0.000   0.000   0.000   0.050   0.000   0.000  -0.062   0.008   0.000   0.037   0.000   0.000
  0.000   0.000   0.000  -0.037   0.000   0.000   0.000   0.000   0.044   0.000   0.000   0.000   0.000   0.000   0.042   0.000
  0.000   0.000   0.000   0.000  -0.055   0.000   0.000   0.000   0.000   0.053   0.000   0.000   0.000   0.000   0.000   0.000
  0.000   0.000   0.018   0.000   0.000   0.000   0.000  -0.062   0.000   0.000   1.218  -0.271   0.000   0.089   0.000   0.000
  0.000   0.000   0.031   0.000   0.000   0.000   0.000   0.008   0.000   0.000  -0.271   0.104   0.000  -0.051   0.000   0.000
  0.000   0.012   0.000   0.000   0.000   0.000   0.042   0.000   0.000   0.000   0.000   0.000   0.146   0.000   0.000  -0.009
  0.000   0.000   0.015   0.000   0.000   0.000   0.000   0.037   0.000   0.000   0.089  -0.051   0.000   0.085   0.000   0.000
  0.000   0.000   0.000   0.012   0.000   0.000   0.000   0.000   0.042   0.000   0.000   0.000   0.000   0.000   0.146   0.000
  0.000  -0.008   0.000   0.000   0.000   0.000  -0.003   0.000   0.000   0.000   0.000   0.000  -0.009   0.000   0.000   0.001
  0.000   0.000  -0.009   0.000   0.000   0.000   0.000  -0.002   0.000   0.000  -0.016   0.006   0.000  -0.007   0.000   0.000
  0.000   0.000   0.000  -0.008   0.000   0.000   0.000   0.000  -0.003   0.000   0.000   0.000   0.000   0.000  -0.009   0.000


------------------------ aborting loop because EDIFF is reached ----------------------------------------


    CHARGE:  cpu time    1.35: real time    1.35
    FORLOC:  cpu time    0.05: real time    0.05
    FORNL :  cpu time   23.00: real time   23.00
    STRESS:  cpu time   62.59: real time   62.59
    FORCOR:  cpu time    0.46: real time    0.47
    FORHAR:  cpu time    0.16: real time    0.15
    MIXING:  cpu time    0.02: real time    0.02

  FORCE on cell =-STRESS in cart. coord.  units (eV):
  Direction    XX          YY          ZZ          XY          YZ          ZX
  --------------------------------------------------------------------------------------
  Alpha Z   667.73723   667.73723   667.73723
  Ewald   44657.90999 44657.90999-53319.48050     0.00000     0.00000     0.00000
  Hartree 49236.76590 49236.76590-46693.18681     0.00000     0.00000     0.00000
  E(xc)    -750.65458  -750.65458  -751.61773     0.00000     0.00000     0.00000
  Local  -94984.01768-94984.01768 98921.57277     0.00000     0.00000     0.00000
  n-local  -439.48394  -451.78239  -446.67158     3.83751     0.00000     0.00000
  augment   674.76298   674.76298   676.20605    -0.00001    -0.00002    -0.00002
  Kinetic   954.28539   926.19642   943.90891    -3.66710     0.00000     0.00000
  Fock        0.00000     0.00000     0.00000     0.00000     0.00000     0.00000
  -------------------------------------------------------------------------------------
  Total      -2.88841    -2.88841    -1.53167     0.00000     0.00000     0.00000
  in kB     -16.79615   -16.79615    -8.90666     0.00000     0.00000     0.00000
  external pressure =      -14.17 kB  Pullay stress =        0.00 kB


 VOLUME and BASIS-vectors are now :
 -----------------------------------------------------------------------------
  energy-cutoff  :      415.00
  volume of cell :      275.52
      direct lattice vectors                 reciprocal lattice vectors
     3.631354857  0.000000000  0.000000000     0.275379311  0.000000000  0.000000000
     0.000000000  3.631354857  0.000000000     0.000000000  0.275379311  0.000000000
     0.000000000  0.000000000 20.894064570     0.000000000  0.000000000  0.047860482

  length of vectors
     3.631354857  3.631354857 20.894064570     0.275379311  0.275379311  0.047860482


 FORCES acting on ions
    electron-ion (+dipol)            ewald-force                    non-local-force                 convergence-correction
 -----------------------------------------------------------------------------------------------
   -.573E-13 0.597E-13 0.391E+04   -.252E-13 0.533E-15 -.391E+04   -.165E-23 0.000E+00 -.267E+01   0.288E-14 0.286E-13 -.631E-02
   -.612E-13 0.116E-13 0.795E+03   -.483E-14 0.117E-13 -.795E+03   0.000E+00 0.000E+00 0.293E-01   -.362E-13 -.397E-14 -.816E-03
   -.619E-13 -.530E-13 -.238E+04   -.141E-13 0.367E-16 0.238E+04   -.165E-23 -.165E-23 0.765E+00   -.793E-13 0.212E-13 -.300E-02
   0.598E-12 -.141E-11 0.391E+04   -.384E-13 -.145E-13 -.391E+04   0.000E+00 0.000E+00 -.267E+01   0.149E-13 -.207E-13 -.631E-02
   0.656E-12 0.272E-11 0.795E+03   -.196E-13 -.463E-14 -.795E+03   0.000E+00 -.662E-23 0.293E-01   0.398E-13 -.619E-13 -.816E-03
   0.628E-12 0.540E-12 -.238E+04   -.300E-13 -.169E-13 0.238E+04   -.496E-23 -.165E-23 0.765E+00   -.381E-13 0.742E-13 -.300E-02
   0.575E-12 -.107E-13 0.238E+04   0.404E-13 0.188E-13 -.238E+04   -.496E-23 -.165E-23 -.765E+00   0.985E-13 0.449E-13 0.307E-02
   0.601E-12 -.343E-13 -.795E+03   -.172E-13 0.120E-13 0.795E+03   -.165E-23 0.331E-23 -.293E-01   0.360E-13 0.140E-13 0.829E-03
   0.641E-12 -.823E-13 -.391E+04   -.203E-14 0.746E-14 0.391E+04   -.414E-24 0.414E-24 0.267E+01   0.311E-13 0.493E-13 0.635E-02
   -.533E-13 0.649E-12 0.238E+04   0.325E-13 0.143E-14 -.238E+04   -.165E-23 -.165E-23 -.765E+00   0.415E-13 -.211E-13 0.307E-02
   -.503E-13 0.619E-12 -.795E+03   -.196E-13 -.721E-14 0.795E+03   0.165E-23 0.331E-23 -.293E-01   -.495E-13 0.225E-13 0.829E-03
   -.366E-13 0.551E-12 -.391E+04   -.111E-13 -.999E-14 0.391E+04   0.124E-23 0.414E-24 0.267E+01   -.222E-14 0.685E-13 0.635E-02
 -----------------------------------------------------------------------------------------------
   0.338E-11 0.356E-11 0.115E-02   -.109E-12 -.129E-14 -.909E-12   -.141E-22 -.579E-23 -.178E-14   0.593E-13 0.216E-12 0.238E-03
 
 
 POSITION                                       TOTAL-FORCE (eV/Angst)
 -----------------------------------------------------------------------------------
      0.00000      0.00000      0.00305         0.000000      0.000000      0.135702
      0.00000      0.00000      3.63211         0.000000      0.000000      0.021277
      0.00000      0.00000      7.26617         0.000000      0.000000      0.143272
      1.81568      1.81568      0.00305         0.000000      0.000000      0.135702
      1.81568      1.81568      3.63211         0.000000      0.000000      0.021277
      1.81568      1.81568      7.26617         0.000000      0.000000      0.143272
      1.81568      0.00000      1.81222         0.000000      0.000000     -0.143272
      1.81568      0.00000      5.44628         0.000000      0.000000     -0.021277
      1.81568      0.00000      9.07534         0.000000      0.000000     -0.135702
      0.00000      1.81568      1.81222         0.000000      0.000000     -0.143272
      0.00000      1.81568      5.44628         0.000000      0.000000     -0.021277
      0.00000      1.81568      9.07534         0.000000      0.000000     -0.135702
 -----------------------------------------------------------------------------------
    total drift:                                0.000000      0.000000      0.001384


--------------------------------------------------------------------------------------------------------



  FREE ENERGIE OF THE ION-ELECTRON SYSTEM (eV)
  ---------------------------------------------------
  free  energy   TOTEN  =       -42.213026 eV

  energy  without entropy=      -42.213026  energy(sigma->0) =      -42.213026
 
 d Force = 0.3008710E-02[ 0.278E-02, 0.324E-02]  d Energy = 0.2946021E-02 0.627E-04
 d Force =-0.1281165E+02[-0.128E+02,-0.128E+02]  d Ewald  =-0.1281165E+02 0.909E-05


--------------------------------------------------------------------------------------------------------


    POTLOK:  cpu time    0.50: real time    0.50


--------------------------------------------------------------------------------------------------------




--------------------------------------------------------------------------------------------------------


    WAVPRE:  cpu time    0.10: real time    0.11
    FEWALD:  cpu time    0.00: real time    0.00
    ORTHCH:  cpu time    7.76: real time    7.76
     LOOP+:  cpu time  452.02: real time  452.06


----------------------------------------- Iteration    4(   1)  ---------------------------------------


    POTLOK:  cpu time    0.44: real time    0.44
    SETDIJ:  cpu time    0.06: real time    0.06
     EDDAV:  cpu time   53.32: real time   53.32
 BZINTS: Fermi energy: -0.238650;132.000000 electrons
         Band energy:-394.476375;  BLOECHL correction: -0.140464
       DOS:  cpu time    0.04: real time    0.04
    CHARGE:  cpu time    1.34: real time    1.34
    MIXING:  cpu time    0.02: real time    0.01
    --------------------------------------------
      LOOP:  cpu time   55.22: real time   55.22

 eigenvalue-minimisations  :  1600
 total energy-change (2. order) :-0.4416779E-02  (-0.1039932E+00)
 number of electron     131.9999869 magnetization 
 augmentation part       86.4700017 magnetization 

 Broyden mixing:
  rms(total) = 0.68885E-02    rms(broyden)= 0.68832E-02
  rms(prec ) = 0.72659E-02
  weight for this iteration     100.00

 Free energy of the ion-electron system (eV)
  ---------------------------------------------------
  alpha Z        PSCENC =       667.73722884
  Ewald energy   TEWEN  =     36022.06605958
  -1/2 Hartree   DENC   =    -51805.80518785
  -exchange  EXHF       =         0.00000000
  -V(xc)+E(xc)   XCENC  =       512.03949992
  PAW double counting   =     13114.31191407   -14849.74759050
  entropy T*S    EENTRO =         0.00000000
  eigenvalues    EBANDS =      -394.47637546
  atomic energy  EATOM  =     16691.65700843
  ---------------------------------------------------
  free energy    TOTEN  =       -42.21744297 eV

  energy without entropy =      -42.21744297  energy(sigma->0) =      -42.21744297


--------------------------------------------------------------------------------------------------------




----------------------------------------- Iteration    4(   2)  ---------------------------------------


    POTLOK:  cpu time    0.44: real time    0.44
    SETDIJ:  cpu time    0.06: real time    0.06
     EDDAV:  cpu time   54.58: real time   54.58
 BZINTS: Fermi energy: -0.238259;132.000000 electrons
         Band energy:-394.475433;  BLOECHL correction: -0.140568
       DOS:  cpu time    0.04: real time    0.04
    CHARGE:  cpu time    1.34: real time    1.34
    MIXING:  cpu time    0.02: real time    0.02
    --------------------------------------------
      LOOP:  cpu time   56.48: real time   56.49

 eigenvalue-minimisations  :  1648
 total energy-change (2. order) :-0.3701743E-03  (-0.4060038E-03)
 number of electron     131.9999869 magnetization 
 augmentation part       86.4747020 magnetization 

 Broyden mixing:
  rms(total) = 0.52940E-02    rms(broyden)= 0.52931E-02
  rms(prec ) = 0.56292E-02
  weight for this iteration     100.00

 eigenvalues of (default mixing * dielectric matrix)
  average eigenvalue GAMMA=   0.8445
  0.8445

 Free energy of the ion-electron system (eV)
  ---------------------------------------------------
  alpha Z        PSCENC =       667.73722884
  Ewald energy   TEWEN  =     36022.06605958
  -1/2 Hartree   DENC   =    -51805.83588532
  -exchange  EXHF       =         0.00000000
  -V(xc)+E(xc)   XCENC  =       512.02990301
  PAW double counting   =     13114.69781742   -14850.09451257
  entropy T*S    EENTRO =         0.00000000
  eigenvalues    EBANDS =      -394.47543254
  atomic energy  EATOM  =     16691.65700843
  ---------------------------------------------------
  free energy    TOTEN  =       -42.21781315 eV

  energy without entropy =      -42.21781315  energy(sigma->0) =      -42.21781315


--------------------------------------------------------------------------------------------------------




----------------------------------------- Iteration    4(   3)  ---------------------------------------


    POTLOK:  cpu time    0.44: real time    0.44
    SETDIJ:  cpu time    0.06: real time    0.06
     EDDAV:  cpu time   54.14: real time   54.14
 BZINTS: Fermi energy: -0.238454;132.000000 electrons
         Band energy:-394.485319;  BLOECHL correction: -0.140432
       DOS:  cpu time    0.04: real time    0.04
    CHARGE:  cpu time    1.35: real time    1.35
    MIXING:  cpu time    0.02: real time    0.02
    --------------------------------------------
      LOOP:  cpu time   56.05: real time   56.05

 eigenvalue-minimisations  :  1632
 total energy-change (2. order) : 0.6806658E-04  (-0.7026089E-04)
 number of electron     131.9999869 magnetization 
 augmentation part       86.4738432 magnetization 

 Broyden mixing:
  rms(total) = 0.46553E-02    rms(broyden)= 0.46551E-02
  rms(prec ) = 0.50745E-02
  weight for this iteration     100.00

 eigenvalues of (default mixing * dielectric matrix)
  average eigenvalue GAMMA=   1.3405
  0.3711  2.3099

 Free energy of the ion-electron system (eV)
  ---------------------------------------------------
  alpha Z        PSCENC =       667.73722884
  Ewald energy   TEWEN  =     36022.06605958
  -1/2 Hartree   DENC   =    -51805.77996430
  -exchange  EXHF       =         0.00000000
  -V(xc)+E(xc)   XCENC  =       512.03227869
  PAW double counting   =     13115.11550443   -14850.56054153
  entropy T*S    EENTRO =         0.00000000
  eigenvalues    EBANDS =      -394.48531922
  atomic energy  EATOM  =     16691.65700843
  ---------------------------------------------------
  free energy    TOTEN  =       -42.21774508 eV

  energy without entropy =      -42.21774508  energy(sigma->0) =      -42.21774508


--------------------------------------------------------------------------------------------------------




----------------------------------------- Iteration    4(   4)  ---------------------------------------


    POTLOK:  cpu time    0.44: real time    0.44
    SETDIJ:  cpu time    0.06: real time    0.06
     EDDAV:  cpu time   57.92: real time   57.92
 BZINTS: Fermi energy: -0.236654;132.000000 electrons
         Band energy:-394.196941;  BLOECHL correction: -0.140483
       DOS:  cpu time    0.04: real time    0.04
    CHARGE:  cpu time    1.34: real time    1.34
    MIXING:  cpu time    0.02: real time    0.02
    --------------------------------------------
      LOOP:  cpu time   59.82: real time   59.82

 eigenvalue-minimisations  :  1776
 total energy-change (2. order) :-0.1037645E-04  (-0.8690158E-05)
 number of electron     131.9999869 magnetization 
 augmentation part       86.4710563 magnetization 

 Broyden mixing:
  rms(total) = 0.11388E-02    rms(broyden)= 0.11387E-02
  rms(prec ) = 0.12132E-02
  weight for this iteration     100.00

 eigenvalues of (default mixing * dielectric matrix)
  average eigenvalue GAMMA=   1.2466
  2.6626  0.6827  0.3944

 Free energy of the ion-electron system (eV)
  ---------------------------------------------------
  alpha Z        PSCENC =       667.73722884
  Ewald energy   TEWEN  =     36022.06605958
  -1/2 Hartree   DENC   =    -51805.99218797
  -exchange  EXHF       =         0.00000000
  -V(xc)+E(xc)   XCENC  =       512.03453569
  PAW double counting   =     13115.87772544   -14851.40118479
  entropy T*S    EENTRO =         0.00000000
  eigenvalues    EBANDS =      -394.19694067
  atomic energy  EATOM  =     16691.65700843
  ---------------------------------------------------
  free energy    TOTEN  =       -42.21775546 eV

  energy without entropy =      -42.21775546  energy(sigma->0) =      -42.21775546


--------------------------------------------------------------------------------------------------------




----------------------------------------- Iteration    4(   5)  ---------------------------------------


    POTLOK:  cpu time    0.44: real time    0.44
    SETDIJ:  cpu time    0.06: real time    0.06
     EDDAV:  cpu time   55.90: real time   55.93
 BZINTS: Fermi energy: -0.237302;132.000000 electrons
         Band energy:-394.323801;  BLOECHL correction: -0.140447
       DOS:  cpu time    0.04: real time    0.04
    CHARGE:  cpu time    1.36: real time    1.36
    MIXING:  cpu time    0.02: real time    0.02
    --------------------------------------------
      LOOP:  cpu time   57.82: real time   57.86

 eigenvalue-minimisations  :  1696
 total energy-change (2. order) : 0.3672661E-04  (-0.3121727E-05)
 number of electron     131.9999869 magnetization 
 augmentation part       86.4727659 magnetization 

 Broyden mixing:
  rms(total) = 0.46590E-03    rms(broyden)= 0.46586E-03
  rms(prec ) = 0.56134E-03
  weight for this iteration     100.00

 eigenvalues of (default mixing * dielectric matrix)
  average eigenvalue GAMMA=   1.1312
  2.5278  0.3799  0.8086  0.8086

 Free energy of the ion-electron system (eV)
  ---------------------------------------------------
  alpha Z        PSCENC =       667.73722884
  Ewald energy   TEWEN  =     36022.06605958
  -1/2 Hartree   DENC   =    -51805.89116159
  -exchange  EXHF       =         0.00000000
  -V(xc)+E(xc)   XCENC  =       512.03053220
  PAW double counting   =     13115.84494274   -14851.33852761
  entropy T*S    EENTRO =         0.00000000
  eigenvalues    EBANDS =      -394.32380131
  atomic energy  EATOM  =     16691.65700843
  ---------------------------------------------------
  free energy    TOTEN  =       -42.21771873 eV

  energy without entropy =      -42.21771873  energy(sigma->0) =      -42.21771873


--------------------------------------------------------------------------------------------------------




----------------------------------------- Iteration    4(   6)  ---------------------------------------


    POTLOK:  cpu time    0.44: real time    0.44
    SETDIJ:  cpu time    0.06: real time    0.06
     EDDAV:  cpu time   53.18: real time   53.19
 BZINTS: Fermi energy: -0.237108;132.000000 electrons
         Band energy:-394.299100;  BLOECHL correction: -0.140474
       DOS:  cpu time    0.04: real time    0.04
    CHARGE:  cpu time    1.34: real time    1.34
    MIXING:  cpu time    0.02: real time    0.02
    --------------------------------------------
      LOOP:  cpu time   55.09: real time   55.10

 eigenvalue-minimisations  :  1592
 total energy-change (2. order) :-0.1490428E-04  (-0.5320123E-06)
 number of electron     131.9999869 magnetization 
 augmentation part       86.4729289 magnetization 

 Broyden mixing:
  rms(total) = 0.41854E-03    rms(broyden)= 0.41853E-03
  rms(prec ) = 0.44528E-03
  weight for this iteration     100.00

 eigenvalues of (default mixing * dielectric matrix)
  average eigenvalue GAMMA=   0.9495
  2.4956  0.8398  0.8398  0.3790  0.1931

 Free energy of the ion-electron system (eV)
  ---------------------------------------------------
  alpha Z        PSCENC =       667.73722884
  Ewald energy   TEWEN  =     36022.06605958
  -1/2 Hartree   DENC   =    -51805.92192053
  -exchange  EXHF       =         0.00000000
  -V(xc)+E(xc)   XCENC  =       512.03013462
  PAW double counting   =     13115.80698014   -14851.29412482
  entropy T*S    EENTRO =         0.00000000
  eigenvalues    EBANDS =      -394.29909990
  atomic energy  EATOM  =     16691.65700843
  ---------------------------------------------------
  free energy    TOTEN  =       -42.21773363 eV

  energy without entropy =      -42.21773363  energy(sigma->0) =      -42.21773363


--------------------------------------------------------------------------------------------------------




----------------------------------------- Iteration    4(   7)  ---------------------------------------


    POTLOK:  cpu time    0.44: real time    0.44
    SETDIJ:  cpu time    0.06: real time    0.06
     EDDAV:  cpu time   36.74: real time   36.75
 BZINTS: Fermi energy: -0.237113;132.000000 electrons
         Band energy:-394.299370;  BLOECHL correction: -0.140469
       DOS:  cpu time    0.04: real time    0.04
    CHARGE:  cpu time    1.34: real time    1.34
    MIXING:  cpu time    0.02: real time    0.02
    --------------------------------------------
      LOOP:  cpu time   38.65: real time   38.65

 eigenvalue-minimisations  :   936
 total energy-change (2. order) : 0.1725904E-05  (-0.6037359E-07)
 number of electron     131.9999869 magnetization 
 augmentation part       86.4730252 magnetization 

 Broyden mixing:
  rms(total) = 0.25951E-03    rms(broyden)= 0.25951E-03
  rms(prec ) = 0.27633E-03
  weight for this iteration     100.00

 eigenvalues of (default mixing * dielectric matrix)
  average eigenvalue GAMMA=   1.1651
  2.3870  2.0378  1.0219  0.8304  0.3845  0.3292

 Free energy of the ion-electron system (eV)
  ---------------------------------------------------
  alpha Z        PSCENC =       667.73722884
  Ewald energy   TEWEN  =     36022.06605958
  -1/2 Hartree   DENC   =    -51805.92340708
  -exchange  EXHF       =         0.00000000
  -V(xc)+E(xc)   XCENC  =       512.03005385
  PAW double counting   =     13115.79524924   -14851.28055466
  entropy T*S    EENTRO =         0.00000000
  eigenvalues    EBANDS =      -394.29937011
  atomic energy  EATOM  =     16691.65700843
  ---------------------------------------------------
  free energy    TOTEN  =       -42.21773191 eV

  energy without entropy =      -42.21773191  energy(sigma->0) =      -42.21773191


--------------------------------------------------------------------------------------------------------




----------------------------------------- Iteration    4(   8)  ---------------------------------------


    POTLOK:  cpu time    0.44: real time    0.44
    SETDIJ:  cpu time    0.06: real time    0.06
     EDDAV:  cpu time   36.25: real time   36.25
 BZINTS: Fermi energy: -0.237008;132.000000 electrons
         Band energy:-394.285427;  BLOECHL correction: -0.140466
       DOS:  cpu time    0.04: real time    0.04
    --------------------------------------------
      LOOP:  cpu time   36.79: real time   36.79

 eigenvalue-minimisations  :   920
 total energy-change (2. order) :-0.1832486E-06  (-0.6145184E-07)
 number of electron     131.9999869 magnetization 
 augmentation part       86.4730252 magnetization 

 Free energy of the ion-electron system (eV)
  ---------------------------------------------------
  alpha Z        PSCENC =       667.73722884
  Ewald energy   TEWEN  =     36022.06605958
  -1/2 Hartree   DENC   =    -51805.94082340
  -exchange  EXHF       =         0.00000000
  -V(xc)+E(xc)   XCENC  =       512.02989394
  PAW double counting   =     13115.77678991   -14851.25846220
  entropy T*S    EENTRO =         0.00000000
  eigenvalues    EBANDS =      -394.28542719
  atomic energy  EATOM  =     16691.65700843
  ---------------------------------------------------
  free energy    TOTEN  =       -42.21773209 eV

  energy without entropy =      -42.21773209  energy(sigma->0) =      -42.21773209


--------------------------------------------------------------------------------------------------------




 average (electrostatic) potential at core
  the test charge radii are     1.0053
  (the norm of the test charge is              1.0000)
       1 -43.4732       2 -43.7977       3 -43.8408       4 -43.4732       5 -43.7977
       6 -43.8408       7 -43.8408       8 -43.7977       9 -43.4732      10 -43.8408
      11 -43.7977      12 -43.4732
 
 
 
 E-fermi :  -0.2370     XC(G=0):  -7.5253     alpha+bet : -4.9539


 k-point   1 :       0.0000    0.0000    0.0000
  band No.  band energies     occupation 
      1      -9.0734      2.00000
      2      -8.2710      2.00000
      3      -7.0054      2.00000
      4      -5.6104      2.00000
      5      -4.8850      2.00000
      6      -4.8545      2.00000
      7      -4.7960      2.00000
      8      -4.7960      2.00000
      9      -4.4681      2.00000
     10      -4.4681      2.00000
     11      -4.4019      2.00000
     12      -4.3911      2.00000
     13      -4.3911      2.00000
     14      -4.1895      2.00000
     15      -4.1115      2.00000
     16      -4.1115      2.00000
     17      -3.9271      2.00000
     18      -3.9271      2.00000
     19      -3.8472      2.00000
     20      -3.6396      2.00000
     21      -3.6396      2.00000
     22      -3.4699      2.00000
     23      -3.2267      2.00000
     24      -3.1299      2.00000
     25      -3.0461      2.00000
     26      -3.0461      2.00000
     27      -2.9918      2.00000
     28      -2.9918      2.00000
     29      -2.8220      2.00000
     30      -2.8220      2.00000
     31      -2.6212      2.00000
     32      -2.5899      2.00000
     33      -2.4733      2.00000
     34      -2.4733      2.00000
     35      -2.3711      2.00000
     36      -2.3298      2.00000
     37      -2.3096      2.00000
     38      -2.3096      2.00000
     39      -2.2737      2.00000
     40      -2.1997      2.00000
     41      -2.1997      2.00000
     42      -2.1844      2.00000
     43      -2.0645      2.00000
     44      -2.0645      2.00000
     45      -2.0256      2.00000
     46      -1.9333      2.00000
     47      -1.9333      2.00000
     48      -1.8465      2.00000
     49      -1.7938      2.00000
     50      -1.7938      2.00000
     51      -1.7670      2.00000
     52      -1.7670      2.00000
     53      -1.7525      2.00000
     54      -1.7525      2.00000
     55      -1.6649      2.00000
     56      -1.6649      2.00000
     57      -1.6445      2.00000
     58      -1.6401      2.00000
     59      -1.6311      2.00000
     60      -1.6311      2.00000
     61      -1.6127      2.00000
     62      -1.6073      2.00000
     63      -1.6073      2.00000
     64      -1.2866      2.00000
     65      -1.2866      2.00000
     66       0.0174      0.00000
     67       1.0936      0.00000
     68       1.9399      0.00000
     69       1.9399      0.00000
     70       3.2076      0.00000
     71       3.2076      0.00000
     72       4.0017      0.00000
     73       4.6058      0.00000
     74       4.9293      0.00000
     75       4.9293      0.00000
     76       6.5980      0.00000
     77       6.9553      0.00000
     78       6.9553      0.00000
     79       7.0344      0.00000
     80       7.0344      0.00000

 k-point   2 :       0.1429    0.0000    0.0000
  band No.  band energies     occupation 
      1      -8.8310      2.00000
      2      -8.0371      2.00000
      3      -6.7892      2.00000
      4      -5.4255      2.00000
      5      -4.7944      2.00000
      6      -4.7358      2.00000
      7      -4.7323      2.00000
      8      -4.6914      2.00000
      9      -4.4350      2.00000
     10      -4.3923      2.00000
     11      -4.3369      2.00000
     12      -4.3311      2.00000
     13      -4.3174      2.00000
     14      -4.1351      2.00000
     15      -4.0986      2.00000
     16      -4.0643      2.00000
     17      -3.8978      2.00000
     18      -3.8524      2.00000
     19      -3.8104      2.00000
     20      -3.6474      2.00000
     21      -3.6190      2.00000
     22      -3.4563      2.00000
     23      -3.2405      2.00000
     24      -3.0755      2.00000
     25      -3.0737      2.00000
     26      -3.0413      2.00000
     27      -3.0211      2.00000
     28      -3.0079      2.00000
     29      -2.8934      2.00000
     30      -2.8887      2.00000
     31      -2.8292      2.00000
     32      -2.5748      2.00000
     33      -2.4855      2.00000
     34      -2.4458      2.00000
     35      -2.4380      2.00000
     36      -2.4121      2.00000
     37      -2.4107      2.00000
     38      -2.3343      2.00000
     39      -2.3069      2.00000
     40      -2.2666      2.00000
     41      -2.2161      2.00000
     42      -2.1925      2.00000
     43      -2.0768      2.00000
     44      -2.0765      2.00000
     45      -2.0576      2.00000
     46      -2.0347      2.00000
     47      -1.9911      2.00000
     48      -1.9637      2.00000
     49      -1.8856      2.00000
     50      -1.8854      2.00000
     51      -1.8637      2.00000
     52      -1.8308      2.00000
     53      -1.8000      2.00000
     54      -1.7949      2.00000
     55      -1.7932      2.00000
     56      -1.7624      2.00000
     57      -1.7424      2.00000
     58      -1.7309      2.00000
     59      -1.7043      2.00000
     60      -1.6970      2.00000
     61      -1.6744      2.00000
     62      -1.6353      2.00000
     63      -1.4438      2.00000
     64      -1.4244      2.00000
     65      -1.0825      2.00000
     66       0.4458     -0.00067
     67       0.6299      0.00000
     68       1.5896      0.00000
     69       1.7338      0.00000
     70       2.4714      0.00000
     71       3.1733      0.00000
     72       3.6457      0.00000
     73       4.2459      0.00000
     74       4.8251      0.00000
     75       4.8623      0.00000
     76       5.3010      0.00000
     77       6.7081      0.00000
     78       6.8311      0.00000
     79       7.1359      0.00000
     80       7.2827      0.00000

 k-point   3 :       0.2857    0.0000    0.0000
  band No.  band energies     occupation 
      1      -8.1213      2.00000
      2      -7.3571      2.00000
      3      -6.1748      2.00000
      4      -4.9561      2.00000
      5      -4.9309      2.00000
      6      -4.5284      2.00000
      7      -4.4156      2.00000
      8      -4.3966      2.00000
      9      -4.3437      2.00000
     10      -4.2066      2.00000
     11      -4.1615      2.00000
     12      -4.1395      2.00000
     13      -4.1106      2.00000
     14      -4.0701      2.00000
     15      -3.9989      2.00000
     16      -3.9734      2.00000
     17      -3.9334      2.00000
     18      -3.7131      2.00000
     19      -3.6720      2.00000
     20      -3.5726      2.00000
     21      -3.5130      2.00000
     22      -3.4616      2.00000
     23      -3.3820      2.00000
     24      -3.2097      2.00000
     25      -3.1600      2.00000
     26      -3.1446      2.00000
     27      -3.0498      2.00000
     28      -2.9450      2.00000
     29      -2.9177      2.00000
     30      -2.9132      2.00000
     31      -2.9128      2.00000
     32      -2.8092      2.00000
     33      -2.7951      2.00000
     34      -2.7268      2.00000
     35      -2.5824      2.00000
     36      -2.5643      2.00000
     37      -2.5031      2.00000
     38      -2.4453      2.00000
     39      -2.4434      2.00000
     40      -2.3677      2.00000
     41      -2.3110      2.00000
     42      -2.2794      2.00000
     43      -2.1983      2.00000
     44      -2.1711      2.00000
     45      -2.1628      2.00000
     46      -2.1221      2.00000
     47      -2.1212      2.00000
     48      -2.1048      2.00000
     49      -2.0877      2.00000
     50      -2.0846      2.00000
     51      -2.0144      2.00000
     52      -1.9783      2.00000
     53      -1.9698      2.00000
     54      -1.9685      2.00000
     55      -1.9170      2.00000
     56      -1.9154      2.00000
     57      -1.8736      2.00000
     58      -1.8717      2.00000
     59      -1.7867      2.00000
     60      -1.7463      2.00000
     61      -1.6991      2.00000
     62      -1.6456      2.00000
     63      -1.6171      2.00000
     64      -1.3492      2.00000
     65      -1.1673      2.00000
     66      -0.2377      0.73723
     67      -0.2349      0.67980
     68       0.9518      0.00000
     69       1.4177      0.00000
     70       2.4716      0.00000
     71       2.7358      0.00000
     72       3.7457      0.00000
     73       4.3027      0.00000
     74       4.7837      0.00000
     75       4.9784      0.00000
     76       5.4772      0.00000
     77       6.3107      0.00000
     78       6.3195      0.00000
     79       7.4916      0.00000
     80       7.5313      0.00000

 k-point   4 :       0.4286    0.0000    0.0000
  band No.  band energies     occupation 
      1      -7.0173      2.00000
      2      -6.3187      2.00000
      3      -5.7580      2.00000
      4      -5.3004      2.00000
      5      -5.1849      2.00000
      6      -4.4905      2.00000
      7      -4.3637      2.00000
      8      -4.1327      2.00000
      9      -4.0985      2.00000
     10      -4.0765      2.00000
     11      -3.9158      2.00000
     12      -3.9150      2.00000
     13      -3.9142      2.00000
     14      -3.8251      2.00000
     15      -3.8071      2.00000
     16      -3.7522      2.00000
     17      -3.7205      2.00000
     18      -3.6500      2.00000
     19      -3.5805      2.00000
     20      -3.5616      2.00000
     21      -3.5471      2.00000
     22      -3.5096      2.00000
     23      -3.4631      2.00000
     24      -3.4005      2.00000
     25      -3.3428      2.00000
     26      -3.3321      2.00000
     27      -3.2706      2.00000
     28      -3.1617      2.00000
     29      -3.0666      2.00000
     30      -2.9945      2.00000
     31      -2.9490      2.00000
     32      -2.8542      2.00000
     33      -2.6822      2.00000
     34      -2.6820      2.00000
     35      -2.6146      2.00000
     36      -2.6074      2.00000
     37      -2.5642      2.00000
     38      -2.5023      2.00000
     39      -2.4679      2.00000
     40      -2.4591      2.00000
     41      -2.4477      2.00000
     42      -2.4143      2.00000
     43      -2.4094      2.00000
     44      -2.4083      2.00000
     45      -2.4068      2.00000
     46      -2.3288      2.00000
     47      -2.2954      2.00000
     48      -2.2814      2.00000
     49      -2.2681      2.00000
     50      -2.2561      2.00000
     51      -2.1675      2.00000
     52      -2.1630      2.00000
     53      -2.1308      2.00000
     54      -2.1223      2.00000
     55      -2.1152      2.00000
     56      -2.0652      2.00000
     57      -2.0527      2.00000
     58      -1.9142      2.00000
     59      -1.8351      2.00000
     60      -1.8115      2.00000
     61      -1.8084      2.00000
     62      -1.6579      2.00000
     63      -1.6559      2.00000
     64      -1.4139      2.00000
     65      -1.4049      2.00000
     66      -0.6072      2.12080
     67      -0.5941      2.07605
     68       0.6266      0.00000
     69       0.8706      0.00000
     70       2.3509      0.00000
     71       2.7151      0.00000
     72       4.2301      0.00000
     73       4.3361      0.00000
     74       5.4304      0.00000
     75       6.0120      0.00000
     76       6.1927      0.00000
     77       6.3775      0.00000
     78       6.5510      0.00000
     79       7.4027      0.00000
     80       7.8636      0.00000

 k-point   5 :       0.1429    0.1429    0.0000
  band No.  band energies     occupation 
      1      -8.5922      2.00000
      2      -7.8094      2.00000
      3      -6.5853      2.00000
      4      -5.2660      2.00000
      5      -4.6830      2.00000
      6      -4.6830      2.00000
      7      -4.6221      2.00000
      8      -4.6114      2.00000
      9      -4.3684      2.00000
     10      -4.3684      2.00000
     11      -4.2769      2.00000
     12      -4.2524      2.00000
     13      -4.2524      2.00000
     14      -4.0905      2.00000
     15      -4.0905      2.00000
     16      -4.0770      2.00000
     17      -3.8261      2.00000
     18      -3.8261      2.00000
     19      -3.7613      2.00000
     20      -3.6213      2.00000
     21      -3.6213      2.00000
     22      -3.4316      2.00000
     23      -3.2541      2.00000
     24      -3.0646      2.00000
     25      -3.0646      2.00000
     26      -3.0315      2.00000
     27      -3.0212      2.00000
     28      -2.9889      2.00000
     29      -2.9818      2.00000
     30      -2.9379      2.00000
     31      -2.8370      2.00000
     32      -2.6953      2.00000
     33      -2.6039      2.00000
     34      -2.5240      2.00000
     35      -2.5240      2.00000
     36      -2.3894      2.00000
     37      -2.3857      2.00000
     38      -2.3775      2.00000
     39      -2.2936      2.00000
     40      -2.2796      2.00000
     41      -2.2796      2.00000
     42      -2.2604      2.00000
     43      -2.2289      2.00000
     44      -2.1969      2.00000
     45      -2.0972      2.00000
     46      -2.0972      2.00000
     47      -2.0585      2.00000
     48      -2.0037      2.00000
     49      -1.9497      2.00000
     50      -1.9497      2.00000
     51      -1.9318      2.00000
     52      -1.9318      2.00000
     53      -1.8885      2.00000
     54      -1.8394      2.00000
     55      -1.7974      2.00000
     56      -1.7974      2.00000
     57      -1.7576      2.00000
     58      -1.7506      2.00000
     59      -1.7366      2.00000
     60      -1.7366      2.00000
     61      -1.6571      2.00000
     62      -1.6214      2.00000
     63      -1.5345      2.00000
     64      -1.5345      2.00000
     65      -0.8001      2.01812
     66       0.7941     -0.00076
     67       1.1114      0.00000
     68       1.1114      0.00000
     69       2.0140      0.00000
     70       2.0904      0.00000
     71       2.0904      0.00000
     72       3.4246      0.00000
     73       3.4246      0.00000
     74       4.4902      0.00000
     75       5.0426      0.00000
     76       5.1725      0.00000
     77       5.1725      0.00000
     78       7.0440      0.00000
     79       7.0440      0.00000
     80       7.0643      0.00000

 k-point   6 :       0.2857    0.1429    0.0000
  band No.  band energies     occupation 
      1      -7.8949      2.00000
      2      -7.1505      2.00000
      3      -6.0166      2.00000
      4      -4.8667      2.00000
      5      -4.8291      2.00000
      6      -4.4794      2.00000
      7      -4.3850      2.00000
      8      -4.3394      2.00000
      9      -4.3093      2.00000
     10      -4.2215      2.00000
     11      -4.1907      2.00000
     12      -4.1481      2.00000
     13      -4.0997      2.00000
     14      -4.0763      2.00000
     15      -4.0111      2.00000
     16      -3.8976      2.00000
     17      -3.7784      2.00000
     18      -3.6768      2.00000
     19      -3.6076      2.00000
     20      -3.5093      2.00000
     21      -3.4632      2.00000
     22      -3.3953      2.00000
     23      -3.3690      2.00000
     24      -3.1497      2.00000
     25      -3.1420      2.00000
     26      -3.1315      2.00000
     27      -3.0525      2.00000
     28      -2.9639      2.00000
     29      -2.9193      2.00000
     30      -2.9151      2.00000
     31      -2.9144      2.00000
     32      -2.9008      2.00000
     33      -2.8558      2.00000
     34      -2.7823      2.00000
     35      -2.6835      2.00000
     36      -2.5709      2.00000
     37      -2.5612      2.00000
     38      -2.5052      2.00000
     39      -2.4669      2.00000
     40      -2.4484      2.00000
     41      -2.3637      2.00000
     42      -2.3399      2.00000
     43      -2.3277      2.00000
     44      -2.2839      2.00000
     45      -2.2605      2.00000
     46      -2.2297      2.00000
     47      -2.1950      2.00000
     48      -2.1796      2.00000
     49      -2.1372      2.00000
     50      -2.1365      2.00000
     51      -2.0500      2.00000
     52      -1.9963      2.00000
     53      -1.9557      2.00000
     54      -1.9203      2.00000
     55      -1.8484      2.00000
     56      -1.8438      2.00000
     57      -1.8133      2.00000
     58      -1.8086      2.00000
     59      -1.7967      2.00000
     60      -1.6999      2.00000
     61      -1.6644      2.00000
     62      -1.6613      2.00000
     63      -1.6613      2.00000
     64      -1.3510      2.00000
     65      -0.7075      2.00499
     66      -0.0716      0.26918
     67       0.0335      0.08189
     68       1.1293      0.00000
     69       1.6705      0.00000
     70       2.1676      0.00000
     71       2.5445      0.00000
     72       2.9281      0.00000
     73       3.0642      0.00000
     74       4.4606      0.00000
     75       4.5962      0.00000
     76       5.2223      0.00000
     77       5.6843      0.00000
     78       6.0900      0.00000
     79       6.5731      0.00000
     80       7.2133      0.00000

 k-point   7 :       0.4286    0.1429    0.0000
  band No.  band energies     occupation 
      1      -6.8161      2.00000
      2      -6.1596      2.00000
      3      -5.5984      2.00000
      4      -5.2474      2.00000
      5      -5.1085      2.00000
      6      -4.5841      2.00000
      7      -4.4607      2.00000
      8      -4.2428      2.00000
      9      -4.0645      2.00000
     10      -4.0385      2.00000
     11      -4.0054      2.00000
     12      -3.9980      2.00000
     13      -3.8477      2.00000
     14      -3.8476      2.00000
     15      -3.7502      2.00000
     16      -3.6968      2.00000
     17      -3.6153      2.00000
     18      -3.5981      2.00000
     19      -3.5442      2.00000
     20      -3.4491      2.00000
     21      -3.3839      2.00000
     22      -3.3822      2.00000
     23      -3.3614      2.00000
     24      -3.3599      2.00000
     25      -3.3406      2.00000
     26      -3.2833      2.00000
     27      -3.2127      2.00000
     28      -3.0724      2.00000
     29      -3.0424      2.00000
     30      -2.9854      2.00000
     31      -2.9758      2.00000
     32      -2.9226      2.00000
     33      -2.7796      2.00000
     34      -2.7637      2.00000
     35      -2.6832      2.00000
     36      -2.6717      2.00000
     37      -2.6416      2.00000
     38      -2.6318      2.00000
     39      -2.5929      2.00000
     40      -2.5479      2.00000
     41      -2.5404      2.00000
     42      -2.5384      2.00000
     43      -2.4900      2.00000
     44      -2.3978      2.00000
     45      -2.3891      2.00000
     46      -2.3767      2.00000
     47      -2.3017      2.00000
     48      -2.1811      2.00000
     49      -2.1743      2.00000
     50      -2.1106      2.00000
     51      -2.1042      2.00000
     52      -2.0942      2.00000
     53      -2.0312      2.00000
     54      -2.0012      2.00000
     55      -1.9396      2.00000
     56      -1.9303      2.00000
     57      -1.9109      2.00000
     58      -1.9009      2.00000
     59      -1.8009      2.00000
     60      -1.7717      2.00000
     61      -1.7373      2.00000
     62      -1.7087      2.00000
     63      -1.6433      2.00000
     64      -1.4387      2.00000
     65      -1.3207      2.03617
     66      -0.5757      2.04714
     67      -0.5558      1.94921
     68       0.6921      0.00000
     69       0.9882      0.00000
     70       2.3953      0.00000
     71       2.8872      0.00000
     72       3.4619      0.00000
     73       4.4706      0.00000
     74       4.4880      0.00000
     75       4.5710      0.00000
     76       5.2471      0.00000
     77       5.8254      0.00000
     78       6.1281      0.00000
     79       6.2605      0.00000
     80       6.4353      0.00000

 k-point   8 :       0.2857    0.2857    0.0000
  band No.  band energies     occupation 
      1      -7.2399      2.00000
      2      -6.5678      2.00000
      3      -5.6100      2.00000
      4      -4.7410      2.00000
      5      -4.5572      2.00000
      6      -4.5572      2.00000
      7      -4.4723      2.00000
      8      -4.4723      2.00000
      9      -4.2514      2.00000
     10      -4.2163      2.00000
     11      -4.2163      2.00000
     12      -4.1703      2.00000
     13      -3.9596      2.00000
     14      -3.8380      2.00000
     15      -3.8380      2.00000
     16      -3.6809      2.00000
     17      -3.6163      2.00000
     18      -3.6163      2.00000
     19      -3.3967      2.00000
     20      -3.3136      2.00000
     21      -3.3136      2.00000
     22      -3.3032      2.00000
     23      -3.2228      2.00000
     24      -3.1263      2.00000
     25      -3.1263      2.00000
     26      -3.1221      2.00000
     27      -3.1041      2.00000
     28      -3.0497      2.00000
     29      -3.0497      2.00000
     30      -3.0038      2.00000
     31      -2.9339      2.00000
     32      -2.9236      2.00000
     33      -2.8624      2.00000
     34      -2.8543      2.00000
     35      -2.7629      2.00000
     36      -2.6825      2.00000
     37      -2.6579      2.00000
     38      -2.6579      2.00000
     39      -2.6348      2.00000
     40      -2.6331      2.00000
     41      -2.5446      2.00000
     42      -2.5446      2.00000
     43      -2.4429      2.00000
     44      -2.4146      2.00000
     45      -2.4146      2.00000
     46      -2.3548      2.00000
     47      -2.1005      2.00000
     48      -2.1005      2.00000
     49      -2.0979      2.00000
     50      -2.0864      2.00000
     51      -2.0591      2.00000
     52      -1.9890      2.00000
     53      -1.9810      2.00000
     54      -1.9353      2.00000
     55      -1.9353      2.00000
     56      -1.8310      2.00000
     57      -1.7679      2.00000
     58      -1.7679      2.00000
     59      -1.7562      2.00000
     60      -1.7007      2.00000
     61      -1.6813      2.00000
     62      -1.6813      2.00000
     63      -1.6653      2.00000
     64      -1.1765      2.00000
     65       0.1517      0.88316
     66       0.1517     -0.06533
     67       0.4381     -0.31430
     68       0.6832     -0.00219
     69       0.6832      0.00000
     70       1.4535      0.00000
     71       1.4535      0.00000
     72       2.3415      0.00000
     73       3.7389      0.00000
     74       3.7390      0.00000
     75       3.9150      0.00000
     76       4.8348      0.00000
     77       5.4750      0.00000
     78       5.4750      0.00000
     79       5.7472      0.00000
     80       5.9525      0.00000

 k-point   9 :       0.4286    0.2857    0.0000
  band No.  band energies     occupation 
      1      -6.2523      2.00000
      2      -5.7490      2.00000
      3      -5.1953      2.00000
      4      -5.1409      2.00000
      5      -4.9813      2.00000
      6      -4.7551      2.00000
      7      -4.6209      2.00000
      8      -4.4977      2.00000
      9      -4.1954      2.00000
     10      -4.1813      2.00000
     11      -4.0302      2.00000
     12      -3.9880      2.00000
     13      -3.8005      2.00000
     14      -3.6956      2.00000
     15      -3.5550      2.00000
     16      -3.5332      2.00000
     17      -3.5127      2.00000
     18      -3.4933      2.00000
     19      -3.4732      2.00000
     20      -3.2543      2.00000
     21      -3.2540      2.00000
     22      -3.2174      2.00000
     23      -3.2065      2.00000
     24      -3.2003      2.00000
     25      -3.0916      2.00000
     26      -3.0747      2.00000
     27      -3.0616      2.00000
     28      -3.0584      2.00000
     29      -3.0532      2.00000
     30      -3.0027      2.00000
     31      -2.9828      2.00000
     32      -2.9825      2.00000
     33      -2.8721      2.00000
     34      -2.8479      2.00000
     35      -2.8332      2.00000
     36      -2.7676      2.00000
     37      -2.7365      2.00000
     38      -2.7306      2.00000
     39      -2.7023      2.00000
     40      -2.6254      2.00000
     41      -2.5060      2.00000
     42      -2.4997      2.00000
     43      -2.4587      2.00000
     44      -2.4518      2.00000
     45      -2.4395      2.00000
     46      -2.3185      2.00000
     47      -2.2882      2.00000
     48      -2.1254      2.00000
     49      -2.0678      2.00000
     50      -2.0193      2.00000
     51      -1.9890      2.00000
     52      -1.9589      2.00000
     53      -1.8825      2.00000
     54      -1.8477      2.00000
     55      -1.8401      2.00000
     56      -1.8326      2.00000
     57      -1.8116      2.00000
     58      -1.8009      2.00000
     59      -1.7666      2.00000
     60      -1.7422      2.00000
     61      -1.7375      2.00000
     62      -1.6864      2.00000
     63      -1.5324      2.00000
     64      -1.1465      2.00000
     65      -0.9466      2.05158
     66      -0.4874      1.92623
     67      -0.3884      1.69458
     68       0.6820     -0.07802
     69       1.2214      0.00000
     70       1.2665      0.00000
     71       1.4561      0.00000
     72       2.5336      0.00000
     73       3.5216      0.00000
     74       3.5281      0.00000
     75       3.7487      0.00000
     76       3.8195      0.00000
     77       5.0596      0.00000
     78       5.1846      0.00000
     79       5.3431      0.00000
     80       5.3497      0.00000

 k-point  10 :       0.4286    0.4286    0.0000
  band No.  band energies     occupation 
      1      -5.4797      2.00000
      2      -5.2859      2.00000
      3      -5.0358      2.00000
      4      -4.9782      2.00000
      5      -4.9782      2.00000
      6      -4.7976      2.00000
      7      -4.7976      2.00000
      8      -4.7152      2.00000
      9      -4.3182      2.00000
     10      -4.2711      2.00000
     11      -4.2711      2.00000
     12      -4.1340      2.00000
     13      -3.5507      2.00000
     14      -3.4401      2.00000
     15      -3.4401      2.00000
     16      -3.3609      2.00000
     17      -3.3603      2.00000
     18      -3.3371      2.00000
     19      -3.3371      2.00000
     20      -3.2562      2.00000
     21      -3.2562      2.00000
     22      -3.2325      2.00000
     23      -3.1833      2.00000
     24      -3.1618      2.00000
     25      -3.0990      2.00000
     26      -3.0990      2.00000
     27      -3.0530      2.00000
     28      -3.0451      2.00000
     29      -2.9700      2.00000
     30      -2.9260      2.00000
     31      -2.9260      2.00000
     32      -2.9252      2.00000
     33      -2.8629      2.00000
     34      -2.8629      2.00000
     35      -2.8521      2.00000
     36      -2.8225      2.00000
     37      -2.7025      2.00000
     38      -2.7007      2.00000
     39      -2.6695      2.00000
     40      -2.6695      2.00000
     41      -2.5304      2.00000
     42      -2.4770      2.00000
     43      -2.4602      2.00000
     44      -2.4601      2.00000
     45      -2.1490      2.00000
     46      -2.1010      2.00000
     47      -2.0989      2.00000
     48      -2.0989      2.00000
     49      -2.0013      2.00000
     50      -2.0003      2.00000
     51      -2.0003      2.00000
     52      -1.8820      2.00000
     53      -1.8392      2.00000
     54      -1.7960      2.00000
     55      -1.7960      2.00000
     56      -1.7760      2.00000
     57      -1.7523      2.00000
     58      -1.7523      2.00000
     59      -1.7511      2.00000
     60      -1.7031      2.00000
     61      -1.4888      2.00000
     62      -1.3395      2.00000
     63      -1.2050      2.00000
     64      -0.4441      2.00000
     65      -0.4441      1.95961
     66      -0.3214      1.89640
     67      -0.3214      1.84318
     68      -0.2577      0.70299
     69      -0.0007      0.00000
     70      -0.0007      0.00000
     71       0.7751      0.00000
     72       0.8713      0.00000
     73       3.1154      0.00000
     74       3.1154      0.00000
     75       3.1884      0.00000
     76       3.2143      0.00000
     77       4.7556      0.00000
     78       4.7944      0.00000
     79       4.7945      0.00000
     80       4.9728      0.00000


--------------------------------------------------------------------------------------------------------


 soft charge-density along one line, spin component           1
         0         1         2         3         4         5         6         7         8         9
 total charge-density along one line
 
 pseudopotential strength for first ion, spin component:           1
 -9.062   0.000   0.000   0.000   0.000   0.927   0.000   0.000
  0.000  -9.036   0.000   0.000   0.000   0.000   0.915   0.000
  0.000   0.000  -9.020   0.000   0.000   0.000   0.000   0.907
  0.000   0.000   0.000  -9.036   0.000   0.000   0.000   0.000
  0.000   0.000   0.000   0.000  -9.038   0.000   0.000   0.000
  0.927   0.000   0.000   0.000   0.000   1.149   0.000   0.000
  0.000   0.915   0.000   0.000   0.000   0.000   1.154   0.000
  0.000   0.000   0.907   0.000   0.000   0.000   0.000   1.158
  0.000   0.000   0.000   0.915   0.000   0.000   0.000   0.000
  0.000   0.000   0.000   0.000   0.917   0.000   0.000   0.000
  0.000   0.000  -0.005   0.000   0.000   0.000   0.000   0.002
  0.000   0.000   0.000   0.000   0.000   0.000   0.000   0.000
  0.000  -0.014   0.000   0.000   0.000   0.000   0.007   0.000
  0.000   0.000  -0.015   0.000   0.000   0.000   0.000   0.008
  0.000   0.000   0.000  -0.014   0.000   0.000   0.000   0.000
  0.000   0.007   0.000   0.000   0.000   0.000  -0.004   0.000
  0.000   0.000   0.009   0.000   0.000   0.000   0.000  -0.004
  0.000   0.000   0.000   0.007   0.000   0.000   0.000   0.000
 total augmentation occupancy for first ion, spin component:           1
  1.916   0.000   0.000   0.000   0.000   0.003   0.000   0.000   0.000   0.000   0.000   0.000   0.000   0.000   0.000   0.000
  0.000   1.920   0.000   0.000   0.000   0.000  -0.036   0.000   0.000   0.000   0.000   0.000   0.013   0.000   0.000  -0.008
  0.000   0.000   1.932   0.000   0.000   0.000   0.000  -0.059   0.000   0.000   0.019   0.031   0.000   0.015   0.000   0.000
  0.000   0.000   0.000   1.920   0.000   0.000   0.000   0.000  -0.036   0.000   0.000   0.000   0.000   0.000   0.013   0.000
  0.000   0.000   0.000   0.000   1.919   0.000   0.000   0.000   0.000  -0.054   0.000   0.000   0.000   0.000   0.000   0.000
  0.003   0.000   0.000   0.000   0.000   0.058   0.000   0.000   0.000   0.000   0.000   0.000   0.000   0.000   0.000   0.000
  0.000  -0.036   0.000   0.000   0.000   0.000   0.044   0.000   0.000   0.000   0.000   0.000   0.043   0.000   0.000  -0.003
  0.000   0.000  -0.059   0.000   0.000   0.000   0.000   0.050   0.000   0.000  -0.062   0.009   0.000   0.037   0.000   0.000
  0.000   0.000   0.000  -0.036   0.000   0.000   0.000   0.000   0.044   0.000   0.000   0.000   0.000   0.000   0.043   0.000
  0.000   0.000   0.000   0.000  -0.054   0.000   0.000   0.000   0.000   0.054   0.000   0.000   0.000   0.000   0.000   0.000
  0.000   0.000   0.019   0.000   0.000   0.000   0.000  -0.062   0.000   0.000   1.220  -0.272   0.000   0.090   0.000   0.000
  0.000   0.000   0.031   0.000   0.000   0.000   0.000   0.009   0.000   0.000  -0.272   0.105   0.000  -0.052   0.000   0.000
  0.000   0.013   0.000   0.000   0.000   0.000   0.043   0.000   0.000   0.000   0.000   0.000   0.147   0.000   0.000  -0.009
  0.000   0.000   0.015   0.000   0.000   0.000   0.000   0.037   0.000   0.000   0.090  -0.052   0.000   0.086   0.000   0.000
  0.000   0.000   0.000   0.013   0.000   0.000   0.000   0.000   0.043   0.000   0.000   0.000   0.000   0.000   0.147   0.000
  0.000  -0.008   0.000   0.000   0.000   0.000  -0.003   0.000   0.000   0.000   0.000   0.000  -0.009   0.000   0.000   0.001
  0.000   0.000  -0.009   0.000   0.000   0.000   0.000  -0.002   0.000   0.000  -0.016   0.007   0.000  -0.007   0.000   0.000
  0.000   0.000   0.000  -0.008   0.000   0.000   0.000   0.000  -0.003   0.000   0.000   0.000   0.000   0.000  -0.009   0.000


------------------------ aborting loop because EDIFF is reached ----------------------------------------


    CHARGE:  cpu time    1.34: real time    1.34
    FORLOC:  cpu time    0.05: real time    0.05
    FORNL :  cpu time   23.01: real time   23.01
    STRESS:  cpu time   62.53: real time   62.54
    FORCOR:  cpu time    0.46: real time    0.47
    FORHAR:  cpu time    0.16: real time    0.15
    MIXING:  cpu time    0.02: real time    0.02

  FORCE on cell =-STRESS in cart. coord.  units (eV):
  Direction    XX          YY          ZZ          XY          YZ          ZX
  --------------------------------------------------------------------------------------
  Alpha Z   667.73723   667.73723   667.73723
  Ewald   44686.20193 44686.20193-53350.36174     0.00000     0.00000     0.00000
  Hartree 49263.97874 49263.97874-46721.91555     0.00000     0.00000     0.00000
  E(xc)    -750.67239  -750.67239  -751.63629     0.00000     0.00000     0.00000
  Local  -95039.62103-95039.62103 98981.15911     0.00000     0.00000     0.00000
  n-local  -439.32634  -451.66827  -446.54082     3.82228     0.00000     0.00000
  augment   674.79083   674.79084   676.19907    -0.00004    -0.00002    -0.00003
  Kinetic   954.37546   926.24449   943.94882    -3.68068     0.00000     0.00000
  Fock        0.00000     0.00000     0.00000     0.00000     0.00000     0.00000
  -------------------------------------------------------------------------------------
  Total      -2.77200    -2.77200    -1.41017     0.00000     0.00000     0.00000
  in kB     -16.11920   -16.11920    -8.20017     0.00000     0.00000     0.00000
  external pressure =      -13.48 kB  Pullay stress =        0.00 kB


 VOLUME and BASIS-vectors are now :
 -----------------------------------------------------------------------------
  energy-cutoff  :      415.00
  volume of cell :      275.52
      direct lattice vectors                 reciprocal lattice vectors
     3.631354857  0.000000000  0.000000000     0.275379311  0.000000000  0.000000000
     0.000000000  3.631354857  0.000000000     0.000000000  0.275379311  0.000000000
     0.000000000  0.000000000 20.894064570     0.000000000  0.000000000  0.047860482

  length of vectors
     3.631354857  3.631354857 20.894064570     0.275379311  0.275379311  0.047860482


 FORCES acting on ions
    electron-ion (+dipol)            ewald-force                    non-local-force                 convergence-correction
 -----------------------------------------------------------------------------------------------
   -.859E-13 0.408E-13 0.392E+04   -.954E-14 0.307E-14 -.391E+04   0.129E-25 -.517E-25 -.268E+01   -.325E-13 0.448E-13 -.319E-02
   -.754E-13 -.356E-13 0.794E+03   -.202E-13 0.235E-14 -.794E+03   0.000E+00 0.465E-24 0.190E-01   -.466E-15 -.315E-13 0.821E-04
   -.283E-13 -.807E-16 -.238E+04   -.159E-13 -.657E-14 0.238E+04   0.103E-24 0.207E-24 0.745E+00   0.107E-12 0.755E-13 0.254E-02
   0.573E-12 0.105E-11 0.392E+04   -.239E-13 -.128E-13 -.391E+04   0.242E-25 0.129E-25 -.268E+01   0.165E-13 0.775E-13 -.319E-02
   0.647E-12 0.776E-12 0.794E+03   -.319E-13 -.130E-13 -.794E+03   0.000E+00 -.207E-24 0.190E-01   0.336E-13 -.231E-14 0.821E-04
   0.665E-12 0.585E-12 -.238E+04   -.279E-13 -.218E-13 0.238E+04   -.103E-24 0.246E-24 0.745E+00   0.114E-12 0.930E-13 0.254E-02
   0.587E-12 0.939E-13 0.238E+04   0.140E-13 0.234E-13 -.238E+04   0.103E-24 -.310E-24 -.745E+00   0.489E-13 -.323E-13 -.243E-02
   0.631E-12 -.538E-13 -.794E+03   0.101E-13 0.100E-13 0.794E+03   0.103E-24 0.414E-24 -.190E-01   0.268E-13 0.837E-13 -.483E-04
   0.643E-12 -.517E-14 -.392E+04   0.527E-14 0.155E-13 0.391E+04   0.775E-25 0.000E+00 0.268E+01   0.128E-12 0.478E-13 0.326E-02
   -.804E-13 0.680E-12 0.238E+04   0.240E-14 0.804E-14 -.238E+04   -.103E-24 -.103E-24 -.745E+00   0.127E-13 -.665E-13 -.243E-02
   -.322E-13 0.732E-12 -.794E+03   -.189E-14 -.743E-14 0.794E+03   0.103E-24 -.414E-24 -.190E-01   -.408E-14 0.401E-13 -.483E-04
   0.185E-13 0.551E-12 -.392E+04   -.965E-14 -.222E-14 0.391E+04   -.258E-25 -.103E-24 0.268E+01   0.187E-12 0.335E-13 0.326E-02
 -----------------------------------------------------------------------------------------------
   0.346E-11 0.442E-11 -.182E-03   -.109E-12 -.129E-14 0.909E-12   0.296E-24 0.155E-24 -.888E-15   0.638E-12 0.363E-12 0.431E-03
 
 
 POSITION                                       TOTAL-FORCE (eV/Angst)
 -----------------------------------------------------------------------------------
      0.00000      0.00000      0.00762         0.000000      0.000000      0.103113
      0.00000      0.00000      3.63325         0.000000      0.000000     -0.006091
      0.00000      0.00000      7.27136         0.000000      0.000000      0.089931
      1.81568      1.81568      0.00762         0.000000      0.000000      0.103113
      1.81568      1.81568      3.63325         0.000000      0.000000     -0.006091
      1.81568      1.81568      7.27136         0.000000      0.000000      0.089931
      1.81568      0.00000      1.80703         0.000000      0.000000     -0.089931
      1.81568      0.00000      5.44514         0.000000      0.000000      0.006091
      1.81568      0.00000      9.07077         0.000000      0.000000     -0.103113
      0.00000      1.81568      1.80703         0.000000      0.000000     -0.089931
      0.00000      1.81568      5.44514         0.000000      0.000000      0.006091
      0.00000      1.81568      9.07077         0.000000      0.000000     -0.103113
 -----------------------------------------------------------------------------------
    total drift:                                0.000000      0.000000      0.000249


--------------------------------------------------------------------------------------------------------



  FREE ENERGIE OF THE ION-ELECTRON SYSTEM (eV)
  ---------------------------------------------------
  free  energy   TOTEN  =       -42.217732 eV

  energy  without entropy=      -42.217732  energy(sigma->0) =      -42.217732
 
 d Force = 0.4639153E-02[ 0.373E-02, 0.555E-02]  d Energy = 0.4706220E-02-0.671E-04
 d Force =-0.2570258E+02[-0.258E+02,-0.256E+02]  d Ewald  =-0.2570266E+02 0.745E-04


--------------------------------------------------------------------------------------------------------


    POTLOK:  cpu time    0.50: real time    0.51


--------------------------------------------------------------------------------------------------------




--------------------------------------------------------------------------------------------------------


    WAVPRE:  cpu time    0.10: real time    0.10
    FEWALD:  cpu time    0.00: real time    0.00
    ORTHCH:  cpu time    7.71: real time    7.71
     LOOP+:  cpu time  511.88: real time  511.96


----------------------------------------- Iteration    5(   1)  ---------------------------------------


    POTLOK:  cpu time    0.44: real time    0.44
    SETDIJ:  cpu time    0.06: real time    0.06
     EDDAV:  cpu time   53.42: real time   53.43
 BZINTS: Fermi energy: -0.235754;132.000000 electrons
         Band energy:-394.762949;  BLOECHL correction: -0.141147
       DOS:  cpu time    0.04: real time    0.04
    CHARGE:  cpu time    1.34: real time    1.34
    MIXING:  cpu time    0.02: real time    0.01
    --------------------------------------------
      LOOP:  cpu time   55.32: real time   55.33

 eigenvalue-minimisations  :  1600
 total energy-change (2. order) :-0.3099099E-02  (-0.4160586E+00)
 number of electron     131.9999680 magnetization 
 augmentation part       86.4609172 magnetization 

 Broyden mixing:
  rms(total) = 0.13735E-01    rms(broyden)= 0.13724E-01
  rms(prec ) = 0.14452E-01
  weight for this iteration     100.00

 Free energy of the ion-electron system (eV)
  ---------------------------------------------------
  alpha Z        PSCENC =       667.73722884
  Ewald energy   TEWEN  =     36073.78560533
  -1/2 Hartree   DENC   =    -51857.24749428
  -exchange  EXHF       =         0.00000000
  -V(xc)+E(xc)   XCENC  =       512.09257617
  PAW double counting   =     13115.78042153   -14851.26322775
  entropy T*S    EENTRO =         0.00000000
  eigenvalues    EBANDS =      -394.76294927
  atomic energy  EATOM  =     16691.65700843
  ---------------------------------------------------
  free energy    TOTEN  =       -42.22083101 eV

  energy without entropy =      -42.22083101  energy(sigma->0) =      -42.22083101


--------------------------------------------------------------------------------------------------------




----------------------------------------- Iteration    5(   2)  ---------------------------------------


    POTLOK:  cpu time    0.44: real time    0.44
    SETDIJ:  cpu time    0.06: real time    0.06
     EDDAV:  cpu time   54.35: real time   54.35
 BZINTS: Fermi energy: -0.235427;132.000000 electrons
         Band energy:-394.844367;  BLOECHL correction: -0.141382
       DOS:  cpu time    0.04: real time    0.04
    CHARGE:  cpu time    1.34: real time    1.35
    MIXING:  cpu time    0.02: real time    0.02
    --------------------------------------------
      LOOP:  cpu time   56.25: real time   56.25

 eigenvalue-minimisations  :  1640
 total energy-change (2. order) :-0.1415861E-02  (-0.1636204E-02)
 number of electron     131.9999680 magnetization 
 augmentation part       86.4704868 magnetization 

 Broyden mixing:
  rms(total) = 0.10138E-01    rms(broyden)= 0.10136E-01
  rms(prec ) = 0.10786E-01
  weight for this iteration     100.00

 eigenvalues of (default mixing * dielectric matrix)
  average eigenvalue GAMMA=   0.9305
  0.9305

 Free energy of the ion-electron system (eV)
  ---------------------------------------------------
  alpha Z        PSCENC =       667.73722884
  Ewald energy   TEWEN  =     36073.78560533
  -1/2 Hartree   DENC   =    -51857.21424036
  -exchange  EXHF       =         0.00000000
  -V(xc)+E(xc)   XCENC  =       512.07272842
  PAW double counting   =     13116.58127651   -14851.99748661
  entropy T*S    EENTRO =         0.00000000
  eigenvalues    EBANDS =      -394.84436743
  atomic energy  EATOM  =     16691.65700843
  ---------------------------------------------------
  free energy    TOTEN  =       -42.22224687 eV

  energy without entropy =      -42.22224687  energy(sigma->0) =      -42.22224687


--------------------------------------------------------------------------------------------------------




----------------------------------------- Iteration    5(   3)  ---------------------------------------


    POTLOK:  cpu time    0.45: real time    0.45
    SETDIJ:  cpu time    0.06: real time    0.06
     EDDAV:  cpu time   54.61: real time   54.61
 BZINTS: Fermi energy: -0.236073;132.000000 electrons
         Band energy:-394.882634;  BLOECHL correction: -0.141059
       DOS:  cpu time    0.04: real time    0.04
    CHARGE:  cpu time    1.34: real time    1.34
    MIXING:  cpu time    0.02: real time    0.02
    --------------------------------------------
      LOOP:  cpu time   56.51: real time   56.51

 eigenvalue-minimisations  :  1648
 total energy-change (2. order) : 0.1292210E-03  (-0.2565166E-03)
 number of electron     131.9999680 magnetization 
 augmentation part       86.4683548 magnetization 

 Broyden mixing:
  rms(total) = 0.93287E-02    rms(broyden)= 0.93283E-02
  rms(prec ) = 0.10246E-01
  weight for this iteration     100.00

 eigenvalues of (default mixing * dielectric matrix)
  average eigenvalue GAMMA=   1.3562
  0.3793  2.3331

 Free energy of the ion-electron system (eV)
  ---------------------------------------------------
  alpha Z        PSCENC =       667.73722884
  Ewald energy   TEWEN  =     36073.78560533
  -1/2 Hartree   DENC   =    -51857.07386178
  -exchange  EXHF       =         0.00000000
  -V(xc)+E(xc)   XCENC  =       512.07797774
  PAW double counting   =     13117.58056822   -14853.10401084
  entropy T*S    EENTRO =         0.00000000
  eigenvalues    EBANDS =      -394.88263359
  atomic energy  EATOM  =     16691.65700843
  ---------------------------------------------------
  free energy    TOTEN  =       -42.22211765 eV

  energy without entropy =      -42.22211765  energy(sigma->0) =      -42.22211765


--------------------------------------------------------------------------------------------------------




----------------------------------------- Iteration    5(   4)  ---------------------------------------


    POTLOK:  cpu time    0.44: real time    0.44
    SETDIJ:  cpu time    0.06: real time    0.06
     EDDAV:  cpu time   57.31: real time   57.31
 BZINTS: Fermi energy: -0.232486;132.000000 electrons
         Band energy:-394.321090;  BLOECHL correction: -0.141233
       DOS:  cpu time    0.04: real time    0.04
    CHARGE:  cpu time    1.36: real time    1.36
    MIXING:  cpu time    0.02: real time    0.02
    --------------------------------------------
      LOOP:  cpu time   59.24: real time   59.24

 eigenvalue-minimisations  :  1760
 total energy-change (2. order) : 0.3721478E-04  (-0.3932790E-04)
 number of electron     131.9999680 magnetization 
 augmentation part       86.4628943 magnetization 

 Broyden mixing:
  rms(total) = 0.22102E-02    rms(broyden)= 0.22100E-02
  rms(prec ) = 0.23856E-02
  weight for this iteration     100.00

 eigenvalues of (default mixing * dielectric matrix)
  average eigenvalue GAMMA=   1.2489
  2.6726  0.6736  0.4003

 Free energy of the ion-electron system (eV)
  ---------------------------------------------------
  alpha Z        PSCENC =       667.73722884
  Ewald energy   TEWEN  =     36073.78560533
  -1/2 Hartree   DENC   =    -51857.49129748
  -exchange  EXHF       =         0.00000000
  -V(xc)+E(xc)   XCENC  =       512.08186205
  PAW double counting   =     13119.19031408   -14854.86171212
  entropy T*S    EENTRO =         0.00000000
  eigenvalues    EBANDS =      -394.32108957
  atomic energy  EATOM  =     16691.65700843
  ---------------------------------------------------
  free energy    TOTEN  =       -42.22208043 eV

  energy without entropy =      -42.22208043  energy(sigma->0) =      -42.22208043


--------------------------------------------------------------------------------------------------------




----------------------------------------- Iteration    5(   5)  ---------------------------------------


    POTLOK:  cpu time    0.44: real time    0.44
    SETDIJ:  cpu time    0.06: real time    0.06
     EDDAV:  cpu time   61.38: real time   61.40
 BZINTS: Fermi energy: -0.234031;132.000000 electrons
         Band energy:-394.609386;  BLOECHL correction: -0.141144
       DOS:  cpu time    0.04: real time    0.04
    CHARGE:  cpu time    1.37: real time    1.37
    MIXING:  cpu time    0.02: real time    0.02
    --------------------------------------------
      LOOP:  cpu time   63.31: real time   63.32

 eigenvalue-minimisations  :  1920
 total energy-change (2. order) : 0.8641163E-04  (-0.1304331E-04)
 number of electron     131.9999680 magnetization 
 augmentation part       86.4663358 magnetization 

 Broyden mixing:
  rms(total) = 0.91189E-03    rms(broyden)= 0.91179E-03
  rms(prec ) = 0.11106E-02
  weight for this iteration     100.00

 eigenvalues of (default mixing * dielectric matrix)
  average eigenvalue GAMMA=   1.1160
  2.5589  0.3829  0.7610  0.7610

 Free energy of the ion-electron system (eV)
  ---------------------------------------------------
  alpha Z        PSCENC =       667.73722884
  Ewald energy   TEWEN  =     36073.78560533
  -1/2 Hartree   DENC   =    -51857.25659877
  -exchange  EXHF       =         0.00000000
  -V(xc)+E(xc)   XCENC  =       512.07382098
  PAW double counting   =     13119.14566541   -14854.75533875
  entropy T*S    EENTRO =         0.00000000
  eigenvalues    EBANDS =      -394.60938550
  atomic energy  EATOM  =     16691.65700843
  ---------------------------------------------------
  free energy    TOTEN  =       -42.22199402 eV

  energy without entropy =      -42.22199402  energy(sigma->0) =      -42.22199402


--------------------------------------------------------------------------------------------------------




----------------------------------------- Iteration    5(   6)  ---------------------------------------


    POTLOK:  cpu time    0.44: real time    0.44
    SETDIJ:  cpu time    0.06: real time    0.06
     EDDAV:  cpu time   55.34: real time   55.34
 BZINTS: Fermi energy: -0.233700;132.000000 electrons
         Band energy:-394.571276;  BLOECHL correction: -0.141198
       DOS:  cpu time    0.04: real time    0.04
    CHARGE:  cpu time    1.33: real time    1.33
    MIXING:  cpu time    0.02: real time    0.02
    --------------------------------------------
      LOOP:  cpu time   57.23: real time   57.24

 eigenvalue-minimisations  :  1680
 total energy-change (2. order) :-0.2760460E-04  (-0.2970559E-05)
 number of electron     131.9999680 magnetization 
 augmentation part       86.4668872 magnetization 

 Broyden mixing:
  rms(total) = 0.86931E-03    rms(broyden)= 0.86928E-03
  rms(prec ) = 0.92821E-03
  weight for this iteration     100.00

 eigenvalues of (default mixing * dielectric matrix)
  average eigenvalue GAMMA=   0.9618
  2.4921  0.8406  0.8406  0.3832  0.2524

 Free energy of the ion-electron system (eV)
  ---------------------------------------------------
  alpha Z        PSCENC =       667.73722884
  Ewald energy   TEWEN  =     36073.78560533
  -1/2 Hartree   DENC   =    -51857.30886925
  -exchange  EXHF       =         0.00000000
  -V(xc)+E(xc)   XCENC  =       512.07288034
  PAW double counting   =     13119.06252627   -14854.65712524
  entropy T*S    EENTRO =         0.00000000
  eigenvalues    EBANDS =      -394.57127635
  atomic energy  EATOM  =     16691.65700843
  ---------------------------------------------------
  free energy    TOTEN  =       -42.22202163 eV

  energy without entropy =      -42.22202163  energy(sigma->0) =      -42.22202163


--------------------------------------------------------------------------------------------------------




----------------------------------------- Iteration    5(   7)  ---------------------------------------


    POTLOK:  cpu time    0.44: real time    0.44
    SETDIJ:  cpu time    0.06: real time    0.06
     EDDAV:  cpu time   53.57: real time   53.58
 BZINTS: Fermi energy: -0.233699;132.000000 electrons
         Band energy:-394.568978;  BLOECHL correction: -0.141188
       DOS:  cpu time    0.04: real time    0.04
    CHARGE:  cpu time    1.32: real time    1.32
    MIXING:  cpu time    0.02: real time    0.02
    --------------------------------------------
      LOOP:  cpu time   55.46: real time   55.47

 eigenvalue-minimisations  :  1608
 total energy-change (2. order) : 0.3146924E-05  (-0.3858727E-06)
 number of electron     131.9999680 magnetization 
 augmentation part       86.4671287 magnetization 

 Broyden mixing:
  rms(total) = 0.47072E-03    rms(broyden)= 0.47072E-03
  rms(prec ) = 0.50201E-03
  weight for this iteration     100.00

 eigenvalues of (default mixing * dielectric matrix)
  average eigenvalue GAMMA=   1.1653
  2.2236  2.2236  0.9075  0.9075  0.3899  0.3397

 Free energy of the ion-electron system (eV)
  ---------------------------------------------------
  alpha Z        PSCENC =       667.73722884
  Ewald energy   TEWEN  =     36073.78560533
  -1/2 Hartree   DENC   =    -51857.31515275
  -exchange  EXHF       =         0.00000000
  -V(xc)+E(xc)   XCENC  =       512.07272926
  PAW double counting   =     13119.03117330   -14854.62163297
  entropy T*S    EENTRO =         0.00000000
  eigenvalues    EBANDS =      -394.56897792
  atomic energy  EATOM  =     16691.65700843
  ---------------------------------------------------
  free energy    TOTEN  =       -42.22201848 eV

  energy without entropy =      -42.22201848  energy(sigma->0) =      -42.22201848


--------------------------------------------------------------------------------------------------------




----------------------------------------- Iteration    5(   8)  ---------------------------------------


    POTLOK:  cpu time    0.44: real time    0.44
    SETDIJ:  cpu time    0.06: real time    0.06
     EDDAV:  cpu time   38.84: real time   38.84
 BZINTS: Fermi energy: -0.233503;132.000000 electrons
         Band energy:-394.539679;  BLOECHL correction: -0.141180
       DOS:  cpu time    0.04: real time    0.04
    --------------------------------------------
      LOOP:  cpu time   39.38: real time   39.39

 eigenvalue-minimisations  :  1024
 total energy-change (2. order) : 0.3547939E-06  (-0.2047407E-06)
 number of electron     131.9999680 magnetization 
 augmentation part       86.4671287 magnetization 

 Free energy of the ion-electron system (eV)
  ---------------------------------------------------
  alpha Z        PSCENC =       667.73722884
  Ewald energy   TEWEN  =     36073.78560533
  -1/2 Hartree   DENC   =    -51857.34855065
  -exchange  EXHF       =         0.00000000
  -V(xc)+E(xc)   XCENC  =       512.07269850
  PAW double counting   =     13118.99699758   -14854.58332720
  entropy T*S    EENTRO =         0.00000000
  eigenvalues    EBANDS =      -394.53967895
  atomic energy  EATOM  =     16691.65700843
  ---------------------------------------------------
  free energy    TOTEN  =       -42.22201812 eV

  energy without entropy =      -42.22201812  energy(sigma->0) =      -42.22201812


--------------------------------------------------------------------------------------------------------




 average (electrostatic) potential at core
  the test charge radii are     1.0053
  (the norm of the test charge is              1.0000)
       1 -43.4828       2 -43.7885       3 -43.8427       4 -43.4828       5 -43.7885
       6 -43.8427       7 -43.8427       8 -43.7885       9 -43.4829      10 -43.8427
      11 -43.7885      12 -43.4829
 
 
 
 E-fermi :  -0.2335     XC(G=0):  -7.5198     alpha+bet : -4.9539


 k-point   1 :       0.0000    0.0000    0.0000
  band No.  band energies     occupation 
      1      -9.0664      2.00000
      2      -8.2836      2.00000
      3      -7.0264      2.00000
      4      -5.6036      2.00000
      5      -4.8900      2.00000
      6      -4.8530      2.00000
      7      -4.7911      2.00000
      8      -4.7911      2.00000
      9      -4.4709      2.00000
     10      -4.4709      2.00000
     11      -4.3960      2.00000
     12      -4.3843      2.00000
     13      -4.3843      2.00000
     14      -4.1973      2.00000
     15      -4.1184      2.00000
     16      -4.1184      2.00000
     17      -3.9489      2.00000
     18      -3.9488      2.00000
     19      -3.8656      2.00000
     20      -3.6618      2.00000
     21      -3.6618      2.00000
     22      -3.4672      2.00000
     23      -3.2225      2.00000
     24      -3.1259      2.00000
     25      -3.0394      2.00000
     26      -3.0394      2.00000
     27      -2.9925      2.00000
     28      -2.9925      2.00000
     29      -2.8266      2.00000
     30      -2.8266      2.00000
     31      -2.6403      2.00000
     32      -2.5776      2.00000
     33      -2.4884      2.00000
     34      -2.4884      2.00000
     35      -2.3584      2.00000
     36      -2.3250      2.00000
     37      -2.3068      2.00000
     38      -2.3068      2.00000
     39      -2.2677      2.00000
     40      -2.1956      2.00000
     41      -2.1956      2.00000
     42      -2.1863      2.00000
     43      -2.0645      2.00000
     44      -2.0645      2.00000
     45      -2.0329      2.00000
     46      -1.9319      2.00000
     47      -1.9319      2.00000
     48      -1.8425      2.00000
     49      -1.7917      2.00000
     50      -1.7917      2.00000
     51      -1.7658      2.00000
     52      -1.7658      2.00000
     53      -1.7526      2.00000
     54      -1.7526      2.00000
     55      -1.6671      2.00000
     56      -1.6671      2.00000
     57      -1.6495      2.00000
     58      -1.6445      2.00000
     59      -1.6293      2.00000
     60      -1.6293      2.00000
     61      -1.6105      2.00000
     62      -1.5980      2.00000
     63      -1.5980      2.00000
     64      -1.2968      2.00000
     65      -1.2967      2.00000
     66       0.0419      0.00000
     67       1.1109      0.00000
     68       1.9447      0.00000
     69       1.9447      0.00000
     70       3.1926      0.00000
     71       3.1926      0.00000
     72       4.0015      0.00000
     73       4.6080      0.00000
     74       4.9105      0.00000
     75       4.9105      0.00000
     76       6.5973      0.00000
     77       6.9941      0.00000
     78       6.9941      0.00000
     79       7.0387      0.00000
     80       7.0387      0.00000

 k-point   2 :       0.1429    0.0000    0.0000
  band No.  band energies     occupation 
      1      -8.8240      2.00000
      2      -8.0496      2.00000
      3      -6.8100      2.00000
      4      -5.4192      2.00000
      5      -4.7888      2.00000
      6      -4.7414      2.00000
      7      -4.7311      2.00000
      8      -4.6870      2.00000
      9      -4.4382      2.00000
     10      -4.3929      2.00000
     11      -4.3309      2.00000
     12      -4.3242      2.00000
     13      -4.3135      2.00000
     14      -4.1426      2.00000
     15      -4.1036      2.00000
     16      -4.0709      2.00000
     17      -3.9196      2.00000
     18      -3.8729      2.00000
     19      -3.8287      2.00000
     20      -3.6676      2.00000
     21      -3.6412      2.00000
     22      -3.4549      2.00000
     23      -3.2359      2.00000
     24      -3.0785      2.00000
     25      -3.0700      2.00000
     26      -3.0362      2.00000
     27      -3.0229      2.00000
     28      -3.0010      2.00000
     29      -2.9048      2.00000
     30      -2.8914      2.00000
     31      -2.8337      2.00000
     32      -2.5723      2.00000
     33      -2.5003      2.00000
     34      -2.4453      2.00000
     35      -2.4390      2.00000
     36      -2.4103      2.00000
     37      -2.4077      2.00000
     38      -2.3294      2.00000
     39      -2.3061      2.00000
     40      -2.2606      2.00000
     41      -2.2127      2.00000
     42      -2.1863      2.00000
     43      -2.0894      2.00000
     44      -2.0757      2.00000
     45      -2.0620      2.00000
     46      -2.0294      2.00000
     47      -1.9916      2.00000
     48      -1.9646      2.00000
     49      -1.8845      2.00000
     50      -1.8774      2.00000
     51      -1.8628      2.00000
     52      -1.8300      2.00000
     53      -1.8036      2.00000
     54      -1.7933      2.00000
     55      -1.7897      2.00000
     56      -1.7617      2.00000
     57      -1.7463      2.00000
     58      -1.7273      2.00000
     59      -1.7019      2.00000
     60      -1.6941      2.00000
     61      -1.6777      2.00000
     62      -1.6332      2.00000
     63      -1.4515      2.00000
     64      -1.4312      2.00000
     65      -1.0770      2.00000
     66       0.4673     -0.00814
     67       0.6344      0.00000
     68       1.6049      0.00000
     69       1.7236      0.00000
     70       2.4765      0.00000
     71       3.1623      0.00000
     72       3.6319      0.00000
     73       4.2458      0.00000
     74       4.8276      0.00000
     75       4.8860      0.00000
     76       5.2830      0.00000
     77       6.7253      0.00000
     78       6.8307      0.00000
     79       7.1404      0.00000
     80       7.3193      0.00000

 k-point   3 :       0.2857    0.0000    0.0000
  band No.  band energies     occupation 
      1      -8.1142      2.00000
      2      -7.3691      2.00000
      3      -6.1949      2.00000
      4      -4.9493      2.00000
      5      -4.9259      2.00000
      6      -4.5374      2.00000
      7      -4.4156      2.00000
      8      -4.3894      2.00000
      9      -4.3509      2.00000
     10      -4.2036      2.00000
     11      -4.1544      2.00000
     12      -4.1333      2.00000
     13      -4.1118      2.00000
     14      -4.0705      2.00000
     15      -4.0178      2.00000
     16      -3.9796      2.00000
     17      -3.9392      2.00000
     18      -3.7308      2.00000
     19      -3.6872      2.00000
     20      -3.5944      2.00000
     21      -3.5302      2.00000
     22      -3.4640      2.00000
     23      -3.3772      2.00000
     24      -3.2204      2.00000
     25      -3.1708      2.00000
     26      -3.1490      2.00000
     27      -3.0395      2.00000
     28      -2.9515      2.00000
     29      -2.9166      2.00000
     30      -2.9117      2.00000
     31      -2.9062      2.00000
     32      -2.8046      2.00000
     33      -2.7981      2.00000
     34      -2.7319      2.00000
     35      -2.5873      2.00000
     36      -2.5830      2.00000
     37      -2.5166      2.00000
     38      -2.4481      2.00000
     39      -2.4343      2.00000
     40      -2.3575      2.00000
     41      -2.3077      2.00000
     42      -2.2715      2.00000
     43      -2.1903      2.00000
     44      -2.1779      2.00000
     45      -2.1619      2.00000
     46      -2.1279      2.00000
     47      -2.1271      2.00000
     48      -2.1016      2.00000
     49      -2.0868      2.00000
     50      -2.0761      2.00000
     51      -2.0157      2.00000
     52      -1.9806      2.00000
     53      -1.9719      2.00000
     54      -1.9659      2.00000
     55      -1.9234      2.00000
     56      -1.9200      2.00000
     57      -1.8720      2.00000
     58      -1.8698      2.00000
     59      -1.7840      2.00000
     60      -1.7458      2.00000
     61      -1.6955      2.00000
     62      -1.6426      2.00000
     63      -1.6137      2.00000
     64      -1.3464      2.00000
     65      -1.1655      2.00000
     66      -0.2433      0.78041
     67      -0.2265      0.66601
     68       0.9458      0.00000
     69       1.4354      0.00000
     70       2.4937      0.00000
     71       2.7489      0.00000
     72       3.7510      0.00000
     73       4.3190      0.00000
     74       4.7721      0.00000
     75       4.9787      0.00000
     76       5.4805      0.00000
     77       6.3035      0.00000
     78       6.3226      0.00000
     79       7.4961      0.00000
     80       7.5318      0.00000

 k-point   4 :       0.4286    0.0000    0.0000
  band No.  band energies     occupation 
      1      -7.0101      2.00000
      2      -6.3300      2.00000
      3      -5.7507      2.00000
      4      -5.3191      2.00000
      5      -5.1948      2.00000
      6      -4.5073      2.00000
      7      -4.3591      2.00000
      8      -4.1256      2.00000
      9      -4.0980      2.00000
     10      -4.0762      2.00000
     11      -3.9219      2.00000
     12      -3.9094      2.00000
     13      -3.9064      2.00000
     14      -3.8315      2.00000
     15      -3.7999      2.00000
     16      -3.7553      2.00000
     17      -3.7207      2.00000
     18      -3.6426      2.00000
     19      -3.6024      2.00000
     20      -3.5723      2.00000
     21      -3.5677      2.00000
     22      -3.5057      2.00000
     23      -3.4718      2.00000
     24      -3.4088      2.00000
     25      -3.3405      2.00000
     26      -3.3385      2.00000
     27      -3.2815      2.00000
     28      -3.1791      2.00000
     29      -3.0668      2.00000
     30      -3.0038      2.00000
     31      -2.9602      2.00000
     32      -2.8688      2.00000
     33      -2.6882      2.00000
     34      -2.6874      2.00000
     35      -2.6274      2.00000
     36      -2.6055      2.00000
     37      -2.5606      2.00000
     38      -2.4943      2.00000
     39      -2.4681      2.00000
     40      -2.4657      2.00000
     41      -2.4413      2.00000
     42      -2.4240      2.00000
     43      -2.4193      2.00000
     44      -2.4174      2.00000
     45      -2.4055      2.00000
     46      -2.3231      2.00000
     47      -2.2923      2.00000
     48      -2.2717      2.00000
     49      -2.2622      2.00000
     50      -2.2604      2.00000
     51      -2.1691      2.00000
     52      -2.1685      2.00000
     53      -2.1404      2.00000
     54      -2.1187      2.00000
     55      -2.1155      2.00000
     56      -2.0562      2.00000
     57      -2.0510      2.00000
     58      -1.9120      2.00000
     59      -1.8345      2.00000
     60      -1.8061      2.00000
     61      -1.8007      2.00000
     62      -1.6533      2.00000
     63      -1.6520      2.00000
     64      -1.4135      2.00000
     65      -1.4012      2.00000
     66      -0.6071      2.11444
     67      -0.5829      2.07613
     68       0.6459      0.00000
     69       0.8824      0.00000
     70       2.3656      0.00000
     71       2.7298      0.00000
     72       4.2421      0.00000
     73       4.3488      0.00000
     74       5.4359      0.00000
     75       6.0233      0.00000
     76       6.1933      0.00000
     77       6.3676      0.00000
     78       6.5553      0.00000
     79       7.4084      0.00000
     80       7.8643      0.00000

 k-point   5 :       0.1429    0.1429    0.0000
  band No.  band energies     occupation 
      1      -8.5852      2.00000
      2      -7.8216      2.00000
      3      -6.6058      2.00000
      4      -5.2606      2.00000
      5      -4.6775      2.00000
      6      -4.6775      2.00000
      7      -4.6215      2.00000
      8      -4.6179      2.00000
      9      -4.3694      2.00000
     10      -4.3693      2.00000
     11      -4.2709      2.00000
     12      -4.2492      2.00000
     13      -4.2492      2.00000
     14      -4.0944      2.00000
     15      -4.0944      2.00000
     16      -4.0842      2.00000
     17      -3.8470      2.00000
     18      -3.8469      2.00000
     19      -3.7792      2.00000
     20      -3.6430      2.00000
     21      -3.6429      2.00000
     22      -3.4312      2.00000
     23      -3.2498      2.00000
     24      -3.0669      2.00000
     25      -3.0669      2.00000
     26      -3.0284      2.00000
     27      -3.0172      2.00000
     28      -2.9968      2.00000
     29      -2.9816      2.00000
     30      -2.9354      2.00000
     31      -2.8386      2.00000
     32      -2.6961      2.00000
     33      -2.6137      2.00000
     34      -2.5240      2.00000
     35      -2.5240      2.00000
     36      -2.3931      2.00000
     37      -2.3845      2.00000
     38      -2.3640      2.00000
     39      -2.2818      2.00000
     40      -2.2741      2.00000
     41      -2.2741      2.00000
     42      -2.2621      2.00000
     43      -2.2392      2.00000
     44      -2.2105      2.00000
     45      -2.0948      2.00000
     46      -2.0948      2.00000
     47      -2.0590      2.00000
     48      -1.9970      2.00000
     49      -1.9553      2.00000
     50      -1.9552      2.00000
     51      -1.9296      2.00000
     52      -1.9295      2.00000
     53      -1.8918      2.00000
     54      -1.8411      2.00000
     55      -1.7963      2.00000
     56      -1.7963      2.00000
     57      -1.7581      2.00000
     58      -1.7531      2.00000
     59      -1.7315      2.00000
     60      -1.7315      2.00000
     61      -1.6559      2.00000
     62      -1.6198      2.00000
     63      -1.5394      2.00000
     64      -1.5393      2.00000
     65      -0.7934      2.01778
     66       0.8141     -0.00928
     67       1.1161      0.00000
     68       1.1161      0.00000
     69       2.0282      0.00000
     70       2.0814      0.00000
     71       2.0814      0.00000
     72       3.4143      0.00000
     73       3.4143      0.00000
     74       4.4903      0.00000
     75       5.0454      0.00000
     76       5.1948      0.00000
     77       5.1949      0.00000
     78       7.0579      0.00000
     79       7.0579      0.00000
     80       7.0642      0.00000

 k-point   6 :       0.2857    0.1429    0.0000
  band No.  band energies     occupation 
      1      -7.8878      2.00000
      2      -7.1623      2.00000
      3      -6.0359      2.00000
      4      -4.8639      2.00000
      5      -4.8221      2.00000
      6      -4.4833      2.00000
      7      -4.3789      2.00000
      8      -4.3404      2.00000
      9      -4.3182      2.00000
     10      -4.2152      2.00000
     11      -4.2005      2.00000
     12      -4.1510      2.00000
     13      -4.0937      2.00000
     14      -4.0726      2.00000
     15      -4.0144      2.00000
     16      -3.9037      2.00000
     17      -3.7975      2.00000
     18      -3.6954      2.00000
     19      -3.6229      2.00000
     20      -3.5296      2.00000
     21      -3.4818      2.00000
     22      -3.3972      2.00000
     23      -3.3657      2.00000
     24      -3.1600      2.00000
     25      -3.1407      2.00000
     26      -3.1343      2.00000
     27      -3.0463      2.00000
     28      -2.9672      2.00000
     29      -2.9182      2.00000
     30      -2.9123      2.00000
     31      -2.9077      2.00000
     32      -2.8998      2.00000
     33      -2.8550      2.00000
     34      -2.7870      2.00000
     35      -2.6918      2.00000
     36      -2.5789      2.00000
     37      -2.5669      2.00000
     38      -2.5041      2.00000
     39      -2.4650      2.00000
     40      -2.4427      2.00000
     41      -2.3607      2.00000
     42      -2.3417      2.00000
     43      -2.3234      2.00000
     44      -2.2928      2.00000
     45      -2.2705      2.00000
     46      -2.2272      2.00000
     47      -2.1962      2.00000
     48      -2.1806      2.00000
     49      -2.1368      2.00000
     50      -2.1340      2.00000
     51      -2.0483      2.00000
     52      -1.9974      2.00000
     53      -1.9571      2.00000
     54      -1.9242      2.00000
     55      -1.8482      2.00000
     56      -1.8410      2.00000
     57      -1.8115      2.00000
     58      -1.8060      2.00000
     59      -1.7899      2.00000
     60      -1.6974      2.00000
     61      -1.6656      2.00000
     62      -1.6608      2.00000
     63      -1.6582      2.00000
     64      -1.3481      2.00000
     65      -0.7040      2.00479
     66      -0.0627      0.26152
     67       0.0282      0.09508
     68       1.1227      0.00000
     69       1.6874      0.00000
     70       2.1736      0.00000
     71       2.5604      0.00000
     72       2.9222      0.00000
     73       3.0767      0.00000
     74       4.4566      0.00000
     75       4.6109      0.00000
     76       5.2227      0.00000
     77       5.6877      0.00000
     78       6.1057      0.00000
     79       6.5782      0.00000
     80       7.2189      0.00000

 k-point   7 :       0.4286    0.1429    0.0000
  band No.  band energies     occupation 
      1      -6.8089      2.00000
      2      -6.1701      2.00000
      3      -5.5909      2.00000
      4      -5.2637      2.00000
      5      -5.1163      2.00000
      6      -4.5950      2.00000
      7      -4.4618      2.00000
      8      -4.2463      2.00000
      9      -4.0587      2.00000
     10      -4.0362      2.00000
     11      -4.0174      2.00000
     12      -4.0002      2.00000
     13      -3.8490      2.00000
     14      -3.8441      2.00000
     15      -3.7560      2.00000
     16      -3.7023      2.00000
     17      -3.6313      2.00000
     18      -3.5897      2.00000
     19      -3.5603      2.00000
     20      -3.4436      2.00000
     21      -3.3955      2.00000
     22      -3.3931      2.00000
     23      -3.3668      2.00000
     24      -3.3575      2.00000
     25      -3.3368      2.00000
     26      -3.2908      2.00000
     27      -3.2173      2.00000
     28      -3.0844      2.00000
     29      -3.0402      2.00000
     30      -2.9922      2.00000
     31      -2.9835      2.00000
     32      -2.9273      2.00000
     33      -2.7838      2.00000
     34      -2.7591      2.00000
     35      -2.6854      2.00000
     36      -2.6794      2.00000
     37      -2.6418      2.00000
     38      -2.6297      2.00000
     39      -2.6043      2.00000
     40      -2.5544      2.00000
     41      -2.5463      2.00000
     42      -2.5418      2.00000
     43      -2.4861      2.00000
     44      -2.4000      2.00000
     45      -2.3960      2.00000
     46      -2.3679      2.00000
     47      -2.3022      2.00000
     48      -2.1856      2.00000
     49      -2.1751      2.00000
     50      -2.1137      2.00000
     51      -2.1069      2.00000
     52      -2.1020      2.00000
     53      -2.0290      2.00000
     54      -1.9955      2.00000
     55      -1.9345      2.00000
     56      -1.9315      2.00000
     57      -1.9040      2.00000
     58      -1.9002      2.00000
     59      -1.8034      2.00000
     60      -1.7680      2.00000
     61      -1.7324      2.00000
     62      -1.7048      2.00000
     63      -1.6377      2.00000
     64      -1.4355      2.00000
     65      -1.3207      2.03617
     66      -0.5641      2.03822
     67      -0.5573      1.95504
     68       0.7099      0.00000
     69       0.9999      0.00000
     70       2.4083      0.00000
     71       2.9012      0.00000
     72       3.4685      0.00000
     73       4.4816      0.00000
     74       4.4832      0.00000
     75       4.5802      0.00000
     76       5.2521      0.00000
     77       5.8179      0.00000
     78       6.1221      0.00000
     79       6.2688      0.00000
     80       6.4354      0.00000

 k-point   8 :       0.2857    0.2857    0.0000
  band No.  band energies     occupation 
      1      -7.2328      2.00000
      2      -6.5785      2.00000
      3      -5.6263      2.00000
      4      -4.7430      2.00000
      5      -4.5470      2.00000
      6      -4.5469      2.00000
      7      -4.4722      2.00000
      8      -4.4722      2.00000
      9      -4.2649      2.00000
     10      -4.2299      2.00000
     11      -4.2299      2.00000
     12      -4.1754      2.00000
     13      -3.9535      2.00000
     14      -3.8435      2.00000
     15      -3.8435      2.00000
     16      -3.6870      2.00000
     17      -3.6310      2.00000
     18      -3.6309      2.00000
     19      -3.3908      2.00000
     20      -3.3289      2.00000
     21      -3.3288      2.00000
     22      -3.3169      2.00000
     23      -3.2213      2.00000
     24      -3.1313      2.00000
     25      -3.1234      2.00000
     26      -3.1234      2.00000
     27      -3.1084      2.00000
     28      -3.0485      2.00000
     29      -3.0485      2.00000
     30      -2.9981      2.00000
     31      -2.9256      2.00000
     32      -2.9178      2.00000
     33      -2.8559      2.00000
     34      -2.8469      2.00000
     35      -2.7697      2.00000
     36      -2.6917      2.00000
     37      -2.6566      2.00000
     38      -2.6566      2.00000
     39      -2.6392      2.00000
     40      -2.6377      2.00000
     41      -2.5515      2.00000
     42      -2.5514      2.00000
     43      -2.4568      2.00000
     44      -2.4112      2.00000
     45      -2.4112      2.00000
     46      -2.3680      2.00000
     47      -2.1032      2.00000
     48      -2.1032      2.00000
     49      -2.1007      2.00000
     50      -2.0851      2.00000
     51      -2.0554      2.00000
     52      -1.9888      2.00000
     53      -1.9776      2.00000
     54      -1.9348      2.00000
     55      -1.9348      2.00000
     56      -1.8296      2.00000
     57      -1.7650      2.00000
     58      -1.7650      2.00000
     59      -1.7523      2.00000
     60      -1.6978      2.00000
     61      -1.6817      2.00000
     62      -1.6816      2.00000
     63      -1.6622      2.00000
     64      -1.1707      2.00000
     65       0.1564      0.88201
     66       0.1564     -0.07632
     67       0.4481     -0.31261
     68       0.6793     -0.00174
     69       0.6793      0.00000
     70       1.4480      0.00000
     71       1.4480      0.00000
     72       2.3560      0.00000
     73       3.7557      0.00000
     74       3.7557      0.00000
     75       3.9257      0.00000
     76       4.8395      0.00000
     77       5.4813      0.00000
     78       5.4813      0.00000
     79       5.7412      0.00000
     80       5.9522      0.00000

 k-point   9 :       0.4286    0.2857    0.0000
  band No.  band energies     occupation 
      1      -6.2449      2.00000
      2      -5.7568      2.00000
      3      -5.1867      2.00000
      4      -5.1512      2.00000
      5      -4.9824      2.00000
      6      -4.7596      2.00000
      7      -4.6261      2.00000
      8      -4.5034      2.00000
      9      -4.2133      2.00000
     10      -4.1978      2.00000
     11      -4.0397      2.00000
     12      -4.0006      2.00000
     13      -3.7940      2.00000
     14      -3.7059      2.00000
     15      -3.5426      2.00000
     16      -3.5394      2.00000
     17      -3.5172      2.00000
     18      -3.5078      2.00000
     19      -3.4651      2.00000
     20      -3.2652      2.00000
     21      -3.2584      2.00000
     22      -3.2182      2.00000
     23      -3.2098      2.00000
     24      -3.2077      2.00000
     25      -3.0852      2.00000
     26      -3.0744      2.00000
     27      -3.0645      2.00000
     28      -3.0580      2.00000
     29      -3.0490      2.00000
     30      -2.9996      2.00000
     31      -2.9824      2.00000
     32      -2.9792      2.00000
     33      -2.8694      2.00000
     34      -2.8417      2.00000
     35      -2.8316      2.00000
     36      -2.7694      2.00000
     37      -2.7426      2.00000
     38      -2.7325      2.00000
     39      -2.7046      2.00000
     40      -2.6313      2.00000
     41      -2.5171      2.00000
     42      -2.5061      2.00000
     43      -2.4656      2.00000
     44      -2.4525      2.00000
     45      -2.4500      2.00000
     46      -2.3308      2.00000
     47      -2.2965      2.00000
     48      -2.1352      2.00000
     49      -2.0709      2.00000
     50      -2.0161      2.00000
     51      -1.9905      2.00000
     52      -1.9557      2.00000
     53      -1.8817      2.00000
     54      -1.8475      2.00000
     55      -1.8371      2.00000
     56      -1.8309      2.00000
     57      -1.8111      2.00000
     58      -1.7970      2.00000
     59      -1.7660      2.00000
     60      -1.7383      2.00000
     61      -1.7355      2.00000
     62      -1.6825      2.00000
     63      -1.5309      2.00000
     64      -1.1427      2.00000
     65      -0.9478      2.05200
     66      -0.4755      1.91724
     67      -0.3933      1.70619
     68       0.6928     -0.07748
     69       1.2313      0.00000
     70       1.2706      0.00000
     71       1.4558      0.00000
     72       2.5415      0.00000
     73       3.5302      0.00000
     74       3.5309      0.00000
     75       3.7552      0.00000
     76       3.8170      0.00000
     77       5.0692      0.00000
     78       5.1790      0.00000
     79       5.3486      0.00000
     80       5.3494      0.00000

 k-point  10 :       0.4286    0.4286    0.0000
  band No.  band energies     occupation 
      1      -5.4709      2.00000
      2      -5.2875      2.00000
      3      -5.0407      2.00000
      4      -4.9719      2.00000
      5      -4.9719      2.00000
      6      -4.7986      2.00000
      7      -4.7986      2.00000
      8      -4.7208      2.00000
      9      -4.3420      2.00000
     10      -4.2971      2.00000
     11      -4.2971      2.00000
     12      -4.1530      2.00000
     13      -3.5457      2.00000
     14      -3.4486      2.00000
     15      -3.4486      2.00000
     16      -3.3675      2.00000
     17      -3.3541      2.00000
     18      -3.3253      2.00000
     19      -3.3253      2.00000
     20      -3.2571      2.00000
     21      -3.2571      2.00000
     22      -3.2352      2.00000
     23      -3.1860      2.00000
     24      -3.1511      2.00000
     25      -3.0970      2.00000
     26      -3.0970      2.00000
     27      -3.0477      2.00000
     28      -3.0378      2.00000
     29      -2.9673      2.00000
     30      -2.9229      2.00000
     31      -2.9228      2.00000
     32      -2.9204      2.00000
     33      -2.8722      2.00000
     34      -2.8722      2.00000
     35      -2.8596      2.00000
     36      -2.8265      2.00000
     37      -2.7059      2.00000
     38      -2.7045      2.00000
     39      -2.6688      2.00000
     40      -2.6688      2.00000
     41      -2.5494      2.00000
     42      -2.4971      2.00000
     43      -2.4745      2.00000
     44      -2.4744      2.00000
     45      -2.1472      2.00000
     46      -2.1117      2.00000
     47      -2.1016      2.00000
     48      -2.1016      2.00000
     49      -1.9993      2.00000
     50      -1.9993      2.00000
     51      -1.9979      2.00000
     52      -1.8779      2.00000
     53      -1.8401      2.00000
     54      -1.7955      2.00000
     55      -1.7954      2.00000
     56      -1.7722      2.00000
     57      -1.7506      2.00000
     58      -1.7506      2.00000
     59      -1.7495      2.00000
     60      -1.7003      2.00000
     61      -1.4923      2.00000
     62      -1.3398      2.00000
     63      -1.2059      2.00000
     64      -0.4387      2.00000
     65      -0.4387      1.95894
     66      -0.3204      1.89737
     67      -0.3203      1.84503
     68      -0.2501      0.69241
     69      -0.0084      0.00000
     70      -0.0083      0.00000
     71       0.7756      0.00000
     72       0.8755      0.00000
     73       3.1280      0.00000
     74       3.1281      0.00000
     75       3.1955      0.00000
     76       3.2171      0.00000
     77       4.7635      0.00000
     78       4.7963      0.00000
     79       4.7963      0.00000
     80       4.9705      0.00000


--------------------------------------------------------------------------------------------------------


 soft charge-density along one line, spin component           1
         0         1         2         3         4         5         6         7         8         9
 total charge-density along one line
 
 pseudopotential strength for first ion, spin component:           1
 -9.069   0.000   0.000   0.000   0.000   0.931   0.000   0.000
  0.000  -9.044   0.000   0.000   0.000   0.000   0.919   0.000
  0.000   0.000  -9.027   0.000   0.000   0.000   0.000   0.911
  0.000   0.000   0.000  -9.044   0.000   0.000   0.000   0.000
  0.000   0.000   0.000   0.000  -9.046   0.000   0.000   0.000
  0.931   0.000   0.000   0.000   0.000   1.147   0.000   0.000
  0.000   0.919   0.000   0.000   0.000   0.000   1.153   0.000
  0.000   0.000   0.911   0.000   0.000   0.000   0.000   1.156
  0.000   0.000   0.000   0.919   0.000   0.000   0.000   0.000
  0.000   0.000   0.000   0.000   0.921   0.000   0.000   0.000
  0.000   0.000  -0.005   0.000   0.000   0.000   0.000   0.002
  0.000   0.000   0.000   0.000   0.000   0.000   0.000   0.000
  0.000  -0.014   0.000   0.000   0.000   0.000   0.008   0.000
  0.000   0.000  -0.015   0.000   0.000   0.000   0.000   0.008
  0.000   0.000   0.000  -0.014   0.000   0.000   0.000   0.000
  0.000   0.007   0.000   0.000   0.000   0.000  -0.004   0.000
  0.000   0.000   0.009   0.000   0.000   0.000   0.000  -0.004
  0.000   0.000   0.000   0.007   0.000   0.000   0.000   0.000
 total augmentation occupancy for first ion, spin component:           1
  1.916   0.000   0.000   0.000   0.000   0.003   0.000   0.000   0.000   0.000   0.000   0.000   0.000   0.000   0.000   0.000
  0.000   1.920   0.000   0.000   0.000   0.000  -0.035   0.000   0.000   0.000   0.000   0.000   0.014   0.000   0.000  -0.008
  0.000   0.000   1.932   0.000   0.000   0.000   0.000  -0.059   0.000   0.000   0.019   0.031   0.000   0.015   0.000   0.000
  0.000   0.000   0.000   1.920   0.000   0.000   0.000   0.000  -0.035   0.000   0.000   0.000   0.000   0.000   0.014   0.000
  0.000   0.000   0.000   0.000   1.920   0.000   0.000   0.000   0.000  -0.053   0.000   0.000   0.000   0.000   0.000   0.000
  0.003   0.000   0.000   0.000   0.000   0.059   0.000   0.000   0.000   0.000   0.000   0.000   0.000   0.000   0.000   0.000
  0.000  -0.035   0.000   0.000   0.000   0.000   0.046   0.000   0.000   0.000   0.000   0.000   0.044   0.000   0.000  -0.003
  0.000   0.000  -0.059   0.000   0.000   0.000   0.000   0.051   0.000   0.000  -0.061   0.009   0.000   0.038   0.000   0.000
  0.000   0.000   0.000  -0.035   0.000   0.000   0.000   0.000   0.046   0.000   0.000   0.000   0.000   0.000   0.044   0.000
  0.000   0.000   0.000   0.000  -0.053   0.000   0.000   0.000   0.000   0.055   0.000   0.000   0.000   0.000   0.000   0.000
  0.000   0.000   0.019   0.000   0.000   0.000   0.000  -0.061   0.000   0.000   1.225  -0.276   0.000   0.093   0.000   0.000
  0.000   0.000   0.031   0.000   0.000   0.000   0.000   0.009   0.000   0.000  -0.276   0.107   0.000  -0.053   0.000   0.000
  0.000   0.014   0.000   0.000   0.000   0.000   0.044   0.000   0.000   0.000   0.000   0.000   0.149   0.000   0.000  -0.010
  0.000   0.000   0.015   0.000   0.000   0.000   0.000   0.038   0.000   0.000   0.093  -0.053   0.000   0.088   0.000   0.000
  0.000   0.000   0.000   0.014   0.000   0.000   0.000   0.000   0.044   0.000   0.000   0.000   0.000   0.000   0.149   0.000
  0.000  -0.008   0.000   0.000   0.000   0.000  -0.003   0.000   0.000   0.000   0.000   0.000  -0.010   0.000   0.000   0.001
  0.000   0.000  -0.009   0.000   0.000   0.000   0.000  -0.002   0.000   0.000  -0.017   0.007   0.000  -0.007   0.000   0.000
  0.000   0.000   0.000  -0.008   0.000   0.000   0.000   0.000  -0.003   0.000   0.000   0.000   0.000   0.000  -0.010   0.000


------------------------ aborting loop because EDIFF is reached ----------------------------------------


    CHARGE:  cpu time    1.32: real time    1.32
    FORLOC:  cpu time    0.05: real time    0.05
    FORNL :  cpu time   23.42: real time   23.42
    STRESS:  cpu time   62.54: real time   62.55
    FORCOR:  cpu time    0.47: real time    0.47
    FORHAR:  cpu time    0.16: real time    0.16
    MIXING:  cpu time    0.02: real time    0.02

  FORCE on cell =-STRESS in cart. coord.  units (eV):
  Direction    XX          YY          ZZ          XY          YZ          ZX
  --------------------------------------------------------------------------------------
  Alpha Z   667.73723   667.73723   667.73723
  Ewald   44743.45332 44743.45332-53413.14500     0.00000     0.00000     0.00000
  Hartree 49318.61466 49318.61466-46779.73834     0.00000     0.00000     0.00000
  E(xc)    -750.71157  -750.71157  -751.67815     0.00000     0.00000     0.00000
  Local  -95151.67931-95151.67931 99101.64832     0.00000     0.00000     0.00000
  n-local  -439.06239  -451.46498  -446.29277     3.79006     0.00000     0.00000
  augment   674.81888   674.81887   676.19702    -0.00003    -0.00003    -0.00002
  Kinetic   954.52305   926.35417   944.08715    -3.70931     0.00000     0.00000
  Fock        0.00000     0.00000     0.00000     0.00000     0.00000     0.00000
  -------------------------------------------------------------------------------------
  Total      -2.59187    -2.59187    -1.18455     0.00000     0.00000     0.00000
  in kB     -15.07174   -15.07174    -6.88816     0.00000     0.00000     0.00000
  external pressure =      -12.34 kB  Pullay stress =        0.00 kB


 VOLUME and BASIS-vectors are now :
 -----------------------------------------------------------------------------
  energy-cutoff  :      415.00
  volume of cell :      275.52
      direct lattice vectors                 reciprocal lattice vectors
     3.631354857  0.000000000  0.000000000     0.275379311  0.000000000  0.000000000
     0.000000000  3.631354857  0.000000000     0.000000000  0.275379311  0.000000000
     0.000000000  0.000000000 20.894064570     0.000000000  0.000000000  0.047860482

  length of vectors
     3.631354857  3.631354857 20.894064570     0.275379311  0.275379311  0.047860482


 FORCES acting on ions
    electron-ion (+dipol)            ewald-force                    non-local-force                 convergence-correction
 -----------------------------------------------------------------------------------------------
   -.850E-13 0.427E-13 0.392E+04   -.977E-14 0.231E-14 -.392E+04   0.388E-25 0.000E+00 -.267E+01   -.314E-13 -.199E-13 -.471E-02
   -.718E-13 -.580E-13 0.794E+03   0.311E-14 -.883E-15 -.794E+03   0.000E+00 -.452E-25 -.152E-01   0.690E-13 -.145E-14 -.281E-04
   -.843E-13 -.277E-13 -.238E+04   -.359E-14 0.229E-13 0.238E+04   -.362E-24 0.103E-24 0.718E+00   -.257E-13 0.317E-13 0.597E-02
   0.590E-12 0.850E-12 0.392E+04   -.250E-13 -.116E-13 -.392E+04   0.155E-24 -.103E-24 -.267E+01   0.428E-13 -.334E-13 -.471E-02
   0.615E-12 0.290E-11 0.794E+03   -.779E-14 -.164E-13 -.794E+03   0.000E+00 0.517E-25 -.152E-01   0.138E-12 0.666E-13 -.281E-04
   0.592E-12 0.434E-12 -.238E+04   -.137E-13 0.547E-14 0.238E+04   0.207E-24 0.000E+00 0.718E+00   0.557E-13 0.245E-13 0.597E-02
   0.593E-12 -.400E-13 0.238E+04   -.476E-14 0.115E-13 -.238E+04   -.258E-24 -.517E-25 -.718E+00   0.657E-13 0.323E-13 -.577E-02
   0.581E-12 -.511E-13 -.794E+03   0.386E-15 0.138E-13 0.794E+03   0.000E+00 -.646E-25 0.152E-01   -.221E-14 -.238E-13 0.827E-04
   0.628E-12 -.920E-13 -.392E+04   0.278E-14 -.307E-14 0.392E+04   -.517E-25 -.155E-24 0.267E+01   0.412E-13 0.790E-13 0.486E-02
   -.690E-13 0.758E-12 0.238E+04   -.218E-13 -.556E-14 -.238E+04   0.233E-24 -.103E-24 -.718E+00   -.727E-14 0.232E-13 -.577E-02
   -.880E-13 0.509E-12 -.794E+03   -.168E-13 -.214E-14 0.794E+03   0.258E-25 0.103E-24 0.152E-01   -.165E-13 0.125E-14 0.827E-04
   -.157E-13 0.112E-11 -.392E+04   -.120E-13 -.176E-13 0.392E+04   0.517E-25 0.775E-25 0.267E+01   -.285E-13 0.980E-13 0.486E-02
 -----------------------------------------------------------------------------------------------
   0.319E-11 0.634E-11 -.316E-02   -.109E-12 -.129E-14 0.182E-11   0.388E-25 -.187E-24 0.133E-14   0.301E-12 0.278E-12 0.816E-03
 
 
 POSITION                                       TOTAL-FORCE (eV/Angst)
 -----------------------------------------------------------------------------------
      0.00000      0.00000      0.01676         0.000000      0.000000      0.033593
      0.00000      0.00000      3.63552         0.000000      0.000000     -0.059516
      0.00000      0.00000      7.28174         0.000000      0.000000     -0.017533
      1.81568      1.81568      0.01676         0.000000      0.000000      0.033593
      1.81568      1.81568      3.63552         0.000000      0.000000     -0.059516
      1.81568      1.81568      7.28174         0.000000      0.000000     -0.017533
      1.81568      0.00000      1.79665         0.000000      0.000000      0.017533
      1.81568      0.00000      5.44287         0.000000      0.000000      0.059516
      1.81568      0.00000      9.06162         0.000000      0.000000     -0.033593
      0.00000      1.81568      1.79665         0.000000      0.000000      0.017533
      0.00000      1.81568      5.44287         0.000000      0.000000      0.059516
      0.00000      1.81568      9.06162         0.000000      0.000000     -0.033593
 -----------------------------------------------------------------------------------
    total drift:                                0.000000      0.000000     -0.002342


--------------------------------------------------------------------------------------------------------



  FREE ENERGIE OF THE ION-ELECTRON SYSTEM (eV)
  ---------------------------------------------------
  free  energy   TOTEN  =       -42.222018 eV

  energy  without entropy=      -42.222018  energy(sigma->0) =      -42.222018
 
 d Force = 0.3705181E-02[-0.401E-04, 0.745E-02]  d Energy = 0.4286032E-02-0.581E-03
 d Force =-0.5171892E+02[-0.519E+02,-0.515E+02]  d Ewald  =-0.5171955E+02 0.623E-03


--------------------------------------------------------------------------------------------------------


    POTLOK:  cpu time    0.50: real time    0.51


--------------------------------------------------------------------------------------------------------




--------------------------------------------------------------------------------------------------------


    WAVPRE:  cpu time    0.10: real time    0.11
    FEWALD:  cpu time    0.00: real time    0.00
    ORTHCH:  cpu time    7.70: real time    7.70
     LOOP+:  cpu time  539.06: real time  539.12


----------------------------------------- Iteration    6(   1)  ---------------------------------------


    POTLOK:  cpu time    0.44: real time    0.44
    SETDIJ:  cpu time    0.06: real time    0.06
     EDDAV:  cpu time   53.43: real time   53.44
 BZINTS: Fermi energy: -0.233329;132.000000 electrons
         Band energy:-394.579417;  BLOECHL correction: -0.141228
       DOS:  cpu time    0.04: real time    0.05
    CHARGE:  cpu time    1.34: real time    1.33
    MIXING:  cpu time    0.01: real time    0.01
    --------------------------------------------
      LOOP:  cpu time   55.32: real time   55.33

 eigenvalue-minimisations  :  1600
 total energy-change (2. order) :-0.5204463E-03  (-0.7142180E-02)
 number of electron     131.9999654 magnetization 
 augmentation part       86.4658892 magnetization 

 Broyden mixing:
  rms(total) = 0.18069E-02    rms(broyden)= 0.18041E-02
  rms(prec ) = 0.19203E-02
  weight for this iteration     100.00

 Free energy of the ion-electron system (eV)
  ---------------------------------------------------
  alpha Z        PSCENC =       667.73722884
  Ewald energy   TEWEN  =     36088.41575899
  -1/2 Hartree   DENC   =    -51871.94763424
  -exchange  EXHF       =         0.00000000
  -V(xc)+E(xc)   XCENC  =       512.08038843
  PAW double counting   =     13119.00018736   -14854.58605976
  entropy T*S    EENTRO =         0.00000000
  eigenvalues    EBANDS =      -394.57941698
  atomic energy  EATOM  =     16691.65700843
  ---------------------------------------------------
  free energy    TOTEN  =       -42.22253892 eV

  energy without entropy =      -42.22253892  energy(sigma->0) =      -42.22253892


--------------------------------------------------------------------------------------------------------




----------------------------------------- Iteration    6(   2)  ---------------------------------------


    POTLOK:  cpu time    0.44: real time    0.44
    SETDIJ:  cpu time    0.06: real time    0.06
     EDDAV:  cpu time   57.34: real time   57.34
 BZINTS: Fermi energy: -0.233326;132.000000 electrons
         Band energy:-394.592737;  BLOECHL correction: -0.141252
       DOS:  cpu time    0.04: real time    0.04
    CHARGE:  cpu time    1.33: real time    1.34
    MIXING:  cpu time    0.02: real time    0.02
    --------------------------------------------
      LOOP:  cpu time   59.24: real time   59.24

 eigenvalue-minimisations  :  1760
 total energy-change (2. order) :-0.3383130E-04  (-0.2883141E-04)
 number of electron     131.9999654 magnetization 
 augmentation part       86.4668339 magnetization 

 Broyden mixing:
  rms(total) = 0.20535E-02    rms(broyden)= 0.20532E-02
  rms(prec ) = 0.21892E-02
  weight for this iteration     100.00

 eigenvalues of (default mixing * dielectric matrix)
  average eigenvalue GAMMA=   0.4033
  0.4033

 Free energy of the ion-electron system (eV)
  ---------------------------------------------------
  alpha Z        PSCENC =       667.73722884
  Ewald energy   TEWEN  =     36088.41575899
  -1/2 Hartree   DENC   =    -51871.94084021
  -exchange  EXHF       =         0.00000000
  -V(xc)+E(xc)   XCENC  =       512.07817023
  PAW double counting   =     13119.10604648   -14854.68320891
  entropy T*S    EENTRO =         0.00000000
  eigenvalues    EBANDS =      -394.59273660
  atomic energy  EATOM  =     16691.65700843
  ---------------------------------------------------
  free energy    TOTEN  =       -42.22257276 eV

  energy without entropy =      -42.22257276  energy(sigma->0) =      -42.22257276


--------------------------------------------------------------------------------------------------------




----------------------------------------- Iteration    6(   3)  ---------------------------------------


    POTLOK:  cpu time    0.44: real time    0.44
    SETDIJ:  cpu time    0.06: real time    0.06
     EDDAV:  cpu time   53.99: real time   54.01
 BZINTS: Fermi energy: -0.233404;132.000000 electrons
         Band energy:-394.606251;  BLOECHL correction: -0.141241
       DOS:  cpu time    0.04: real time    0.04
    CHARGE:  cpu time    1.35: real time    1.35
    MIXING:  cpu time    0.02: real time    0.02
    --------------------------------------------
      LOOP:  cpu time   55.90: real time   55.92

 eigenvalue-minimisations  :  1624
 total energy-change (2. order) : 0.1476983E-04  (-0.5309914E-05)
 number of electron     131.9999654 magnetization 
 augmentation part       86.4670213 magnetization 

 Broyden mixing:
  rms(total) = 0.97947E-03    rms(broyden)= 0.97940E-03
  rms(prec ) = 0.10311E-02
  weight for this iteration     100.00

 eigenvalues of (default mixing * dielectric matrix)
  average eigenvalue GAMMA=   1.3107
  0.3773  2.2441

 Free energy of the ion-electron system (eV)
  ---------------------------------------------------
  alpha Z        PSCENC =       667.73722884
  Ewald energy   TEWEN  =     36088.41575899
  -1/2 Hartree   DENC   =    -51871.92306044
  -exchange  EXHF       =         0.00000000
  -V(xc)+E(xc)   XCENC  =       512.07835675
  PAW double counting   =     13119.15407337   -14854.73567283
  entropy T*S    EENTRO =         0.00000000
  eigenvalues    EBANDS =      -394.60625109
  atomic energy  EATOM  =     16691.65700843
  ---------------------------------------------------
  free energy    TOTEN  =       -42.22255799 eV

  energy without entropy =      -42.22255799  energy(sigma->0) =      -42.22255799


--------------------------------------------------------------------------------------------------------




----------------------------------------- Iteration    6(   4)  ---------------------------------------


    POTLOK:  cpu time    0.44: real time    0.44
    SETDIJ:  cpu time    0.06: real time    0.06
     EDDAV:  cpu time   54.83: real time   54.83
 BZINTS: Fermi energy: -0.232956;132.000000 electrons
         Band energy:-394.528303;  BLOECHL correction: -0.141239
       DOS:  cpu time    0.04: real time    0.04
    CHARGE:  cpu time    1.34: real time    1.33
    MIXING:  cpu time    0.02: real time    0.02
    --------------------------------------------
      LOOP:  cpu time   56.72: real time   56.73

 eigenvalue-minimisations  :  1664
 total energy-change (2. order) :-0.3212532E-05  (-0.8303311E-06)
 number of electron     131.9999654 magnetization 
 augmentation part       86.4658206 magnetization 

 Broyden mixing:
  rms(total) = 0.35541E-03    rms(broyden)= 0.35539E-03
  rms(prec ) = 0.37904E-03
  weight for this iteration     100.00

 eigenvalues of (default mixing * dielectric matrix)
  average eigenvalue GAMMA=   1.2196
  2.6569  0.6209  0.3810

 Free energy of the ion-electron system (eV)
  ---------------------------------------------------
  alpha Z        PSCENC =       667.73722884
  Ewald energy   TEWEN  =     36088.41575899
  -1/2 Hartree   DENC   =    -51871.97307587
  -exchange  EXHF       =         0.00000000
  -V(xc)+E(xc)   XCENC  =       512.07958190
  PAW double counting   =     13119.40707640   -14855.01783727
  entropy T*S    EENTRO =         0.00000000
  eigenvalues    EBANDS =      -394.52830261
  atomic energy  EATOM  =     16691.65700843
  ---------------------------------------------------
  free energy    TOTEN  =       -42.22256120 eV

  energy without entropy =      -42.22256120  energy(sigma->0) =      -42.22256120


--------------------------------------------------------------------------------------------------------




----------------------------------------- Iteration    6(   5)  ---------------------------------------


    POTLOK:  cpu time    0.44: real time    0.44
    SETDIJ:  cpu time    0.06: real time    0.06
     EDDAV:  cpu time   38.07: real time   38.07
 BZINTS: Fermi energy: -0.233088;132.000000 electrons
         Band energy:-394.559032;  BLOECHL correction: -0.141245
       DOS:  cpu time    0.04: real time    0.04
    CHARGE:  cpu time    1.34: real time    1.34
    MIXING:  cpu time    0.02: real time    0.02
    --------------------------------------------
      LOOP:  cpu time   39.97: real time   39.97

 eigenvalue-minimisations  :   992
 total energy-change (2. order) : 0.3858833E-05  (-0.2472694E-06)
 number of electron     131.9999654 magnetization 
 augmentation part       86.4665504 magnetization 

 Broyden mixing:
  rms(total) = 0.22941E-03    rms(broyden)= 0.22940E-03
  rms(prec ) = 0.24560E-03
  weight for this iteration     100.00

 eigenvalues of (default mixing * dielectric matrix)
  average eigenvalue GAMMA=   1.0471
  2.5408  0.6400  0.6400  0.3677

 Free energy of the ion-electron system (eV)
  ---------------------------------------------------
  alpha Z        PSCENC =       667.73722884
  Ewald energy   TEWEN  =     36088.41575899
  -1/2 Hartree   DENC   =    -51871.95206092
  -exchange  EXHF       =         0.00000000
  -V(xc)+E(xc)   XCENC  =       512.07824489
  PAW double counting   =     13119.39571789   -14854.99542320
  entropy T*S    EENTRO =         0.00000000
  eigenvalues    EBANDS =      -394.55903225
  atomic energy  EATOM  =     16691.65700843
  ---------------------------------------------------
  free energy    TOTEN  =       -42.22255734 eV

  energy without entropy =      -42.22255734  energy(sigma->0) =      -42.22255734


--------------------------------------------------------------------------------------------------------




----------------------------------------- Iteration    6(   6)  ---------------------------------------


    POTLOK:  cpu time    0.44: real time    0.44
    SETDIJ:  cpu time    0.06: real time    0.06
     EDDAV:  cpu time   34.38: real time   34.38
 BZINTS: Fermi energy: -0.233120;132.000000 electrons
         Band energy:-394.563540;  BLOECHL correction: -0.141240
       DOS:  cpu time    0.04: real time    0.04
    CHARGE:  cpu time    1.34: real time    1.34
    MIXING:  cpu time    0.02: real time    0.02
    --------------------------------------------
      LOOP:  cpu time   36.29: real time   36.29

 eigenvalue-minimisations  :   848
 total energy-change (2. order) : 0.2099976E-05  (-0.4899723E-07)
 number of electron     131.9999654 magnetization 
 augmentation part       86.4666579 magnetization 

 Broyden mixing:
  rms(total) = 0.10491E-03    rms(broyden)= 0.10490E-03
  rms(prec ) = 0.12376E-03
  weight for this iteration     100.00

 eigenvalues of (default mixing * dielectric matrix)
  average eigenvalue GAMMA=   0.9901
  2.4754  0.9514  0.7315  0.3807  0.4114

 Free energy of the ion-electron system (eV)
  ---------------------------------------------------
  alpha Z        PSCENC =       667.73722884
  Ewald energy   TEWEN  =     36088.41575899
  -1/2 Hartree   DENC   =    -51871.94938947
  -exchange  EXHF       =         0.00000000
  -V(xc)+E(xc)   XCENC  =       512.07812257
  PAW double counting   =     13119.38112662   -14854.97887122
  entropy T*S    EENTRO =         0.00000000
  eigenvalues    EBANDS =      -394.56354000
  atomic energy  EATOM  =     16691.65700843
  ---------------------------------------------------
  free energy    TOTEN  =       -42.22255524 eV

  energy without entropy =      -42.22255524  energy(sigma->0) =      -42.22255524


--------------------------------------------------------------------------------------------------------




----------------------------------------- Iteration    6(   7)  ---------------------------------------


    POTLOK:  cpu time    0.44: real time    0.44
    SETDIJ:  cpu time    0.06: real time    0.06
     EDDAV:  cpu time   35.41: real time   35.41
 BZINTS: Fermi energy: -0.233074;132.000000 electrons
         Band energy:-394.557177;  BLOECHL correction: -0.141245
       DOS:  cpu time    0.04: real time    0.04
    CHARGE:  cpu time    1.37: real time    1.37
    MIXING:  cpu time    0.02: real time    0.02
    --------------------------------------------
      LOOP:  cpu time   37.34: real time   37.34

 eigenvalue-minimisations  :   888
 total energy-change (2. order) :-0.3012829E-05  (-0.1019455E-07)
 number of electron     131.9999654 magnetization 
 augmentation part       86.4666680 magnetization 

 Broyden mixing:
  rms(total) = 0.50271E-04    rms(broyden)= 0.50269E-04
  rms(prec ) = 0.54541E-04
  weight for this iteration     100.00

 eigenvalues of (default mixing * dielectric matrix)
  average eigenvalue GAMMA=   1.1446
  2.3752  1.9792  1.0334  0.7218  0.3903  0.3675

 Free energy of the ion-electron system (eV)
  ---------------------------------------------------
  alpha Z        PSCENC =       667.73722884
  Ewald energy   TEWEN  =     36088.41575899
  -1/2 Hartree   DENC   =    -51871.95595882
  -exchange  EXHF       =         0.00000000
  -V(xc)+E(xc)   XCENC  =       512.07811397
  PAW double counting   =     13119.37716074   -14854.97469388
  entropy T*S    EENTRO =         0.00000000
  eigenvalues    EBANDS =      -394.55717652
  atomic energy  EATOM  =     16691.65700843
  ---------------------------------------------------
  free energy    TOTEN  =       -42.22255825 eV

  energy without entropy =      -42.22255825  energy(sigma->0) =      -42.22255825


--------------------------------------------------------------------------------------------------------




----------------------------------------- Iteration    6(   8)  ---------------------------------------


    POTLOK:  cpu time    0.44: real time    0.44
    SETDIJ:  cpu time    0.06: real time    0.06
     EDDAV:  cpu time   35.36: real time   35.36
 BZINTS: Fermi energy: -0.233058;132.000000 electrons
         Band energy:-394.554663;  BLOECHL correction: -0.141243
       DOS:  cpu time    0.04: real time    0.04
    --------------------------------------------
      LOOP:  cpu time   35.90: real time   35.90

 eigenvalue-minimisations  :   888
 total energy-change (2. order) : 0.4872309E-06  (-0.7497563E-08)
 number of electron     131.9999654 magnetization 
 augmentation part       86.4666680 magnetization 

 Free energy of the ion-electron system (eV)
  ---------------------------------------------------
  alpha Z        PSCENC =       667.73722884
  Ewald energy   TEWEN  =     36088.41575899
  -1/2 Hartree   DENC   =    -51871.95798611
  -exchange  EXHF       =         0.00000000
  -V(xc)+E(xc)   XCENC  =       512.07815210
  PAW double counting   =     13119.37769266   -14854.97575005
  entropy T*S    EENTRO =         0.00000000
  eigenvalues    EBANDS =      -394.55466262
  atomic energy  EATOM  =     16691.65700843
  ---------------------------------------------------
  free energy    TOTEN  =       -42.22255777 eV

  energy without entropy =      -42.22255777  energy(sigma->0) =      -42.22255777


--------------------------------------------------------------------------------------------------------




 average (electrostatic) potential at core
  the test charge radii are     1.0053
  (the norm of the test charge is              1.0000)
       1 -43.4831       2 -43.7871       3 -43.8437       4 -43.4831       5 -43.7871
       6 -43.8437       7 -43.8436       8 -43.7871       9 -43.4833      10 -43.8436
      11 -43.7871      12 -43.4833
 
 
 
 E-fermi :  -0.2331     XC(G=0):  -7.5178     alpha+bet : -4.9539


 k-point   1 :       0.0000    0.0000    0.0000
  band No.  band energies     occupation 
      1      -9.0662      2.00000
      2      -8.2867      2.00000
      3      -7.0252      2.00000
      4      -5.6037      2.00000
      5      -4.8910      2.00000
      6      -4.8531      2.00000
      7      -4.7912      2.00000
      8      -4.7912      2.00000
      9      -4.4722      2.00000
     10      -4.4722      2.00000
     11      -4.3958      2.00000
     12      -4.3838      2.00000
     13      -4.3838      2.00000
     14      -4.1996      2.00000
     15      -4.1207      2.00000
     16      -4.1207      2.00000
     17      -3.9493      2.00000
     18      -3.9492      2.00000
     19      -3.8644      2.00000
     20      -3.6612      2.00000
     21      -3.6612      2.00000
     22      -3.4679      2.00000
     23      -3.2220      2.00000
     24      -3.1253      2.00000
     25      -3.0389      2.00000
     26      -3.0389      2.00000
     27      -2.9939      2.00000
     28      -2.9939      2.00000
     29      -2.8286      2.00000
     30      -2.8286      2.00000
     31      -2.6375      2.00000
     32      -2.5786      2.00000
     33      -2.4877      2.00000
     34      -2.4877      2.00000
     35      -2.3577      2.00000
     36      -2.3238      2.00000
     37      -2.3062      2.00000
     38      -2.3062      2.00000
     39      -2.2674      2.00000
     40      -2.1952      2.00000
     41      -2.1952      2.00000
     42      -2.1879      2.00000
     43      -2.0650      2.00000
     44      -2.0650      2.00000
     45      -2.0319      2.00000
     46      -1.9316      2.00000
     47      -1.9316      2.00000
     48      -1.8421      2.00000
     49      -1.7911      2.00000
     50      -1.7911      2.00000
     51      -1.7655      2.00000
     52      -1.7654      2.00000
     53      -1.7524      2.00000
     54      -1.7524      2.00000
     55      -1.6681      2.00000
     56      -1.6680      2.00000
     57      -1.6497      2.00000
     58      -1.6447      2.00000
     59      -1.6289      2.00000
     60      -1.6289      2.00000
     61      -1.6109      2.00000
     62      -1.5966      2.00000
     63      -1.5965      2.00000
     64      -1.2972      2.00000
     65      -1.2971      2.00000
     66       0.0447      0.00000
     67       1.1132      0.00000
     68       1.9448      0.00000
     69       1.9448      0.00000
     70       3.1901      0.00000
     71       3.1901      0.00000
     72       4.0047      0.00000
     73       4.6103      0.00000
     74       4.9134      0.00000
     75       4.9134      0.00000
     76       6.5983      0.00000
     77       6.9934      0.00000
     78       6.9934      0.00000
     79       7.0391      0.00000
     80       7.0391      0.00000

 k-point   2 :       0.1429    0.0000    0.0000
  band No.  band energies     occupation 
      1      -8.8237      2.00000
      2      -8.0527      2.00000
      3      -6.8088      2.00000
      4      -5.4193      2.00000
      5      -4.7887      2.00000
      6      -4.7426      2.00000
      7      -4.7313      2.00000
      8      -4.6872      2.00000
      9      -4.4396      2.00000
     10      -4.3938      2.00000
     11      -4.3307      2.00000
     12      -4.3237      2.00000
     13      -4.3134      2.00000
     14      -4.1449      2.00000
     15      -4.1058      2.00000
     16      -4.0733      2.00000
     17      -3.9197      2.00000
     18      -3.8732      2.00000
     19      -3.8276      2.00000
     20      -3.6673      2.00000
     21      -3.6406      2.00000
     22      -3.4557      2.00000
     23      -3.2354      2.00000
     24      -3.0798      2.00000
     25      -3.0695      2.00000
     26      -3.0357      2.00000
     27      -3.0243      2.00000
     28      -3.0005      2.00000
     29      -2.9030      2.00000
     30      -2.8928      2.00000
     31      -2.8354      2.00000
     32      -2.5741      2.00000
     33      -2.4995      2.00000
     34      -2.4452      2.00000
     35      -2.4375      2.00000
     36      -2.4097      2.00000
     37      -2.4073      2.00000
     38      -2.3297      2.00000
     39      -2.3063      2.00000
     40      -2.2600      2.00000
     41      -2.2122      2.00000
     42      -2.1857      2.00000
     43      -2.0891      2.00000
     44      -2.0762      2.00000
     45      -2.0614      2.00000
     46      -2.0296      2.00000
     47      -1.9910      2.00000
     48      -1.9645      2.00000
     49      -1.8842      2.00000
     50      -1.8774      2.00000
     51      -1.8629      2.00000
     52      -1.8304      2.00000
     53      -1.8032      2.00000
     54      -1.7929      2.00000
     55      -1.7892      2.00000
     56      -1.7615      2.00000
     57      -1.7465      2.00000
     58      -1.7263      2.00000
     59      -1.7022      2.00000
     60      -1.6933      2.00000
     61      -1.6777      2.00000
     62      -1.6328      2.00000
     63      -1.4518      2.00000
     64      -1.4314      2.00000
     65      -1.0767      2.00000
     66       0.4699     -0.00912
     67       0.6346      0.00000
     68       1.6071      0.00000
     69       1.7218      0.00000
     70       2.4766      0.00000
     71       3.1645      0.00000
     72       3.6294      0.00000
     73       4.2491      0.00000
     74       4.8299      0.00000
     75       4.8863      0.00000
     76       5.2857      0.00000
     77       6.7279      0.00000
     78       6.8318      0.00000
     79       7.1408      0.00000
     80       7.3188      0.00000

 k-point   3 :       0.2857    0.0000    0.0000
  band No.  band energies     occupation 
      1      -8.1140      2.00000
      2      -7.3722      2.00000
      3      -6.1938      2.00000
      4      -4.9490      2.00000
      5      -4.9259      2.00000
      6      -4.5401      2.00000
      7      -4.4159      2.00000
      8      -4.3887      2.00000
      9      -4.3522      2.00000
     10      -4.2039      2.00000
     11      -4.1538      2.00000
     12      -4.1330      2.00000
     13      -4.1110      2.00000
     14      -4.0722      2.00000
     15      -4.0189      2.00000
     16      -3.9819      2.00000
     17      -3.9415      2.00000
     18      -3.7297      2.00000
     19      -3.6871      2.00000
     20      -3.5939      2.00000
     21      -3.5304      2.00000
     22      -3.4653      2.00000
     23      -3.3769      2.00000
     24      -3.2217      2.00000
     25      -3.1693      2.00000
     26      -3.1507      2.00000
     27      -3.0401      2.00000
     28      -2.9523      2.00000
     29      -2.9164      2.00000
     30      -2.9114      2.00000
     31      -2.9059      2.00000
     32      -2.8042      2.00000
     33      -2.7991      2.00000
     34      -2.7324      2.00000
     35      -2.5864      2.00000
     36      -2.5840      2.00000
     37      -2.5155      2.00000
     38      -2.4489      2.00000
     39      -2.4334      2.00000
     40      -2.3573      2.00000
     41      -2.3068      2.00000
     42      -2.2710      2.00000
     43      -2.1901      2.00000
     44      -2.1773      2.00000
     45      -2.1616      2.00000
     46      -2.1284      2.00000
     47      -2.1276      2.00000
     48      -2.1021      2.00000
     49      -2.0868      2.00000
     50      -2.0764      2.00000
     51      -2.0152      2.00000
     52      -1.9802      2.00000
     53      -1.9709      2.00000
     54      -1.9650      2.00000
     55      -1.9237      2.00000
     56      -1.9199      2.00000
     57      -1.8717      2.00000
     58      -1.8704      2.00000
     59      -1.7836      2.00000
     60      -1.7458      2.00000
     61      -1.6950      2.00000
     62      -1.6421      2.00000
     63      -1.6132      2.00000
     64      -1.3456      2.00000
     65      -1.1653      2.00000
     66      -0.2442      0.78620
     67      -0.2255      0.66430
     68       0.9477      0.00000
     69       1.4377      0.00000
     70       2.4940      0.00000
     71       2.7510      0.00000
     72       3.7512      0.00000
     73       4.3216      0.00000
     74       4.7700      0.00000
     75       4.9820      0.00000
     76       5.4829      0.00000
     77       6.3058      0.00000
     78       6.3244      0.00000
     79       7.4966      0.00000
     80       7.5329      0.00000

 k-point   4 :       0.4286    0.0000    0.0000
  band No.  band energies     occupation 
      1      -7.0099      2.00000
      2      -6.3330      2.00000
      3      -5.7504      2.00000
      4      -5.3183      2.00000
      5      -5.1977      2.00000
      6      -4.5066      2.00000
      7      -4.3591      2.00000
      8      -4.1251      2.00000
      9      -4.0984      2.00000
     10      -4.0773      2.00000
     11      -3.9234      2.00000
     12      -3.9089      2.00000
     13      -3.9057      2.00000
     14      -3.8334      2.00000
     15      -3.7995      2.00000
     16      -3.7575      2.00000
     17      -3.7229      2.00000
     18      -3.6398      2.00000
     19      -3.6041      2.00000
     20      -3.5742      2.00000
     21      -3.5675      2.00000
     22      -3.5057      2.00000
     23      -3.4715      2.00000
     24      -3.4108      2.00000
     25      -3.3396      2.00000
     26      -3.3382      2.00000
     27      -3.2817      2.00000
     28      -3.1807      2.00000
     29      -3.0671      2.00000
     30      -3.0053      2.00000
     31      -2.9610      2.00000
     32      -2.8693      2.00000
     33      -2.6885      2.00000
     34      -2.6876      2.00000
     35      -2.6269      2.00000
     36      -2.6054      2.00000
     37      -2.5602      2.00000
     38      -2.4939      2.00000
     39      -2.4667      2.00000
     40      -2.4641      2.00000
     41      -2.4408      2.00000
     42      -2.4244      2.00000
     43      -2.4196      2.00000
     44      -2.4178      2.00000
     45      -2.4055      2.00000
     46      -2.3226      2.00000
     47      -2.2918      2.00000
     48      -2.2717      2.00000
     49      -2.2619      2.00000
     50      -2.2592      2.00000
     51      -2.1692      2.00000
     52      -2.1685      2.00000
     53      -2.1408      2.00000
     54      -2.1188      2.00000
     55      -2.1160      2.00000
     56      -2.0567      2.00000
     57      -2.0507      2.00000
     58      -1.9117      2.00000
     59      -1.8343      2.00000
     60      -1.8055      2.00000
     61      -1.7999      2.00000
     62      -1.6527      2.00000
     63      -1.6515      2.00000
     64      -1.4134      2.00000
     65      -1.4006      2.00000
     66      -0.6056      2.11321
     67      -0.5822      2.07665
     68       0.6464      0.00000
     69       0.8843      0.00000
     70       2.3681      0.00000
     71       2.7319      0.00000
     72       4.2441      0.00000
     73       4.3507      0.00000
     74       5.4362      0.00000
     75       6.0254      0.00000
     76       6.1966      0.00000
     77       6.3657      0.00000
     78       6.5577      0.00000
     79       7.4087      0.00000
     80       7.8068      0.00000

 k-point   5 :       0.1429    0.1429    0.0000
  band No.  band energies     occupation 
      1      -8.5850      2.00000
      2      -7.8248      2.00000
      3      -6.6047      2.00000
      4      -5.2607      2.00000
      5      -4.6774      2.00000
      6      -4.6774      2.00000
      7      -4.6217      2.00000
      8      -4.6191      2.00000
      9      -4.3704      2.00000
     10      -4.3703      2.00000
     11      -4.2706      2.00000
     12      -4.2494      2.00000
     13      -4.2494      2.00000
     14      -4.0962      2.00000
     15      -4.0962      2.00000
     16      -4.0865      2.00000
     17      -3.8471      2.00000
     18      -3.8470      2.00000
     19      -3.7780      2.00000
     20      -3.6431      2.00000
     21      -3.6430      2.00000
     22      -3.4321      2.00000
     23      -3.2495      2.00000
     24      -3.0681      2.00000
     25      -3.0681      2.00000
     26      -3.0279      2.00000
     27      -3.0167      2.00000
     28      -2.9947      2.00000
     29      -2.9810      2.00000
     30      -2.9365      2.00000
     31      -2.8401      2.00000
     32      -2.6971      2.00000
     33      -2.6142      2.00000
     34      -2.5240      2.00000
     35      -2.5240      2.00000
     36      -2.3949      2.00000
     37      -2.3838      2.00000
     38      -2.3630      2.00000
     39      -2.2815      2.00000
     40      -2.2734      2.00000
     41      -2.2734      2.00000
     42      -2.2599      2.00000
     43      -2.2389      2.00000
     44      -2.2109      2.00000
     45      -2.0945      2.00000
     46      -2.0945      2.00000
     47      -2.0592      2.00000
     48      -1.9971      2.00000
     49      -1.9552      2.00000
     50      -1.9551      2.00000
     51      -1.9296      2.00000
     52      -1.9295      2.00000
     53      -1.8920      2.00000
     54      -1.8401      2.00000
     55      -1.7966      2.00000
     56      -1.7966      2.00000
     57      -1.7580      2.00000
     58      -1.7531      2.00000
     59      -1.7307      2.00000
     60      -1.7307      2.00000
     61      -1.6556      2.00000
     62      -1.6194      2.00000
     63      -1.5393      2.00000
     64      -1.5392      2.00000
     65      -0.7929      2.01777
     66       0.8165     -0.01040
     67       1.1163      0.00000
     68       1.1163      0.00000
     69       2.0303      0.00000
     70       2.0798      0.00000
     71       2.0798      0.00000
     72       3.4162      0.00000
     73       3.4162      0.00000
     74       4.4935      0.00000
     75       5.0477      0.00000
     76       5.1953      0.00000
     77       5.1953      0.00000
     78       7.0602      0.00000
     79       7.0602      0.00000
     80       7.0653      0.00000

 k-point   6 :       0.2857    0.1429    0.0000
  band No.  band energies     occupation 
      1      -7.8876      2.00000
      2      -7.1654      2.00000
      3      -6.0350      2.00000
      4      -4.8639      2.00000
      5      -4.8218      2.00000
      6      -4.4853      2.00000
      7      -4.3785      2.00000
      8      -4.3408      2.00000
      9      -4.3195      2.00000
     10      -4.2143      2.00000
     11      -4.2022      2.00000
     12      -4.1529      2.00000
     13      -4.0934      2.00000
     14      -4.0719      2.00000
     15      -4.0157      2.00000
     16      -3.9060      2.00000
     17      -3.7987      2.00000
     18      -3.6957      2.00000
     19      -3.6218      2.00000
     20      -3.5300      2.00000
     21      -3.4822      2.00000
     22      -3.3984      2.00000
     23      -3.3655      2.00000
     24      -3.1583      2.00000
     25      -3.1414      2.00000
     26      -3.1347      2.00000
     27      -3.0465      2.00000
     28      -2.9674      2.00000
     29      -2.9180      2.00000
     30      -2.9123      2.00000
     31      -2.9071      2.00000
     32      -2.8996      2.00000
     33      -2.8559      2.00000
     34      -2.7876      2.00000
     35      -2.6927      2.00000
     36      -2.5796      2.00000
     37      -2.5668      2.00000
     38      -2.5041      2.00000
     39      -2.4645      2.00000
     40      -2.4425      2.00000
     41      -2.3601      2.00000
     42      -2.3410      2.00000
     43      -2.3230      2.00000
     44      -2.2929      2.00000
     45      -2.2709      2.00000
     46      -2.2270      2.00000
     47      -2.1955      2.00000
     48      -2.1800      2.00000
     49      -2.1372      2.00000
     50      -2.1339      2.00000
     51      -2.0485      2.00000
     52      -1.9975      2.00000
     53      -1.9573      2.00000
     54      -1.9243      2.00000
     55      -1.8484      2.00000
     56      -1.8413      2.00000
     57      -1.8104      2.00000
     58      -1.8057      2.00000
     59      -1.7894      2.00000
     60      -1.6969      2.00000
     61      -1.6649      2.00000
     62      -1.6606      2.00000
     63      -1.6578      2.00000
     64      -1.3473      2.00000
     65      -0.7037      2.00481
     66      -0.0615      0.26094
     67       0.0273      0.09611
     68       1.1245      0.00000
     69       1.6896      0.00000
     70       2.1740      0.00000
     71       2.5606      0.00000
     72       2.9209      0.00000
     73       3.0787      0.00000
     74       4.4583      0.00000
     75       4.6133      0.00000
     76       5.2259      0.00000
     77       5.6900      0.00000
     78       6.1060      0.00000
     79       6.5794      0.00000
     80       7.2192      0.00000

 k-point   7 :       0.4286    0.1429    0.0000
  band No.  band energies     occupation 
      1      -6.8086      2.00000
      2      -6.1731      2.00000
      3      -5.5906      2.00000
      4      -5.2632      2.00000
      5      -5.1189      2.00000
      6      -4.5950      2.00000
      7      -4.4619      2.00000
      8      -4.2471      2.00000
      9      -4.0585      2.00000
     10      -4.0362      2.00000
     11      -4.0188      2.00000
     12      -4.0007      2.00000
     13      -3.8494      2.00000
     14      -3.8432      2.00000
     15      -3.7578      2.00000
     16      -3.7043      2.00000
     17      -3.6327      2.00000
     18      -3.5886      2.00000
     19      -3.5621      2.00000
     20      -3.4450      2.00000
     21      -3.3951      2.00000
     22      -3.3928      2.00000
     23      -3.3668      2.00000
     24      -3.3586      2.00000
     25      -3.3353      2.00000
     26      -3.2899      2.00000
     27      -3.2168      2.00000
     28      -3.0853      2.00000
     29      -3.0402      2.00000
     30      -2.9931      2.00000
     31      -2.9846      2.00000
     32      -2.9277      2.00000
     33      -2.7843      2.00000
     34      -2.7589      2.00000
     35      -2.6856      2.00000
     36      -2.6791      2.00000
     37      -2.6414      2.00000
     38      -2.6298      2.00000
     39      -2.6045      2.00000
     40      -2.5547      2.00000
     41      -2.5467      2.00000
     42      -2.5419      2.00000
     43      -2.4856      2.00000
     44      -2.3989      2.00000
     45      -2.3954      2.00000
     46      -2.3682      2.00000
     47      -2.3019      2.00000
     48      -2.1859      2.00000
     49      -2.1744      2.00000
     50      -2.1137      2.00000
     51      -2.1070      2.00000
     52      -2.1022      2.00000
     53      -2.0286      2.00000
     54      -1.9955      2.00000
     55      -1.9345      2.00000
     56      -1.9306      2.00000
     57      -1.9038      2.00000
     58      -1.9001      2.00000
     59      -1.8026      2.00000
     60      -1.7677      2.00000
     61      -1.7318      2.00000
     62      -1.7045      2.00000
     63      -1.6377      2.00000
     64      -1.4348      2.00000
     65      -1.3208      2.03616
     66      -0.5635      2.03752
     67      -0.5560      1.95481
     68       0.7103      0.00000
     69       1.0017      0.00000
     70       2.4103      0.00000
     71       2.9032      0.00000
     72       3.4690      0.00000
     73       4.4823      0.00000
     74       4.4835      0.00000
     75       4.5817      0.00000
     76       5.2524      0.00000
     77       5.8194      0.00000
     78       6.1209      0.00000
     79       6.2703      0.00000
     80       6.4386      0.00000

 k-point   8 :       0.2857    0.2857    0.0000
  band No.  band energies     occupation 
      1      -7.2325      2.00000
      2      -6.5815      2.00000
      3      -5.6258      2.00000
      4      -4.7430      2.00000
      5      -4.5459      2.00000
      6      -4.5459      2.00000
      7      -4.4734      2.00000
      8      -4.4734      2.00000
      9      -4.2664      2.00000
     10      -4.2321      2.00000
     11      -4.2320      2.00000
     12      -4.1759      2.00000
     13      -3.9532      2.00000
     14      -3.8440      2.00000
     15      -3.8440      2.00000
     16      -3.6892      2.00000
     17      -3.6315      2.00000
     18      -3.6315      2.00000
     19      -3.3897      2.00000
     20      -3.3289      2.00000
     21      -3.3288      2.00000
     22      -3.3166      2.00000
     23      -3.2221      2.00000
     24      -3.1296      2.00000
     25      -3.1232      2.00000
     26      -3.1231      2.00000
     27      -3.1078      2.00000
     28      -3.0489      2.00000
     29      -3.0489      2.00000
     30      -2.9982      2.00000
     31      -2.9245      2.00000
     32      -2.9180      2.00000
     33      -2.8557      2.00000
     34      -2.8468      2.00000
     35      -2.7719      2.00000
     36      -2.6938      2.00000
     37      -2.6567      2.00000
     38      -2.6567      2.00000
     39      -2.6394      2.00000
     40      -2.6378      2.00000
     41      -2.5518      2.00000
     42      -2.5517      2.00000
     43      -2.4561      2.00000
     44      -2.4110      2.00000
     45      -2.4110      2.00000
     46      -2.3669      2.00000
     47      -2.1030      2.00000
     48      -2.1029      2.00000
     49      -2.1012      2.00000
     50      -2.0847      2.00000
     51      -2.0550      2.00000
     52      -1.9892      2.00000
     53      -1.9778      2.00000
     54      -1.9349      2.00000
     55      -1.9349      2.00000
     56      -1.8293      2.00000
     57      -1.7646      2.00000
     58      -1.7646      2.00000
     59      -1.7518      2.00000
     60      -1.6975      2.00000
     61      -1.6812      2.00000
     62      -1.6811      2.00000
     63      -1.6618      2.00000
     64      -1.1700      2.00000
     65       0.1568      0.88259
     66       0.1569     -0.07596
     67       0.4495     -0.31370
     68       0.6784     -0.00178
     69       0.6784      0.00000
     70       1.4489      0.00000
     71       1.4490      0.00000
     72       2.3580      0.00000
     73       3.7565      0.00000
     74       3.7566      0.00000
     75       3.9276      0.00000
     76       4.8398      0.00000
     77       5.4828      0.00000
     78       5.4828      0.00000
     79       5.7400      0.00000
     80       5.9553      0.00000

 k-point   9 :       0.4286    0.2857    0.0000
  band No.  band energies     occupation 
      1      -6.2445      2.00000
      2      -5.7594      2.00000
      3      -5.1862      2.00000
      4      -5.1513      2.00000
      5      -4.9840      2.00000
      6      -4.7604      2.00000
      7      -4.6263      2.00000
      8      -4.5042      2.00000
      9      -4.2149      2.00000
     10      -4.1994      2.00000
     11      -4.0406      2.00000
     12      -4.0012      2.00000
     13      -3.7936      2.00000
     14      -3.7046      2.00000
     15      -3.5440      2.00000
     16      -3.5404      2.00000
     17      -3.5188      2.00000
     18      -3.5083      2.00000
     19      -3.4649      2.00000
     20      -3.2649      2.00000
     21      -3.2586      2.00000
     22      -3.2180      2.00000
     23      -3.2096      2.00000
     24      -3.2068      2.00000
     25      -3.0858      2.00000
     26      -3.0750      2.00000
     27      -3.0645      2.00000
     28      -3.0581      2.00000
     29      -3.0492      2.00000
     30      -2.9994      2.00000
     31      -2.9814      2.00000
     32      -2.9784      2.00000
     33      -2.8697      2.00000
     34      -2.8416      2.00000
     35      -2.8315      2.00000
     36      -2.7694      2.00000
     37      -2.7439      2.00000
     38      -2.7338      2.00000
     39      -2.7052      2.00000
     40      -2.6326      2.00000
     41      -2.5164      2.00000
     42      -2.5056      2.00000
     43      -2.4655      2.00000
     44      -2.4519      2.00000
     45      -2.4499      2.00000
     46      -2.3307      2.00000
     47      -2.2966      2.00000
     48      -2.1349      2.00000
     49      -2.0714      2.00000
     50      -2.0165      2.00000
     51      -1.9908      2.00000
     52      -1.9559      2.00000
     53      -1.8815      2.00000
     54      -1.8468      2.00000
     55      -1.8368      2.00000
     56      -1.8307      2.00000
     57      -1.8109      2.00000
     58      -1.7967      2.00000
     59      -1.7651      2.00000
     60      -1.7380      2.00000
     61      -1.7352      2.00000
     62      -1.6822      2.00000
     63      -1.5303      2.00000
     64      -1.1423      2.00000
     65      -0.9481      2.05207
     66      -0.4752      1.91717
     67      -0.3923      1.70554
     68       0.6932     -0.07754
     69       1.2327      0.00000
     70       1.2708      0.00000
     71       1.4553      0.00000
     72       2.5422      0.00000
     73       3.5315      0.00000
     74       3.5325      0.00000
     75       3.7563      0.00000
     76       3.8167      0.00000
     77       5.0694      0.00000
     78       5.1805      0.00000
     79       5.3496      0.00000
     80       5.3503      0.00000

 k-point  10 :       0.4286    0.4286    0.0000
  band No.  band energies     occupation 
      1      -5.4703      2.00000
      2      -5.2892      2.00000
      3      -5.0417      2.00000
      4      -4.9717      2.00000
      5      -4.9717      2.00000
      6      -4.7998      2.00000
      7      -4.7998      2.00000
      8      -4.7213      2.00000
      9      -4.3437      2.00000
     10      -4.2985      2.00000
     11      -4.2984      2.00000
     12      -4.1537      2.00000
     13      -3.5451      2.00000
     14      -3.4476      2.00000
     15      -3.4476      2.00000
     16      -3.3680      2.00000
     17      -3.3544      2.00000
     18      -3.3264      2.00000
     19      -3.3263      2.00000
     20      -3.2578      2.00000
     21      -3.2578      2.00000
     22      -3.2348      2.00000
     23      -3.1854      2.00000
     24      -3.1513      2.00000
     25      -3.0966      2.00000
     26      -3.0966      2.00000
     27      -3.0474      2.00000
     28      -3.0374      2.00000
     29      -2.9670      2.00000
     30      -2.9222      2.00000
     31      -2.9222      2.00000
     32      -2.9202      2.00000
     33      -2.8732      2.00000
     34      -2.8731      2.00000
     35      -2.8618      2.00000
     36      -2.8285      2.00000
     37      -2.7057      2.00000
     38      -2.7053      2.00000
     39      -2.6700      2.00000
     40      -2.6700      2.00000
     41      -2.5484      2.00000
     42      -2.4966      2.00000
     43      -2.4735      2.00000
     44      -2.4735      2.00000
     45      -2.1476      2.00000
     46      -2.1112      2.00000
     47      -2.1014      2.00000
     48      -2.1013      2.00000
     49      -1.9998      2.00000
     50      -1.9998      2.00000
     51      -1.9983      2.00000
     52      -1.8773      2.00000
     53      -1.8398      2.00000
     54      -1.7952      2.00000
     55      -1.7951      2.00000
     56      -1.7716      2.00000
     57      -1.7500      2.00000
     58      -1.7500      2.00000
     59      -1.7492      2.00000
     60      -1.6999      2.00000
     61      -1.4919      2.00000
     62      -1.3399      2.00000
     63      -1.2057      2.00000
     64      -0.4382      2.00000
     65      -0.4382      1.95894
     66      -0.3203      1.89765
     67      -0.3202      1.84509
     68      -0.2500      0.69336
     69      -0.0088      0.00000
     70      -0.0087      0.00000
     71       0.7753      0.00000
     72       0.8758      0.00000
     73       3.1289      0.00000
     74       3.1290      0.00000
     75       3.1967      0.00000
     76       3.2182      0.00000
     77       4.7635      0.00000
     78       4.7973      0.00000
     79       4.7973      0.00000
     80       4.9714      0.00000


--------------------------------------------------------------------------------------------------------


 soft charge-density along one line, spin component           1
         0         1         2         3         4         5         6         7         8         9
 total charge-density along one line
 
 pseudopotential strength for first ion, spin component:           1
 -9.069   0.000   0.000   0.000   0.000   0.931   0.000   0.000
  0.000  -9.044   0.000   0.000   0.000   0.000   0.919   0.000
  0.000   0.000  -9.028   0.000   0.000   0.000   0.000   0.911
  0.000   0.000   0.000  -9.044   0.000   0.000   0.000   0.000
  0.000   0.000   0.000   0.000  -9.046   0.000   0.000   0.000
  0.931   0.000   0.000   0.000   0.000   1.147   0.000   0.000
  0.000   0.919   0.000   0.000   0.000   0.000   1.153   0.000
  0.000   0.000   0.911   0.000   0.000   0.000   0.000   1.156
  0.000   0.000   0.000   0.919   0.000   0.000   0.000   0.000
  0.000   0.000   0.000   0.000   0.921   0.000   0.000   0.000
  0.000   0.000  -0.005   0.000   0.000   0.000   0.000   0.002
  0.000   0.000   0.000   0.000   0.000   0.000   0.000   0.000
  0.000  -0.014   0.000   0.000   0.000   0.000   0.008   0.000
  0.000   0.000  -0.015   0.000   0.000   0.000   0.000   0.008
  0.000   0.000   0.000  -0.014   0.000   0.000   0.000   0.000
  0.000   0.007   0.000   0.000   0.000   0.000  -0.004   0.000
  0.000   0.000   0.009   0.000   0.000   0.000   0.000  -0.004
  0.000   0.000   0.000   0.007   0.000   0.000   0.000   0.000
 total augmentation occupancy for first ion, spin component:           1
  1.916   0.000   0.000   0.000   0.000   0.003   0.000   0.000   0.000   0.000   0.000   0.000   0.000   0.000   0.000   0.000
  0.000   1.920   0.000   0.000   0.000   0.000  -0.035   0.000   0.000   0.000   0.000   0.000   0.014   0.000   0.000  -0.008
  0.000   0.000   1.932   0.000   0.000   0.000   0.000  -0.059   0.000   0.000   0.019   0.031   0.000   0.015   0.000   0.000
  0.000   0.000   0.000   1.920   0.000   0.000   0.000   0.000  -0.035   0.000   0.000   0.000   0.000   0.000   0.014   0.000
  0.000   0.000   0.000   0.000   1.920   0.000   0.000   0.000   0.000  -0.053   0.000   0.000   0.000   0.000   0.000   0.000
  0.003   0.000   0.000   0.000   0.000   0.059   0.000   0.000   0.000   0.000   0.000   0.000   0.000   0.000   0.000   0.000
  0.000  -0.035   0.000   0.000   0.000   0.000   0.046   0.000   0.000   0.000   0.000   0.000   0.044   0.000   0.000  -0.003
  0.000   0.000  -0.059   0.000   0.000   0.000   0.000   0.051   0.000   0.000  -0.061   0.009   0.000   0.038   0.000   0.000
  0.000   0.000   0.000  -0.035   0.000   0.000   0.000   0.000   0.046   0.000   0.000   0.000   0.000   0.000   0.044   0.000
  0.000   0.000   0.000   0.000  -0.053   0.000   0.000   0.000   0.000   0.055   0.000   0.000   0.000   0.000   0.000   0.000
  0.000   0.000   0.019   0.000   0.000   0.000   0.000  -0.061   0.000   0.000   1.225  -0.276   0.000   0.094   0.000   0.000
  0.000   0.000   0.031   0.000   0.000   0.000   0.000   0.009   0.000   0.000  -0.276   0.107   0.000  -0.053   0.000   0.000
  0.000   0.014   0.000   0.000   0.000   0.000   0.044   0.000   0.000   0.000   0.000   0.000   0.149   0.000   0.000  -0.010
  0.000   0.000   0.015   0.000   0.000   0.000   0.000   0.038   0.000   0.000   0.094  -0.053   0.000   0.088   0.000   0.000
  0.000   0.000   0.000   0.014   0.000   0.000   0.000   0.000   0.044   0.000   0.000   0.000   0.000   0.000   0.149   0.000
  0.000  -0.008   0.000   0.000   0.000   0.000  -0.003   0.000   0.000   0.000   0.000   0.000  -0.010   0.000   0.000   0.001
  0.000   0.000  -0.009   0.000   0.000   0.000   0.000  -0.002   0.000   0.000  -0.017   0.007   0.000  -0.007   0.000   0.000
  0.000   0.000   0.000  -0.008   0.000   0.000   0.000   0.000  -0.003   0.000   0.000   0.000   0.000   0.000  -0.010   0.000


------------------------ aborting loop because EDIFF is reached ----------------------------------------


    CHARGE:  cpu time    1.34: real time    1.34
    FORLOC:  cpu time    0.05: real time    0.05
    FORNL :  cpu time   23.41: real time   23.41
    STRESS:  cpu time   62.62: real time   62.63
    FORCOR:  cpu time    0.46: real time    0.47
    FORHAR:  cpu time    0.16: real time    0.15
    MIXING:  cpu time    0.02: real time    0.02

  FORCE on cell =-STRESS in cart. coord.  units (eV):
  Direction    XX          YY          ZZ          XY          YZ          ZX
  --------------------------------------------------------------------------------------
  Alpha Z   667.73723   667.73723   667.73723
  Ewald   44758.69700 44758.69700-53429.00219     0.00000     0.00000     0.00000
  Hartree 49333.45999 49333.45999-46794.92944     0.00000     0.00000     0.00000
  E(xc)    -750.71654  -750.71654  -751.68322     0.00000     0.00000     0.00000
  Local  -95181.78433-95181.78433 99132.68678     0.00000     0.00000     0.00000
  n-local  -439.02626  -451.43297  -446.25571     3.78732     0.00000     0.00000
  augment   674.82246   674.82245   676.19771    -0.00003    -0.00004    -0.00005
  Kinetic   954.53972   926.36976   944.10406    -3.71182     0.00000     0.00000
  Fock        0.00000     0.00000     0.00000     0.00000     0.00000     0.00000
  -------------------------------------------------------------------------------------
  Total      -2.55906    -2.55906    -1.14478     0.00000     0.00000     0.00000
  in kB     -14.88096   -14.88096    -6.65692     0.00000     0.00000     0.00000
  external pressure =      -12.14 kB  Pullay stress =        0.00 kB


 VOLUME and BASIS-vectors are now :
 -----------------------------------------------------------------------------
  energy-cutoff  :      415.00
  volume of cell :      275.52
      direct lattice vectors                 reciprocal lattice vectors
     3.631354857  0.000000000  0.000000000     0.275379311  0.000000000  0.000000000
     0.000000000  3.631354857  0.000000000     0.000000000  0.275379311  0.000000000
     0.000000000  0.000000000 20.894064570     0.000000000  0.000000000  0.047860482

  length of vectors
     3.631354857  3.631354857 20.894064570     0.275379311  0.275379311  0.047860482


 FORCES acting on ions
    electron-ion (+dipol)            ewald-force                    non-local-force                 convergence-correction
 -----------------------------------------------------------------------------------------------
   -.908E-13 0.182E-13 0.392E+04   -.164E-13 0.124E-13 -.392E+04   -.517E-25 -.775E-25 -.266E+01   0.430E-14 0.414E-13 -.132E-02
   -.896E-13 -.831E-13 0.793E+03   0.230E-13 -.101E-13 -.793E+03   -.207E-24 0.207E-24 -.125E-01   0.163E-13 0.254E-13 0.454E-03
   -.725E-14 -.815E-13 -.238E+04   -.838E-14 0.178E-13 0.238E+04   0.155E-24 0.000E+00 0.723E+00   -.429E-13 -.921E-13 0.218E-03
   0.596E-12 -.667E-13 0.392E+04   -.236E-13 -.413E-14 -.392E+04   0.258E-25 -.569E-24 -.266E+01   0.331E-13 0.798E-13 -.132E-02
   0.645E-12 0.715E-12 0.793E+03   0.177E-13 -.275E-13 -.793E+03   -.362E-24 -.414E-24 -.125E-01   -.193E-14 -.519E-13 0.454E-03
   0.670E-12 0.347E-12 -.238E+04   -.211E-13 0.111E-14 0.238E+04   0.168E-24 -.207E-24 0.723E+00   -.466E-13 -.773E-13 0.218E-03
   0.586E-12 -.121E-13 0.238E+04   -.336E-17 0.948E-14 -.238E+04   -.103E-24 0.207E-24 -.723E+00   0.456E-13 0.718E-13 -.149E-03
   0.663E-12 -.684E-13 -.793E+03   -.251E-13 0.107E-13 0.793E+03   0.427E-24 0.517E-24 0.125E-01   0.202E-13 -.838E-13 -.388E-03
   0.705E-12 -.753E-13 -.392E+04   0.758E-14 0.589E-14 0.392E+04   0.103E-24 0.530E-24 0.266E+01   -.333E-15 -.104E-12 0.137E-02
   -.730E-13 0.462E-12 0.238E+04   -.142E-13 -.482E-14 -.238E+04   0.336E-24 0.000E+00 -.723E+00   0.589E-13 0.688E-13 -.149E-03
   -.545E-13 0.301E-12 -.793E+03   -.404E-13 -.298E-14 0.793E+03   0.323E-24 -.207E-24 0.125E-01   0.284E-13 -.429E-13 -.388E-03
   0.322E-13 0.144E-12 -.392E+04   -.804E-14 -.917E-14 0.392E+04   -.103E-24 0.000E+00 0.266E+01   0.200E-13 -.396E-13 0.137E-02
 -----------------------------------------------------------------------------------------------
   0.358E-11 0.160E-11 -.357E-02   -.109E-12 -.129E-14 -.273E-11   0.711E-24 -.129E-25 -.133E-14   0.135E-12 -.204E-12 0.373E-03
 
 
 POSITION                                       TOTAL-FORCE (eV/Angst)
 -----------------------------------------------------------------------------------
      0.00000      0.00000      0.01795         0.000000      0.000000      0.028583
      0.00000      0.00000      3.63411         0.000000      0.000000     -0.045149
      0.00000      0.00000      7.28170         0.000000      0.000000     -0.017507
      1.81568      1.81568      0.01795         0.000000      0.000000      0.028583
      1.81568      1.81568      3.63411         0.000000      0.000000     -0.045149
      1.81568      1.81568      7.28170         0.000000      0.000000     -0.017507
      1.81568      0.00000      1.79669         0.000000      0.000000      0.017507
      1.81568      0.00000      5.44427         0.000000      0.000000      0.045149
      1.81568      0.00000      9.06043         0.000000      0.000000     -0.028583
      0.00000      1.81568      1.79669         0.000000      0.000000      0.017507
      0.00000      1.81568      5.44427         0.000000      0.000000      0.045149
      0.00000      1.81568      9.06043         0.000000      0.000000     -0.028583
 -----------------------------------------------------------------------------------
    total drift:                                0.000000      0.000000     -0.003192


--------------------------------------------------------------------------------------------------------



  FREE ENERGIE OF THE ION-ELECTRON SYSTEM (eV)
  ---------------------------------------------------
  free  energy   TOTEN  =       -42.222558 eV

  energy  without entropy=      -42.222558  energy(sigma->0) =      -42.222558
 
 d Force = 0.4456431E-03[ 0.393E-03, 0.498E-03]  d Energy = 0.5396419E-03-0.940E-04
 d Force =-0.1463015E+02[-0.146E+02,-0.146E+02]  d Ewald  =-0.1463015E+02-0.741E-06


--------------------------------------------------------------------------------------------------------


    POTLOK:  cpu time    0.50: real time    0.50


--------------------------------------------------------------------------------------------------------


 Conjugate gradient step on ions:
 trial-energy change:   -0.000540  1 .order   -0.000446   -0.000498   -0.000393
  (g-gl).g = 0.994E-04      g.g   = 0.961E-04  gl.gl    = 0.113E-02
 g(Force)  = 0.961E-04   g(Stress)= 0.000E+00 ortho     =-0.335E-05
 gamma     =   0.08784
 trial     =   5.20000
 opt step  =  20.80000  (harmonic =  24.73340) maximal distance =0.00562628
 next E    =   -42.223202   (d E  =  -0.00118)


--------------------------------------------------------------------------------------------------------


    WAVPRE:  cpu time    0.11: real time    0.11
    FEWALD:  cpu time    0.00: real time    0.00
    ORTHCH:  cpu time    7.76: real time    7.76
     LOOP+:  cpu time  473.20: real time  473.25


----------------------------------------- Iteration    7(   1)  ---------------------------------------


    POTLOK:  cpu time    0.44: real time    0.44
    SETDIJ:  cpu time    0.06: real time    0.06
     EDDAV:  cpu time   53.68: real time   53.68
 BZINTS: Fermi energy: -0.232888;132.000000 electrons
         Band energy:-394.724473;  BLOECHL correction: -0.141382
       DOS:  cpu time    0.04: real time    0.04
    CHARGE:  cpu time    1.32: real time    1.33
    MIXING:  cpu time    0.02: real time    0.01
    --------------------------------------------
      LOOP:  cpu time   55.56: real time   55.56

 eigenvalue-minimisations  :  1616
 total energy-change (2. order) :-0.8132265E-03  (-0.6428970E-01)
 number of electron     131.9999580 magnetization 
 augmentation part       86.4621296 magnetization 

 Broyden mixing:
  rms(total) = 0.54381E-02    rms(broyden)= 0.54295E-02
  rms(prec ) = 0.57827E-02
  weight for this iteration     100.00

 Free energy of the ion-electron system (eV)
  ---------------------------------------------------
  alpha Z        PSCENC =       667.73722884
  Ewald energy   TEWEN  =     36132.35827226
  -1/2 Hartree   DENC   =    -51915.75419924
  -exchange  EXHF       =         0.00000000
  -V(xc)+E(xc)   XCENC  =       512.10201954
  PAW double counting   =     13119.38110253   -14854.98033046
  entropy T*S    EENTRO =         0.00000000
  eigenvalues    EBANDS =      -394.72447338
  atomic energy  EATOM  =     16691.65700843
  ---------------------------------------------------
  free energy    TOTEN  =       -42.22337148 eV

  energy without entropy =      -42.22337148  energy(sigma->0) =      -42.22337148


--------------------------------------------------------------------------------------------------------




----------------------------------------- Iteration    7(   2)  ---------------------------------------


    POTLOK:  cpu time    0.44: real time    0.44
    SETDIJ:  cpu time    0.06: real time    0.06
     EDDAV:  cpu time   57.25: real time   57.25
 BZINTS: Fermi energy: -0.233028;132.000000 electrons
         Band energy:-394.785649;  BLOECHL correction: -0.141450
       DOS:  cpu time    0.04: real time    0.04
    CHARGE:  cpu time    1.36: real time    1.36
    MIXING:  cpu time    0.02: real time    0.02
    --------------------------------------------
      LOOP:  cpu time   59.17: real time   59.17

 eigenvalue-minimisations  :  1760
 total energy-change (2. order) :-0.2391213E-03  (-0.2627441E-03)
 number of electron     131.9999580 magnetization 
 augmentation part       86.4652016 magnetization 

 Broyden mixing:
  rms(total) = 0.63201E-02    rms(broyden)= 0.63193E-02
  rms(prec ) = 0.67417E-02
  weight for this iteration     100.00

 eigenvalues of (default mixing * dielectric matrix)
  average eigenvalue GAMMA=   0.3939
  0.3939

 Free energy of the ion-electron system (eV)
  ---------------------------------------------------
  alpha Z        PSCENC =       667.73722884
  Ewald energy   TEWEN  =     36132.35827226
  -1/2 Hartree   DENC   =    -51915.71477838
  -exchange  EXHF       =         0.00000000
  -V(xc)+E(xc)   XCENC  =       512.09477963
  PAW double counting   =     13119.68900933   -14855.25948166
  entropy T*S    EENTRO =         0.00000000
  eigenvalues    EBANDS =      -394.78564905
  atomic energy  EATOM  =     16691.65700843
  ---------------------------------------------------
  free energy    TOTEN  =       -42.22361060 eV

  energy without entropy =      -42.22361060  energy(sigma->0) =      -42.22361060


--------------------------------------------------------------------------------------------------------




----------------------------------------- Iteration    7(   3)  ---------------------------------------


    POTLOK:  cpu time    0.44: real time    0.44
    SETDIJ:  cpu time    0.06: real time    0.06
     EDDAV:  cpu time   54.44: real time   54.44
 BZINTS: Fermi energy: -0.233278;132.000000 electrons
         Band energy:-394.828303;  BLOECHL correction: -0.141423
       DOS:  cpu time    0.04: real time    0.04
    CHARGE:  cpu time    1.36: real time    1.36
    MIXING:  cpu time    0.02: real time    0.02
    --------------------------------------------
      LOOP:  cpu time   56.35: real time   56.36

 eigenvalue-minimisations  :  1648
 total energy-change (2. order) : 0.5748909E-04  (-0.4928057E-04)
 number of electron     131.9999580 magnetization 
 augmentation part       86.4657716 magnetization 

 Broyden mixing:
  rms(total) = 0.29441E-02    rms(broyden)= 0.29439E-02
  rms(prec ) = 0.30925E-02
  weight for this iteration     100.00

 eigenvalues of (default mixing * dielectric matrix)
  average eigenvalue GAMMA=   1.2839
  0.3795  2.1884

 Free energy of the ion-electron system (eV)
  ---------------------------------------------------
  alpha Z        PSCENC =       667.73722884
  Ewald energy   TEWEN  =     36132.35827226
  -1/2 Hartree   DENC   =    -51915.65903327
  -exchange  EXHF       =         0.00000000
  -V(xc)+E(xc)   XCENC  =       512.09537078
  PAW double counting   =     13119.83636948   -14855.42046677
  entropy T*S    EENTRO =         0.00000000
  eigenvalues    EBANDS =      -394.82830285
  atomic energy  EATOM  =     16691.65700843
  ---------------------------------------------------
  free energy    TOTEN  =       -42.22355311 eV

  energy without entropy =      -42.22355311  energy(sigma->0) =      -42.22355311


--------------------------------------------------------------------------------------------------------




----------------------------------------- Iteration    7(   4)  ---------------------------------------


    POTLOK:  cpu time    0.44: real time    0.44
    SETDIJ:  cpu time    0.06: real time    0.06
     EDDAV:  cpu time   56.36: real time   56.36
 BZINTS: Fermi energy: -0.232106;132.000000 electrons
         Band energy:-394.615677;  BLOECHL correction: -0.141413
       DOS:  cpu time    0.04: real time    0.04
    CHARGE:  cpu time    1.33: real time    1.33
    MIXING:  cpu time    0.02: real time    0.02
    --------------------------------------------
      LOOP:  cpu time   58.25: real time   58.25

 eigenvalue-minimisations  :  1720
 total energy-change (2. order) : 0.4356843E-05  (-0.7941511E-05)
 number of electron     131.9999580 magnetization 
 augmentation part       86.4620111 magnetization 

 Broyden mixing:
  rms(total) = 0.11359E-02    rms(broyden)= 0.11358E-02
  rms(prec ) = 0.12109E-02
  weight for this iteration     100.00

 eigenvalues of (default mixing * dielectric matrix)
  average eigenvalue GAMMA=   1.2207
  2.6668  0.6115  0.3839

 Free energy of the ion-electron system (eV)
  ---------------------------------------------------
  alpha Z        PSCENC =       667.73722884
  Ewald energy   TEWEN  =     36132.35827226
  -1/2 Hartree   DENC   =    -51915.78666158
  -exchange  EXHF       =         0.00000000
  -V(xc)+E(xc)   XCENC  =       512.09923092
  PAW double counting   =     13120.61507125   -14856.28802145
  entropy T*S    EENTRO =         0.00000000
  eigenvalues    EBANDS =      -394.61567742
  atomic energy  EATOM  =     16691.65700843
  ---------------------------------------------------
  free energy    TOTEN  =       -42.22354875 eV

  energy without entropy =      -42.22354875  energy(sigma->0) =      -42.22354875


--------------------------------------------------------------------------------------------------------




----------------------------------------- Iteration    7(   5)  ---------------------------------------


    POTLOK:  cpu time    0.44: real time    0.44
    SETDIJ:  cpu time    0.06: real time    0.06
     EDDAV:  cpu time   55.10: real time   55.10
 BZINTS: Fermi energy: -0.232558;132.000000 electrons
         Band energy:-394.716736;  BLOECHL correction: -0.141433
       DOS:  cpu time    0.04: real time    0.04
    CHARGE:  cpu time    1.34: real time    1.34
    MIXING:  cpu time    0.02: real time    0.02
    --------------------------------------------
      LOOP:  cpu time   57.00: real time   57.00

 eigenvalue-minimisations  :  1664
 total energy-change (2. order) : 0.1181239E-04  (-0.2404543E-05)
 number of electron     131.9999580 magnetization 
 augmentation part       86.4642424 magnetization 

 Broyden mixing:
  rms(total) = 0.69655E-03    rms(broyden)= 0.69651E-03
  rms(prec ) = 0.74596E-03
  weight for this iteration     100.00

 eigenvalues of (default mixing * dielectric matrix)
  average eigenvalue GAMMA=   1.0412
  2.5453  0.6247  0.6247  0.3701

 Free energy of the ion-electron system (eV)
  ---------------------------------------------------
  alpha Z        PSCENC =       667.73722884
  Ewald energy   TEWEN  =     36132.35827226
  -1/2 Hartree   DENC   =    -51915.71478021
  -exchange  EXHF       =         0.00000000
  -V(xc)+E(xc)   XCENC  =       512.09508072
  PAW double counting   =     13120.60330132   -14856.24291235
  entropy T*S    EENTRO =         0.00000000
  eigenvalues    EBANDS =      -394.71673595
  atomic energy  EATOM  =     16691.65700843
  ---------------------------------------------------
  free energy    TOTEN  =       -42.22353694 eV

  energy without entropy =      -42.22353694  energy(sigma->0) =      -42.22353694


--------------------------------------------------------------------------------------------------------




----------------------------------------- Iteration    7(   6)  ---------------------------------------


    POTLOK:  cpu time    0.44: real time    0.44
    SETDIJ:  cpu time    0.06: real time    0.06
     EDDAV:  cpu time   50.30: real time   50.31
 BZINTS: Fermi energy: -0.232684;132.000000 electrons
         Band energy:-394.734117;  BLOECHL correction: -0.141417
       DOS:  cpu time    0.04: real time    0.04
    CHARGE:  cpu time    1.33: real time    1.33
    MIXING:  cpu time    0.02: real time    0.02
    --------------------------------------------
      LOOP:  cpu time   52.20: real time   52.20

 eigenvalue-minimisations  :  1480
 total energy-change (2. order) : 0.7399685E-05  (-0.3950006E-06)
 number of electron     131.9999580 magnetization 
 augmentation part       86.4646336 magnetization 

 Broyden mixing:
  rms(total) = 0.31197E-03    rms(broyden)= 0.31195E-03
  rms(prec ) = 0.36569E-03
  weight for this iteration     100.00

 eigenvalues of (default mixing * dielectric matrix)
  average eigenvalue GAMMA=   0.9880
  2.4604  0.9701  0.6952  0.3815  0.4330

 Free energy of the ion-electron system (eV)
  ---------------------------------------------------
  alpha Z        PSCENC =       667.73722884
  Ewald energy   TEWEN  =     36132.35827226
  -1/2 Hartree   DENC   =    -51915.70348731
  -exchange  EXHF       =         0.00000000
  -V(xc)+E(xc)   XCENC  =       512.09470902
  PAW double counting   =     13120.55990234   -14856.19304642
  entropy T*S    EENTRO =         0.00000000
  eigenvalues    EBANDS =      -394.73411671
  atomic energy  EATOM  =     16691.65700843
  ---------------------------------------------------
  free energy    TOTEN  =       -42.22352954 eV

  energy without entropy =      -42.22352954  energy(sigma->0) =      -42.22352954


--------------------------------------------------------------------------------------------------------




----------------------------------------- Iteration    7(   7)  ---------------------------------------


    POTLOK:  cpu time    0.44: real time    0.44
    SETDIJ:  cpu time    0.06: real time    0.06
     EDDAV:  cpu time   36.00: real time   36.01
 BZINTS: Fermi energy: -0.232571;132.000000 electrons
         Band energy:-394.717953;  BLOECHL correction: -0.141431
       DOS:  cpu time    0.04: real time    0.04
    CHARGE:  cpu time    1.34: real time    1.34
    MIXING:  cpu time    0.02: real time    0.02
    --------------------------------------------
      LOOP:  cpu time   37.90: real time   37.91

 eigenvalue-minimisations  :   912
 total energy-change (2. order) :-0.9012841E-05  (-0.6369497E-07)
 number of electron     131.9999580 magnetization 
 augmentation part       86.4646561 magnetization 

 Broyden mixing:
  rms(total) = 0.15320E-03    rms(broyden)= 0.15319E-03
  rms(prec ) = 0.16360E-03
  weight for this iteration     100.00

 eigenvalues of (default mixing * dielectric matrix)
  average eigenvalue GAMMA=   1.1493
  2.3291  2.0942  0.9907  0.7064  0.3727  0.4025

 Free energy of the ion-electron system (eV)
  ---------------------------------------------------
  alpha Z        PSCENC =       667.73722884
  Ewald energy   TEWEN  =     36132.35827226
  -1/2 Hartree   DENC   =    -51915.72054808
  -exchange  EXHF       =         0.00000000
  -V(xc)+E(xc)   XCENC  =       512.09471192
  PAW double counting   =     13120.54832123   -14856.18058062
  entropy T*S    EENTRO =         0.00000000
  eigenvalues    EBANDS =      -394.71795254
  atomic energy  EATOM  =     16691.65700843
  ---------------------------------------------------
  free energy    TOTEN  =       -42.22353856 eV

  energy without entropy =      -42.22353856  energy(sigma->0) =      -42.22353856


--------------------------------------------------------------------------------------------------------




----------------------------------------- Iteration    7(   8)  ---------------------------------------


    POTLOK:  cpu time    0.44: real time    0.44
    SETDIJ:  cpu time    0.06: real time    0.06
     EDDAV:  cpu time   35.75: real time   35.75
 BZINTS: Fermi energy: -0.232567;132.000000 electrons
         Band energy:-394.716351;  BLOECHL correction: -0.141426
       DOS:  cpu time    0.04: real time    0.04
    CHARGE:  cpu time    1.35: real time    1.35
    MIXING:  cpu time    0.02: real time    0.02
    --------------------------------------------
      LOOP:  cpu time   37.66: real time   37.66

 eigenvalue-minimisations  :   896
 total energy-change (2. order) : 0.1323460E-05  (-0.3940827E-07)
 number of electron     131.9999580 magnetization 
 augmentation part       86.4647023 magnetization 

 Broyden mixing:
  rms(total) = 0.66220E-04    rms(broyden)= 0.66215E-04
  rms(prec ) = 0.70745E-04
  weight for this iteration     100.00

 eigenvalues of (default mixing * dielectric matrix)
  average eigenvalue GAMMA=   1.1653
  2.4842  1.5972  1.5972  1.0456  0.6767  0.3868  0.3693

 Free energy of the ion-electron system (eV)
  ---------------------------------------------------
  alpha Z        PSCENC =       667.73722884
  Ewald energy   TEWEN  =     36132.35827226
  -1/2 Hartree   DENC   =    -51915.72075814
  -exchange  EXHF       =         0.00000000
  -V(xc)+E(xc)   XCENC  =       512.09482003
  PAW double counting   =     13120.55127546   -14856.18503316
  entropy T*S    EENTRO =         0.00000000
  eigenvalues    EBANDS =      -394.71635096
  atomic energy  EATOM  =     16691.65700843
  ---------------------------------------------------
  free energy    TOTEN  =       -42.22353723 eV

  energy without entropy =      -42.22353723  energy(sigma->0) =      -42.22353723


--------------------------------------------------------------------------------------------------------




----------------------------------------- Iteration    7(   9)  ---------------------------------------


    POTLOK:  cpu time    0.44: real time    0.44
    SETDIJ:  cpu time    0.06: real time    0.06
     EDDAV:  cpu time   35.05: real time   35.05
 BZINTS: Fermi energy: -0.232513;132.000000 electrons
         Band energy:-394.706963;  BLOECHL correction: -0.141424
       DOS:  cpu time    0.04: real time    0.04
    --------------------------------------------
      LOOP:  cpu time   35.59: real time   35.59

 eigenvalue-minimisations  :   872
 total energy-change (2. order) :-0.5735965E-06  (-0.1824057E-07)
 number of electron     131.9999580 magnetization 
 augmentation part       86.4647023 magnetization 

 Free energy of the ion-electron system (eV)
  ---------------------------------------------------
  alpha Z        PSCENC =       667.73722884
  Ewald energy   TEWEN  =     36132.35827226
  -1/2 Hartree   DENC   =    -51915.72650187
  -exchange  EXHF       =         0.00000000
  -V(xc)+E(xc)   XCENC  =       512.09505228
  PAW double counting   =     13120.56070188   -14856.19833631
  entropy T*S    EENTRO =         0.00000000
  eigenvalues    EBANDS =      -394.70696332
  atomic energy  EATOM  =     16691.65700843
  ---------------------------------------------------
  free energy    TOTEN  =       -42.22353781 eV

  energy without entropy =      -42.22353781  energy(sigma->0) =      -42.22353781


--------------------------------------------------------------------------------------------------------




 average (electrostatic) potential at core
  the test charge radii are     1.0053
  (the norm of the test charge is              1.0000)
       1 -43.4849       2 -43.7839       3 -43.8471       4 -43.4849       5 -43.7839
       6 -43.8471       7 -43.8470       8 -43.7839       9 -43.4851      10 -43.8470
      11 -43.7839      12 -43.4851
 
 
 
 E-fermi :  -0.2325     XC(G=0):  -7.5130     alpha+bet : -4.9539


 k-point   1 :       0.0000    0.0000    0.0000
  band No.  band energies     occupation 
      1      -9.0666      2.00000
      2      -8.2970      2.00000
      3      -7.0221      2.00000
      4      -5.6051      2.00000
      5      -4.8950      2.00000
      6      -4.8545      2.00000
      7      -4.7927      2.00000
      8      -4.7926      2.00000
      9      -4.4767      2.00000
     10      -4.4767      2.00000
     11      -4.3960      2.00000
     12      -4.3834      2.00000
     13      -4.3834      2.00000
     14      -4.2074      2.00000
     15      -4.1286      2.00000
     16      -4.1286      2.00000
     17      -3.9513      2.00000
     18      -3.9511      2.00000
     19      -3.8616      2.00000
     20      -3.6600      2.00000
     21      -3.6600      2.00000
     22      -3.4707      2.00000
     23      -3.2209      2.00000
     24      -3.1244      2.00000
     25      -3.0384      2.00000
     26      -3.0384      2.00000
     27      -2.9988      2.00000
     28      -2.9988      2.00000
     29      -2.8351      2.00000
     30      -2.8351      2.00000
     31      -2.6297      2.00000
     32      -2.5827      2.00000
     33      -2.4864      2.00000
     34      -2.4864      2.00000
     35      -2.3563      2.00000
     36      -2.3209      2.00000
     37      -2.3053      2.00000
     38      -2.3053      2.00000
     39      -2.2677      2.00000
     40      -2.1948      2.00000
     41      -2.1948      2.00000
     42      -2.1933      2.00000
     43      -2.0672      2.00000
     44      -2.0672      2.00000
     45      -2.0296      2.00000
     46      -1.9316      2.00000
     47      -1.9316      2.00000
     48      -1.8421      2.00000
     49      -1.7903      2.00000
     50      -1.7903      2.00000
     51      -1.7653      2.00000
     52      -1.7652      2.00000
     53      -1.7525      2.00000
     54      -1.7525      2.00000
     55      -1.6717      2.00000
     56      -1.6716      2.00000
     57      -1.6509      2.00000
     58      -1.6457      2.00000
     59      -1.6285      2.00000
     60      -1.6285      2.00000
     61      -1.6124      2.00000
     62      -1.5933      2.00000
     63      -1.5933      2.00000
     64      -1.2992      2.00000
     65      -1.2990      2.00000
     66       0.0525      0.00000
     67       1.1196      0.00000
     68       1.9441      0.00000
     69       1.9441      0.00000
     70       3.1815      0.00000
     71       3.1815      0.00000
     72       4.0128      0.00000
     73       4.6143      0.00000
     74       4.9212      0.00000
     75       4.9212      0.00000
     76       6.6037      0.00000
     77       6.9906      0.00000
     78       6.9906      0.00000
     79       7.0395      0.00000
     80       7.0396      0.00000

 k-point   2 :       0.1429    0.0000    0.0000
  band No.  band energies     occupation 
      1      -8.8241      2.00000
      2      -8.0630      2.00000
      3      -6.8059      2.00000
      4      -5.4206      2.00000
      5      -4.7897      2.00000
      6      -4.7467      2.00000
      7      -4.7328      2.00000
      8      -4.6890      2.00000
      9      -4.4443      2.00000
     10      -4.3975      2.00000
     11      -4.3309      2.00000
     12      -4.3233      2.00000
     13      -4.3142      2.00000
     14      -4.1526      2.00000
     15      -4.1132      2.00000
     16      -4.0811      2.00000
     17      -3.9208      2.00000
     18      -3.8747      2.00000
     19      -3.8249      2.00000
     20      -3.6670      2.00000
     21      -3.6395      2.00000
     22      -3.4590      2.00000
     23      -3.2347      2.00000
     24      -3.0845      2.00000
     25      -3.0687      2.00000
     26      -3.0353      2.00000
     27      -3.0296      2.00000
     28      -3.0003      2.00000
     29      -2.8979      2.00000
     30      -2.8978      2.00000
     31      -2.8414      2.00000
     32      -2.5805      2.00000
     33      -2.4979      2.00000
     34      -2.4456      2.00000
     35      -2.4342      2.00000
     36      -2.4086      2.00000
     37      -2.4066      2.00000
     38      -2.3313      2.00000
     39      -2.3078      2.00000
     40      -2.2592      2.00000
     41      -2.2116      2.00000
     42      -2.1847      2.00000
     43      -2.0890      2.00000
     44      -2.0784      2.00000
     45      -2.0602      2.00000
     46      -2.0309      2.00000
     47      -1.9903      2.00000
     48      -1.9649      2.00000
     49      -1.8839      2.00000
     50      -1.8781      2.00000
     51      -1.8637      2.00000
     52      -1.8325      2.00000
     53      -1.8028      2.00000
     54      -1.7927      2.00000
     55      -1.7884      2.00000
     56      -1.7614      2.00000
     57      -1.7477      2.00000
     58      -1.7239      2.00000
     59      -1.7036      2.00000
     60      -1.6917      2.00000
     61      -1.6785      2.00000
     62      -1.6323      2.00000
     63      -1.4533      2.00000
     64      -1.4326      2.00000
     65      -1.0765      2.00000
     66       0.4770     -0.01193
     67       0.6342      0.00000
     68       1.6130      0.00000
     69       1.7157      0.00000
     70       2.4761      0.00000
     71       3.1702      0.00000
     72       3.6213      0.00000
     73       4.2572      0.00000
     74       4.8340      0.00000
     75       4.8861      0.00000
     76       5.2930      0.00000
     77       6.7351      0.00000
     78       6.8373      0.00000
     79       7.1413      0.00000
     80       7.3162      0.00000

 k-point   3 :       0.2857    0.0000    0.0000
  band No.  band energies     occupation 
      1      -8.1143      2.00000
      2      -7.3824      2.00000
      3      -6.1914      2.00000
      4      -4.9493      2.00000
      5      -4.9269      2.00000
      6      -4.5492      2.00000
      7      -4.4179      2.00000
      8      -4.3878      2.00000
      9      -4.3570      2.00000
     10      -4.2061      2.00000
     11      -4.1534      2.00000
     12      -4.1332      2.00000
     13      -4.1097      2.00000
     14      -4.0782      2.00000
     15      -4.0224      2.00000
     16      -3.9895      2.00000
     17      -3.9491      2.00000
     18      -3.7273      2.00000
     19      -3.6876      2.00000
     20      -3.5932      2.00000
     21      -3.5317      2.00000
     22      -3.4703      2.00000
     23      -3.3768      2.00000
     24      -3.2266      2.00000
     25      -3.1657      2.00000
     26      -3.1567      2.00000
     27      -3.0427      2.00000
     28      -2.9553      2.00000
     29      -2.9165      2.00000
     30      -2.9113      2.00000
     31      -2.9060      2.00000
     32      -2.8038      2.00000
     33      -2.8028      2.00000
     34      -2.7347      2.00000
     35      -2.5879      2.00000
     36      -2.5848      2.00000
     37      -2.5131      2.00000
     38      -2.4521      2.00000
     39      -2.4316      2.00000
     40      -2.3573      2.00000
     41      -2.3052      2.00000
     42      -2.2703      2.00000
     43      -2.1905      2.00000
     44      -2.1764      2.00000
     45      -2.1614      2.00000
     46      -2.1305      2.00000
     47      -2.1297      2.00000
     48      -2.1044      2.00000
     49      -2.0876      2.00000
     50      -2.0781      2.00000
     51      -2.0145      2.00000
     52      -1.9797      2.00000
     53      -1.9688      2.00000
     54      -1.9634      2.00000
     55      -1.9255      2.00000
     56      -1.9203      2.00000
     57      -1.8729      2.00000
     58      -1.8715      2.00000
     59      -1.7831      2.00000
     60      -1.7465      2.00000
     61      -1.6944      2.00000
     62      -1.6415      2.00000
     63      -1.6125      2.00000
     64      -1.3439      2.00000
     65      -1.1656      2.00000
     66      -0.2475      0.80307
     67      -0.2231      0.65890
     68       0.9528      0.00000
     69       1.4440      0.00000
     70       2.4942      0.00000
     71       2.7565      0.00000
     72       3.7509      0.00000
     73       4.3288      0.00000
     74       4.7626      0.00000
     75       4.9903      0.00000
     76       5.4873      0.00000
     77       6.3120      0.00000
     78       6.3290      0.00000
     79       7.4971      0.00000
     80       7.5387      0.00000

 k-point   4 :       0.4286    0.0000    0.0000
  band No.  band energies     occupation 
      1      -7.0102      2.00000
      2      -6.3430      2.00000
      3      -5.7507      2.00000
      4      -5.3166      2.00000
      5      -5.2073      2.00000
      6      -4.5054      2.00000
      7      -4.3602      2.00000
      8      -4.1248      2.00000
      9      -4.1003      2.00000
     10      -4.0812      2.00000
     11      -3.9288      2.00000
     12      -3.9083      2.00000
     13      -3.9050      2.00000
     14      -3.8399      2.00000
     15      -3.8001      2.00000
     16      -3.7648      2.00000
     17      -3.7302      2.00000
     18      -3.6321      2.00000
     19      -3.6098      2.00000
     20      -3.5809      2.00000
     21      -3.5675      2.00000
     22      -3.5066      2.00000
     23      -3.4716      2.00000
     24      -3.4177      2.00000
     25      -3.3379      2.00000
     26      -3.3377      2.00000
     27      -3.2831      2.00000
     28      -3.1862      2.00000
     29      -3.0690      2.00000
     30      -3.0105      2.00000
     31      -2.9639      2.00000
     32      -2.8716      2.00000
     33      -2.6902      2.00000
     34      -2.6890      2.00000
     35      -2.6263      2.00000
     36      -2.6057      2.00000
     37      -2.5598      2.00000
     38      -2.4937      2.00000
     39      -2.4634      2.00000
     40      -2.4602      2.00000
     41      -2.4402      2.00000
     42      -2.4265      2.00000
     43      -2.4215      2.00000
     44      -2.4197      2.00000
     45      -2.4064      2.00000
     46      -2.3219      2.00000
     47      -2.2912      2.00000
     48      -2.2724      2.00000
     49      -2.2617      2.00000
     50      -2.2567      2.00000
     51      -2.1703      2.00000
     52      -2.1692      2.00000
     53      -2.1427      2.00000
     54      -2.1199      2.00000
     55      -2.1182      2.00000
     56      -2.0589      2.00000
     57      -2.0507      2.00000
     58      -1.9116      2.00000
     59      -1.8344      2.00000
     60      -1.8043      2.00000
     61      -1.7982      2.00000
     62      -1.6517      2.00000
     63      -1.6507      2.00000
     64      -1.4138      2.00000
     65      -1.3993      2.00000
     66      -0.6019      2.10957
     67      -0.5810      2.07822
     68       0.6470      0.00000
     69       0.8891      0.00000
     70       2.3747      0.00000
     71       2.7375      0.00000
     72       4.2495      0.00000
     73       4.3557      0.00000
     74       5.4360      0.00000
     75       6.0306      0.00000
     76       6.2050      0.00000
     77       6.3589      0.00000
     78       6.5623      0.00000
     79       7.4086      0.00000
     80       7.8113      0.00000

 k-point   5 :       0.1429    0.1429    0.0000
  band No.  band energies     occupation 
      1      -8.5853      2.00000
      2      -7.8350      2.00000
      3      -6.6020      2.00000
      4      -5.2619      2.00000
      5      -4.6785      2.00000
      6      -4.6784      2.00000
      7      -4.6235      2.00000
      8      -4.6233      2.00000
      9      -4.3743      2.00000
     10      -4.3743      2.00000
     11      -4.2709      2.00000
     12      -4.2507      2.00000
     13      -4.2507      2.00000
     14      -4.1024      2.00000
     15      -4.1024      2.00000
     16      -4.0942      2.00000
     17      -3.8481      2.00000
     18      -3.8480      2.00000
     19      -3.7755      2.00000
     20      -3.6441      2.00000
     21      -3.6440      2.00000
     22      -3.4356      2.00000
     23      -3.2492      2.00000
     24      -3.0723      2.00000
     25      -3.0723      2.00000
     26      -3.0272      2.00000
     27      -3.0167      2.00000
     28      -2.9888      2.00000
     29      -2.9802      2.00000
     30      -2.9406      2.00000
     31      -2.8454      2.00000
     32      -2.7008      2.00000
     33      -2.6162      2.00000
     34      -2.5245      2.00000
     35      -2.5245      2.00000
     36      -2.4010      2.00000
     37      -2.3828      2.00000
     38      -2.3607      2.00000
     39      -2.2812      2.00000
     40      -2.2724      2.00000
     41      -2.2724      2.00000
     42      -2.2545      2.00000
     43      -2.2388      2.00000
     44      -2.2127      2.00000
     45      -2.0943      2.00000
     46      -2.0943      2.00000
     47      -2.0606      2.00000
     48      -1.9984      2.00000
     49      -1.9556      2.00000
     50      -1.9555      2.00000
     51      -1.9303      2.00000
     52      -1.9302      2.00000
     53      -1.8937      2.00000
     54      -1.8379      2.00000
     55      -1.7982      2.00000
     56      -1.7982      2.00000
     57      -1.7583      2.00000
     58      -1.7539      2.00000
     59      -1.7292      2.00000
     60      -1.7292      2.00000
     61      -1.6553      2.00000
     62      -1.6191      2.00000
     63      -1.5397      2.00000
     64      -1.5395      2.00000
     65      -0.7921      2.01773
     66       0.8233     -0.01363
     67       1.1162      0.00000
     68       1.1162      0.00000
     69       2.0360      0.00000
     70       2.0740      0.00000
     71       2.0740      0.00000
     72       3.4211      0.00000
     73       3.4212      0.00000
     74       4.5017      0.00000
     75       5.0519      0.00000
     76       5.1957      0.00000
     77       5.1958      0.00000
     78       7.0665      0.00000
     79       7.0665      0.00000
     80       7.0709      0.00000

 k-point   6 :       0.2857    0.1429    0.0000
  band No.  band energies     occupation 
      1      -7.8879      2.00000
      2      -7.1755      2.00000
      3      -6.0330      2.00000
      4      -4.8649      2.00000
      5      -4.8219      2.00000
      6      -4.4921      2.00000
      7      -4.3782      2.00000
      8      -4.3428      2.00000
      9      -4.3245      2.00000
     10      -4.2128      2.00000
     11      -4.2081      2.00000
     12      -4.1596      2.00000
     13      -4.0938      2.00000
     14      -4.0709      2.00000
     15      -4.0202      2.00000
     16      -3.9137      2.00000
     17      -3.8029      2.00000
     18      -3.6973      2.00000
     19      -3.6191      2.00000
     20      -3.5316      2.00000
     21      -3.4843      2.00000
     22      -3.4029      2.00000
     23      -3.3656      2.00000
     24      -3.1539      2.00000
     25      -3.1444      2.00000
     26      -3.1366      2.00000
     27      -3.0481      2.00000
     28      -2.9689      2.00000
     29      -2.9183      2.00000
     30      -2.9129      2.00000
     31      -2.9065      2.00000
     32      -2.9000      2.00000
     33      -2.8593      2.00000
     34      -2.7902      2.00000
     35      -2.6961      2.00000
     36      -2.5829      2.00000
     37      -2.5673      2.00000
     38      -2.5048      2.00000
     39      -2.4638      2.00000
     40      -2.4425      2.00000
     41      -2.3592      2.00000
     42      -2.3398      2.00000
     43      -2.3226      2.00000
     44      -2.2941      2.00000
     45      -2.2726      2.00000
     46      -2.2271      2.00000
     47      -2.1945      2.00000
     48      -2.1790      2.00000
     49      -2.1390      2.00000
     50      -2.1342      2.00000
     51      -2.0497      2.00000
     52      -1.9984      2.00000
     53      -1.9588      2.00000
     54      -1.9251      2.00000
     55      -1.8498      2.00000
     56      -1.8428      2.00000
     57      -1.8078      2.00000
     58      -1.8059      2.00000
     59      -1.7891      2.00000
     60      -1.6963      2.00000
     61      -1.6636      2.00000
     62      -1.6605      2.00000
     63      -1.6571      2.00000
     64      -1.3455      2.00000
     65      -0.7038      2.00490
     66      -0.0588      0.25909
     67       0.0237      0.09923
     68       1.1288      0.00000
     69       1.6957      0.00000
     70       2.1744      0.00000
     71       2.5605      0.00000
     72       2.9161      0.00000
     73       3.0841      0.00000
     74       4.4625      0.00000
     75       4.6197      0.00000
     76       5.2343      0.00000
     77       5.6944      0.00000
     78       6.1059      0.00000
     79       6.5823      0.00000
     80       7.2193      0.00000

 k-point   7 :       0.4286    0.1429    0.0000
  band No.  band energies     occupation 
      1      -6.8089      2.00000
      2      -6.1829      2.00000
      3      -5.5908      2.00000
      4      -5.2624      2.00000
      5      -5.1276      2.00000
      6      -4.5956      2.00000
      7      -4.4634      2.00000
      8      -4.2505      2.00000
      9      -4.0587      2.00000
     10      -4.0369      2.00000
     11      -4.0237      2.00000
     12      -4.0030      2.00000
     13      -3.8516      2.00000
     14      -3.8414      2.00000
     15      -3.7639      2.00000
     16      -3.7114      2.00000
     17      -3.6376      2.00000
     18      -3.5866      2.00000
     19      -3.5683      2.00000
     20      -3.4502      2.00000
     21      -3.3945      2.00000
     22      -3.3926      2.00000
     23      -3.3679      2.00000
     24      -3.3627      2.00000
     25      -3.3319      2.00000
     26      -3.2880      2.00000
     27      -3.2162      2.00000
     28      -3.0888      2.00000
     29      -3.0411      2.00000
     30      -2.9967      2.00000
     31      -2.9886      2.00000
     32      -2.9298      2.00000
     33      -2.7864      2.00000
     34      -2.7591      2.00000
     35      -2.6868      2.00000
     36      -2.6793      2.00000
     37      -2.6409      2.00000
     38      -2.6308      2.00000
     39      -2.6059      2.00000
     40      -2.5562      2.00000
     41      -2.5488      2.00000
     42      -2.5429      2.00000
     43      -2.4851      2.00000
     44      -2.3967      2.00000
     45      -2.3940      2.00000
     46      -2.3698      2.00000
     47      -2.3019      2.00000
     48      -2.1877      2.00000
     49      -2.1729      2.00000
     50      -2.1146      2.00000
     51      -2.1079      2.00000
     52      -2.1036      2.00000
     53      -2.0283      2.00000
     54      -1.9964      2.00000
     55      -1.9352      2.00000
     56      -1.9286      2.00000
     57      -1.9041      2.00000
     58      -1.9005      2.00000
     59      -1.8010      2.00000
     60      -1.7673      2.00000
     61      -1.7309      2.00000
     62      -1.7043      2.00000
     63      -1.6384      2.00000
     64      -1.4335      2.00000
     65      -1.3218      2.03613
     66      -0.5624      2.03546
     67      -0.5526      1.95408
     68       0.7107      0.00000
     69       1.0065      0.00000
     70       2.4155      0.00000
     71       2.9084      0.00000
     72       3.4696      0.00000
     73       4.4790      0.00000
     74       4.4885      0.00000
     75       4.5856      0.00000
     76       5.2524      0.00000
     77       5.8230      0.00000
     78       6.1164      0.00000
     79       6.2737      0.00000
     80       6.4467      0.00000

 k-point   8 :       0.2857    0.2857    0.0000
  band No.  band energies     occupation 
      1      -7.2328      2.00000
      2      -6.5912      2.00000
      3      -5.6251      2.00000
      4      -4.7441      2.00000
      5      -4.5438      2.00000
      6      -4.5438      2.00000
      7      -4.4778      2.00000
      8      -4.4778      2.00000
      9      -4.2717      2.00000
     10      -4.2394      2.00000
     11      -4.2393      2.00000
     12      -4.1784      2.00000
     13      -3.9534      2.00000
     14      -3.8465      2.00000
     15      -3.8465      2.00000
     16      -3.6965      2.00000
     17      -3.6340      2.00000
     18      -3.6339      2.00000
     19      -3.3872      2.00000
     20      -3.3297      2.00000
     21      -3.3296      2.00000
     22      -3.3162      2.00000
     23      -3.2255      2.00000
     24      -3.1252      2.00000
     25      -3.1233      2.00000
     26      -3.1232      2.00000
     27      -3.1073      2.00000
     28      -3.0511      2.00000
     29      -3.0510      2.00000
     30      -2.9994      2.00000
     31      -2.9225      2.00000
     32      -2.9195      2.00000
     33      -2.8557      2.00000
     34      -2.8473      2.00000
     35      -2.7792      2.00000
     36      -2.7008      2.00000
     37      -2.6578      2.00000
     38      -2.6578      2.00000
     39      -2.6404      2.00000
     40      -2.6388      2.00000
     41      -2.5533      2.00000
     42      -2.5531      2.00000
     43      -2.4545      2.00000
     44      -2.4111      2.00000
     45      -2.4111      2.00000
     46      -2.3645      2.00000
     47      -2.1035      2.00000
     48      -2.1030      2.00000
     49      -2.1029      2.00000
     50      -2.0842      2.00000
     51      -2.0548      2.00000
     52      -1.9914      2.00000
     53      -1.9791      2.00000
     54      -1.9358      2.00000
     55      -1.9357      2.00000
     56      -1.8291      2.00000
     57      -1.7645      2.00000
     58      -1.7645      2.00000
     59      -1.7512      2.00000
     60      -1.6971      2.00000
     61      -1.6804      2.00000
     62      -1.6803      2.00000
     63      -1.6612      2.00000
     64      -1.1685      2.00000
     65       0.1572      0.88457
     66       0.1572     -0.07474
     67       0.4531     -0.31696
     68       0.6748     -0.00189
     69       0.6748      0.00000
     70       1.4511      0.00000
     71       1.4512      0.00000
     72       2.3633      0.00000
     73       3.7584      0.00000
     74       3.7586      0.00000
     75       3.9325      0.00000
     76       4.8398      0.00000
     77       5.4865      0.00000
     78       5.4865      0.00000
     79       5.7358      0.00000
     80       5.9633      0.00000

 k-point   9 :       0.4286    0.2857    0.0000
  band No.  band energies     occupation 
      1      -6.2447      2.00000
      2      -5.7681      2.00000
      3      -5.1857      2.00000
      4      -5.1526      2.00000
      5      -4.9898      2.00000
      6      -4.7634      2.00000
      7      -4.6280      2.00000
      8      -4.5073      2.00000
      9      -4.2203      2.00000
     10      -4.2047      2.00000
     11      -4.0438      2.00000
     12      -4.0040      2.00000
     13      -3.7932      2.00000
     14      -3.7017      2.00000
     15      -3.5492      2.00000
     16      -3.5444      2.00000
     17      -3.5244      2.00000
     18      -3.5104      2.00000
     19      -3.4651      2.00000
     20      -3.2650      2.00000
     21      -3.2600      2.00000
     22      -3.2182      2.00000
     23      -3.2101      2.00000
     24      -3.2052      2.00000
     25      -3.0885      2.00000
     26      -3.0775      2.00000
     27      -3.0651      2.00000
     28      -3.0592      2.00000
     29      -3.0503      2.00000
     30      -2.9996      2.00000
     31      -2.9793      2.00000
     32      -2.9768      2.00000
     33      -2.8714      2.00000
     34      -2.8420      2.00000
     35      -2.8320      2.00000
     36      -2.7700      2.00000
     37      -2.7484      2.00000
     38      -2.7381      2.00000
     39      -2.7079      2.00000
     40      -2.6371      2.00000
     41      -2.5148      2.00000
     42      -2.5050      2.00000
     43      -2.4659      2.00000
     44      -2.4508      2.00000
     45      -2.4504      2.00000
     46      -2.3309      2.00000
     47      -2.2974      2.00000
     48      -2.1348      2.00000
     49      -2.0737      2.00000
     50      -2.0184      2.00000
     51      -1.9923      2.00000
     52      -1.9572      2.00000
     53      -1.8814      2.00000
     54      -1.8456      2.00000
     55      -1.8365      2.00000
     56      -1.8309      2.00000
     57      -1.8112      2.00000
     58      -1.7966      2.00000
     59      -1.7631      2.00000
     60      -1.7378      2.00000
     61      -1.7353      2.00000
     62      -1.6820      2.00000
     63      -1.5291      2.00000
     64      -1.1421      2.00000
     65      -0.9499      2.05225
     66      -0.4749      1.91700
     67      -0.3902      1.70356
     68       0.6937     -0.07770
     69       1.2361      0.00000
     70       1.2706      0.00000
     71       1.4530      0.00000
     72       2.5436      0.00000
     73       3.5346      0.00000
     74       3.5366      0.00000
     75       3.7589      0.00000
     76       3.8148      0.00000
     77       5.0690      0.00000
     78       5.1842      0.00000
     79       5.3519      0.00000
     80       5.3522      0.00000

 k-point  10 :       0.4286    0.4286    0.0000
  band No.  band energies     occupation 
      1      -5.4697      2.00000
      2      -5.2953      2.00000
      3      -5.0451      2.00000
      4      -4.9725      2.00000
      5      -4.9725      2.00000
      6      -4.8042      2.00000
      7      -4.8041      2.00000
      8      -4.7237      2.00000
      9      -4.3493      2.00000
     10      -4.3033      2.00000
     11      -4.3032      2.00000
     12      -4.1567      2.00000
     13      -3.5443      2.00000
     14      -3.4455      2.00000
     15      -3.4455      2.00000
     16      -3.3704      2.00000
     17      -3.3560      2.00000
     18      -3.3304      2.00000
     19      -3.3303      2.00000
     20      -3.2605      2.00000
     21      -3.2605      2.00000
     22      -3.2347      2.00000
     23      -3.1842      2.00000
     24      -3.1527      2.00000
     25      -3.0962      2.00000
     26      -3.0962      2.00000
     27      -3.0478      2.00000
     28      -3.0373      2.00000
     29      -2.9669      2.00000
     30      -2.9211      2.00000
     31      -2.9210      2.00000
     32      -2.9205      2.00000
     33      -2.8768      2.00000
     34      -2.8768      2.00000
     35      -2.8689      2.00000
     36      -2.8355      2.00000
     37      -2.7082      2.00000
     38      -2.7061      2.00000
     39      -2.6744      2.00000
     40      -2.6743      2.00000
     41      -2.5461      2.00000
     42      -2.4959      2.00000
     43      -2.4715      2.00000
     44      -2.4714      2.00000
     45      -2.1495      2.00000
     46      -2.1104      2.00000
     47      -2.1013      2.00000
     48      -2.1012      2.00000
     49      -2.0021      2.00000
     50      -2.0021      2.00000
     51      -2.0005      2.00000
     52      -1.8760      2.00000
     53      -1.8397      2.00000
     54      -1.7948      2.00000
     55      -1.7947      2.00000
     56      -1.7708      2.00000
     57      -1.7491      2.00000
     58      -1.7491      2.00000
     59      -1.7489      2.00000
     60      -1.6993      2.00000
     61      -1.4917      2.00000
     62      -1.3410      2.00000
     63      -1.2060      2.00000
     64      -0.4378      2.00000
     65      -0.4378      1.95899
     66      -0.3208      1.89850
     67      -0.3207      1.84528
     68      -0.2507      0.69636
     69      -0.0106      0.00000
     70      -0.0104      0.00000
     71       0.7736      0.00000
     72       0.8758      0.00000
     73       3.1310      0.00000
     74       3.1311      0.00000
     75       3.1998      0.00000
     76       3.2208      0.00000
     77       4.7628      0.00000
     78       4.7995      0.00000
     79       4.7995      0.00000
     80       4.9733      0.00000


--------------------------------------------------------------------------------------------------------


 soft charge-density along one line, spin component           1
         0         1         2         3         4         5         6         7         8         9
 total charge-density along one line
 
 pseudopotential strength for first ion, spin component:           1
 -9.070   0.000   0.000   0.000   0.000   0.931   0.000   0.000
  0.000  -9.046   0.000   0.000   0.000   0.000   0.919   0.000
  0.000   0.000  -9.029   0.000   0.000   0.000   0.000   0.912
  0.000   0.000   0.000  -9.046   0.000   0.000   0.000   0.000
  0.000   0.000   0.000   0.000  -9.048   0.000   0.000   0.000
  0.931   0.000   0.000   0.000   0.000   1.147   0.000   0.000
  0.000   0.919   0.000   0.000   0.000   0.000   1.152   0.000
  0.000   0.000   0.912   0.000   0.000   0.000   0.000   1.156
  0.000   0.000   0.000   0.919   0.000   0.000   0.000   0.000
  0.000   0.000   0.000   0.000   0.921   0.000   0.000   0.000
  0.000   0.000  -0.005   0.000   0.000   0.000   0.000   0.002
  0.000   0.000   0.000   0.000   0.000   0.000   0.000   0.000
  0.000  -0.014   0.000   0.000   0.000   0.000   0.008   0.000
  0.000   0.000  -0.015   0.000   0.000   0.000   0.000   0.008
  0.000   0.000   0.000  -0.014   0.000   0.000   0.000   0.000
  0.000   0.007   0.000   0.000   0.000   0.000  -0.004   0.000
  0.000   0.000   0.009   0.000   0.000   0.000   0.000  -0.004
  0.000   0.000   0.000   0.007   0.000   0.000   0.000   0.000
 total augmentation occupancy for first ion, spin component:           1
  1.916   0.000   0.000   0.000   0.000   0.003   0.000   0.000   0.000   0.000   0.000   0.000   0.000   0.000   0.000   0.000
  0.000   1.921   0.000   0.000   0.000   0.000  -0.034   0.000   0.000   0.000   0.000   0.000   0.015   0.000   0.000  -0.008
  0.000   0.000   1.932   0.000   0.000   0.000   0.000  -0.059   0.000   0.000   0.020   0.031   0.000   0.015   0.000   0.000
  0.000   0.000   0.000   1.921   0.000   0.000   0.000   0.000  -0.034   0.000   0.000   0.000   0.000   0.000   0.015   0.000
  0.000   0.000   0.000   0.000   1.920   0.000   0.000   0.000   0.000  -0.053   0.000   0.000   0.000   0.000   0.000   0.000
  0.003   0.000   0.000   0.000   0.000   0.060   0.000   0.000   0.000   0.000   0.000   0.000   0.000   0.000   0.000   0.000
  0.000  -0.034   0.000   0.000   0.000   0.000   0.046   0.000   0.000   0.000   0.000   0.000   0.044   0.000   0.000  -0.003
  0.000   0.000  -0.059   0.000   0.000   0.000   0.000   0.051   0.000   0.000  -0.061   0.009   0.000   0.038   0.000   0.000
  0.000   0.000   0.000  -0.034   0.000   0.000   0.000   0.000   0.046   0.000   0.000   0.000   0.000   0.000   0.044   0.000
  0.000   0.000   0.000   0.000  -0.053   0.000   0.000   0.000   0.000   0.055   0.000   0.000   0.000   0.000   0.000   0.000
  0.000   0.000   0.020   0.000   0.000   0.000   0.000  -0.061   0.000   0.000   1.226  -0.277   0.000   0.094   0.000   0.000
  0.000   0.000   0.031   0.000   0.000   0.000   0.000   0.009   0.000   0.000  -0.277   0.108   0.000  -0.054   0.000   0.000
  0.000   0.015   0.000   0.000   0.000   0.000   0.044   0.000   0.000   0.000   0.000   0.000   0.150   0.000   0.000  -0.010
  0.000   0.000   0.015   0.000   0.000   0.000   0.000   0.038   0.000   0.000   0.094  -0.054   0.000   0.088   0.000   0.000
  0.000   0.000   0.000   0.015   0.000   0.000   0.000   0.000   0.044   0.000   0.000   0.000   0.000   0.000   0.150   0.000
  0.000  -0.008   0.000   0.000   0.000   0.000  -0.003   0.000   0.000   0.000   0.000   0.000  -0.010   0.000   0.000   0.001
  0.000   0.000  -0.009   0.000   0.000   0.000   0.000  -0.002   0.000   0.000  -0.017   0.007   0.000  -0.007   0.000   0.000
  0.000   0.000   0.000  -0.008   0.000   0.000   0.000   0.000  -0.003   0.000   0.000   0.000   0.000   0.000  -0.010   0.000


------------------------ aborting loop because EDIFF is reached ----------------------------------------


    CHARGE:  cpu time    1.35: real time    1.35
    FORLOC:  cpu time    0.04: real time    0.05
    FORNL :  cpu time   23.20: real time   23.20
    STRESS:  cpu time   62.58: real time   62.58
    FORCOR:  cpu time    0.47: real time    0.47
    FORHAR:  cpu time    0.16: real time    0.15
    MIXING:  cpu time    0.02: real time    0.02

  FORCE on cell =-STRESS in cart. coord.  units (eV):
  Direction    XX          YY          ZZ          XY          YZ          ZX
  --------------------------------------------------------------------------------------
  Alpha Z   667.73723   667.73723   667.73723
  Ewald   44804.51591 44804.51591-53476.69751     0.00000     0.00000     0.00000
  Hartree 49378.26846 49378.26846-46840.80946     0.00000     0.00000     0.00000
  E(xc)    -750.73233  -750.73233  -751.69966     0.00000     0.00000     0.00000
  Local  -95272.47334-95272.47334 99226.22108     0.00000     0.00000     0.00000
  n-local  -438.94974  -451.36903  -446.17622     3.77927     0.00000     0.00000
  augment   674.82656   674.82654   676.19369    -0.00003    -0.00001    -0.00004
  Kinetic   954.59350   926.42134   944.16140    -3.71975     0.00000     0.00000
  Fock        0.00000     0.00000     0.00000     0.00000     0.00000     0.00000
  -------------------------------------------------------------------------------------
  Total      -2.50947    -2.50947    -1.06946     0.00000     0.00000     0.00000
  in kB     -14.59261   -14.59261    -6.21892     0.00000     0.00000     0.00000
  external pressure =      -11.80 kB  Pullay stress =        0.00 kB


 VOLUME and BASIS-vectors are now :
 -----------------------------------------------------------------------------
  energy-cutoff  :      415.00
  volume of cell :      275.52
      direct lattice vectors                 reciprocal lattice vectors
     3.631354857  0.000000000  0.000000000     0.275379311  0.000000000  0.000000000
     0.000000000  3.631354857  0.000000000     0.000000000  0.275379311  0.000000000
     0.000000000  0.000000000 20.894064570     0.000000000  0.000000000  0.047860482

  length of vectors
     3.631354857  3.631354857 20.894064570     0.275379311  0.275379311  0.047860482


 FORCES acting on ions
    electron-ion (+dipol)            ewald-force                    non-local-force                 convergence-correction
 -----------------------------------------------------------------------------------------------
   -.632E-13 -.145E-13 0.393E+04   0.731E-14 0.706E-14 -.392E+04   0.103E-24 0.129E-25 -.265E+01   0.234E-13 0.662E-13 -.790E-03
   -.502E-13 -.333E-13 0.791E+03   -.146E-13 0.603E-14 -.791E+03   0.168E-24 0.000E+00 -.796E-02   -.661E-13 0.106E-12 0.620E-03
   -.470E-13 -.695E-13 -.238E+04   0.595E-14 -.671E-15 0.238E+04   -.103E-24 -.129E-25 0.731E+00   -.103E-12 0.978E-13 0.239E-03
   0.597E-12 0.150E-12 0.393E+04   -.946E-15 -.101E-13 -.392E+04   0.129E-24 0.000E+00 -.265E+01   0.512E-13 0.537E-13 -.790E-03
   0.652E-12 -.142E-11 0.791E+03   -.238E-13 -.112E-13 -.791E+03   0.207E-24 0.207E-24 -.796E-02   -.199E-13 0.209E-13 0.620E-03
   0.630E-12 0.397E-12 -.238E+04   -.957E-14 -.165E-13 0.238E+04   0.646E-25 -.258E-25 0.731E+00   -.243E-13 0.180E-13 0.239E-03
   0.606E-12 -.607E-13 0.238E+04   0.385E-14 0.406E-14 -.238E+04   -.517E-25 0.103E-24 -.731E+00   0.124E-12 -.200E-13 -.199E-03
   0.593E-12 -.609E-13 -.791E+03   -.740E-14 0.197E-13 0.791E+03   -.220E-24 -.207E-24 0.796E-02   0.726E-13 -.135E-13 -.539E-03
   0.644E-12 -.278E-13 -.393E+04   -.183E-13 0.111E-13 0.392E+04   -.155E-24 0.000E+00 0.265E+01   0.694E-13 -.413E-13 0.808E-03
   -.540E-13 0.823E-12 0.238E+04   -.111E-13 -.938E-14 -.238E+04   0.103E-24 0.000E+00 -.731E+00   0.444E-13 0.432E-13 -.199E-03
   -.110E-12 0.746E-12 -.791E+03   -.149E-13 0.476E-14 0.791E+03   -.233E-24 0.000E+00 0.796E-02   0.387E-15 0.181E-14 -.539E-03
   -.674E-13 0.105E-11 -.393E+04   -.254E-13 -.614E-14 0.392E+04   -.258E-25 0.000E+00 0.265E+01   -.380E-14 -.224E-13 0.808E-03
 -----------------------------------------------------------------------------------------------
   0.333E-11 0.148E-11 -.470E-02   -.109E-12 -.129E-14 0.273E-11   -.129E-25 0.775E-25 -.888E-15   0.169E-12 0.311E-12 0.279E-03
 
 
 POSITION                                       TOTAL-FORCE (eV/Angst)
 -----------------------------------------------------------------------------------
      0.00000      0.00000      0.02153         0.000000      0.000000      0.015110
      0.00000      0.00000      3.62989         0.000000      0.000000     -0.001093
      0.00000      0.00000      7.28156         0.000000      0.000000     -0.016621
      1.81568      1.81568      0.02153         0.000000      0.000000      0.015110
      1.81568      1.81568      3.62989         0.000000      0.000000     -0.001093
      1.81568      1.81568      7.28156         0.000000      0.000000     -0.016621
      1.81568      0.00000      1.79682         0.000000      0.000000      0.016621
      1.81568      0.00000      5.44849         0.000000      0.000000      0.001093
      1.81568      0.00000      9.05686         0.000000      0.000000     -0.015110
      0.00000      1.81568      1.79682         0.000000      0.000000      0.016621
      0.00000      1.81568      5.44849         0.000000      0.000000      0.001093
      0.00000      1.81568      9.05686         0.000000      0.000000     -0.015110
 -----------------------------------------------------------------------------------
    total drift:                                0.000000      0.000000     -0.004418


--------------------------------------------------------------------------------------------------------



  FREE ENERGIE OF THE ION-ELECTRON SYSTEM (eV)
  ---------------------------------------------------
  free  energy   TOTEN  =       -42.223538 eV

  energy  without entropy=      -42.223538  energy(sigma->0) =      -42.223538
 
 d Force = 0.7115778E-03[ 0.243E-03, 0.118E-02]  d Energy = 0.9800400E-03-0.268E-03
 d Force =-0.4394253E+02[-0.440E+02,-0.439E+02]  d Ewald  =-0.4394251E+02-0.195E-04


--------------------------------------------------------------------------------------------------------


    POTLOK:  cpu time    0.50: real time    0.51


--------------------------------------------------------------------------------------------------------




--------------------------------------------------------------------------------------------------------


    WAVPRE:  cpu time    0.10: real time    0.11
    FEWALD:  cpu time    0.00: real time    0.00
    ORTHCH:  cpu time    7.71: real time    7.71
     LOOP+:  cpu time  545.89: real time  545.93


----------------------------------------- Iteration    8(   1)  ---------------------------------------


    POTLOK:  cpu time    0.44: real time    0.44
    SETDIJ:  cpu time    0.06: real time    0.06
     EDDAV:  cpu time   53.37: real time   53.40
 BZINTS: Fermi energy: -0.232480;132.000000 electrons
         Band energy:-394.754407;  BLOECHL correction: -0.141461
       DOS:  cpu time    0.04: real time    0.04
    CHARGE:  cpu time    1.32: real time    1.32
    MIXING:  cpu time    0.01: real time    0.01
    --------------------------------------------
      LOOP:  cpu time   55.25: real time   55.28

 eigenvalue-minimisations  :  1600
 total energy-change (2. order) :-0.9007032E-04  (-0.4336786E-02)
 number of electron     131.9999563 magnetization 
 augmentation part       86.4634658 magnetization 

 Broyden mixing:
  rms(total) = 0.14041E-02    rms(broyden)= 0.14018E-02
  rms(prec ) = 0.14921E-02
  weight for this iteration     100.00

 Free energy of the ion-electron system (eV)
  ---------------------------------------------------
  alpha Z        PSCENC =       667.73722884
  Ewald energy   TEWEN  =     36143.78473802
  -1/2 Hartree   DENC   =    -51927.11265272
  -exchange  EXHF       =         0.00000000
  -V(xc)+E(xc)   XCENC  =       512.10117092
  PAW double counting   =     13120.55803226   -14856.19474654
  entropy T*S    EENTRO =         0.00000000
  eigenvalues    EBANDS =      -394.75440651
  atomic energy  EATOM  =     16691.65700843
  ---------------------------------------------------
  free energy    TOTEN  =       -42.22362730 eV

  energy without entropy =      -42.22362730  energy(sigma->0) =      -42.22362730


--------------------------------------------------------------------------------------------------------




----------------------------------------- Iteration    8(   2)  ---------------------------------------


    POTLOK:  cpu time    0.44: real time    0.44
    SETDIJ:  cpu time    0.06: real time    0.06
     EDDAV:  cpu time   56.98: real time   56.98
 BZINTS: Fermi energy: -0.232509;132.000000 electrons
         Band energy:-394.768974;  BLOECHL correction: -0.141479
       DOS:  cpu time    0.04: real time    0.04
    CHARGE:  cpu time    1.34: real time    1.34
    MIXING:  cpu time    0.02: real time    0.02
    --------------------------------------------
      LOOP:  cpu time   58.88: real time   58.88

 eigenvalue-minimisations  :  1744
 total energy-change (2. order) :-0.2185510E-04  (-0.1729022E-04)
 number of electron     131.9999563 magnetization 
 augmentation part       86.4642238 magnetization 

 Broyden mixing:
  rms(total) = 0.15942E-02    rms(broyden)= 0.15940E-02
  rms(prec ) = 0.16993E-02
  weight for this iteration     100.00

 eigenvalues of (default mixing * dielectric matrix)
  average eigenvalue GAMMA=   0.4044
  0.4044

 Free energy of the ion-electron system (eV)
  ---------------------------------------------------
  alpha Z        PSCENC =       667.73722884
  Ewald energy   TEWEN  =     36143.78473802
  -1/2 Hartree   DENC   =    -51927.10344624
  -exchange  EXHF       =         0.00000000
  -V(xc)+E(xc)   XCENC  =       512.09937434
  PAW double counting   =     13120.64599031   -14856.27556924
  entropy T*S    EENTRO =         0.00000000
  eigenvalues    EBANDS =      -394.76897362
  atomic energy  EATOM  =     16691.65700843
  ---------------------------------------------------
  free energy    TOTEN  =       -42.22364916 eV

  energy without entropy =      -42.22364916  energy(sigma->0) =      -42.22364916


--------------------------------------------------------------------------------------------------------




----------------------------------------- Iteration    8(   3)  ---------------------------------------


    POTLOK:  cpu time    0.44: real time    0.44
    SETDIJ:  cpu time    0.06: real time    0.06
     EDDAV:  cpu time   54.38: real time   54.39
 BZINTS: Fermi energy: -0.232577;132.000000 electrons
         Band energy:-394.780488;  BLOECHL correction: -0.141471
       DOS:  cpu time    0.04: real time    0.04
    CHARGE:  cpu time    1.35: real time    1.35
    MIXING:  cpu time    0.02: real time    0.02
    --------------------------------------------
      LOOP:  cpu time   56.30: real time   56.30

 eigenvalue-minimisations  :  1640
 total energy-change (2. order) : 0.1091096E-04  (-0.3239716E-05)
 number of electron     131.9999563 magnetization 
 augmentation part       86.4643665 magnetization 

 Broyden mixing:
  rms(total) = 0.75840E-03    rms(broyden)= 0.75835E-03
  rms(prec ) = 0.79794E-03
  weight for this iteration     100.00

 eigenvalues of (default mixing * dielectric matrix)
  average eigenvalue GAMMA=   1.3035
  0.3772  2.2298

 Free energy of the ion-electron system (eV)
  ---------------------------------------------------
  alpha Z        PSCENC =       667.73722884
  Ewald energy   TEWEN  =     36143.78473802
  -1/2 Hartree   DENC   =    -51927.08856052
  -exchange  EXHF       =         0.00000000
  -V(xc)+E(xc)   XCENC  =       512.09951463
  PAW double counting   =     13120.68515155   -14856.31823092
  entropy T*S    EENTRO =         0.00000000
  eigenvalues    EBANDS =      -394.78048828
  atomic energy  EATOM  =     16691.65700843
  ---------------------------------------------------
  free energy    TOTEN  =       -42.22363825 eV

  energy without entropy =      -42.22363825  energy(sigma->0) =      -42.22363825


--------------------------------------------------------------------------------------------------------




----------------------------------------- Iteration    8(   4)  ---------------------------------------


    POTLOK:  cpu time    0.44: real time    0.44
    SETDIJ:  cpu time    0.06: real time    0.06
     EDDAV:  cpu time   53.44: real time   53.45
 BZINTS: Fermi energy: -0.232282;132.000000 electrons
         Band energy:-394.727329;  BLOECHL correction: -0.141469
       DOS:  cpu time    0.04: real time    0.04
    CHARGE:  cpu time    1.34: real time    1.34
    MIXING:  cpu time    0.02: real time    0.02
    --------------------------------------------
      LOOP:  cpu time   55.35: real time   55.35

 eigenvalue-minimisations  :  1608
 total energy-change (2. order) :-0.2749373E-05  (-0.4901894E-06)
 number of electron     131.9999563 magnetization 
 augmentation part       86.4634501 magnetization 

 Broyden mixing:
  rms(total) = 0.27213E-03    rms(broyden)= 0.27211E-03
  rms(prec ) = 0.29012E-03
  weight for this iteration     100.00

 eigenvalues of (default mixing * dielectric matrix)
  average eigenvalue GAMMA=   1.2230
  2.6607  0.6279  0.3803

 Free energy of the ion-electron system (eV)
  ---------------------------------------------------
  alpha Z        PSCENC =       667.73722884
  Ewald energy   TEWEN  =     36143.78473802
  -1/2 Hartree   DENC   =    -51927.12007784
  -exchange  EXHF       =         0.00000000
  -V(xc)+E(xc)   XCENC  =       512.10042303
  PAW double counting   =     13120.88785166   -14856.54348408
  entropy T*S    EENTRO =         0.00000000
  eigenvalues    EBANDS =      -394.72732905
  atomic energy  EATOM  =     16691.65700843
  ---------------------------------------------------
  free energy    TOTEN  =       -42.22364100 eV

  energy without entropy =      -42.22364100  energy(sigma->0) =      -42.22364100


--------------------------------------------------------------------------------------------------------




----------------------------------------- Iteration    8(   5)  ---------------------------------------


    POTLOK:  cpu time    0.44: real time    0.44
    SETDIJ:  cpu time    0.06: real time    0.06
     EDDAV:  cpu time   36.30: real time   36.31
 BZINTS: Fermi energy: -0.232398;132.000000 electrons
         Band energy:-394.752859;  BLOECHL correction: -0.141474
       DOS:  cpu time    0.04: real time    0.04
    CHARGE:  cpu time    1.36: real time    1.36
    MIXING:  cpu time    0.02: real time    0.02
    --------------------------------------------
      LOOP:  cpu time   38.22: real time   38.23

 eigenvalue-minimisations  :   920
 total energy-change (2. order) : 0.2863399E-05  (-0.1508927E-06)
 number of electron     131.9999563 magnetization 
 augmentation part       86.4640116 magnetization 

 Broyden mixing:
  rms(total) = 0.17662E-03    rms(broyden)= 0.17661E-03
  rms(prec ) = 0.18878E-03
  weight for this iteration     100.00

 eigenvalues of (default mixing * dielectric matrix)
  average eigenvalue GAMMA=   1.0459
  2.5473  0.6346  0.6346  0.3671

 Free energy of the ion-electron system (eV)
  ---------------------------------------------------
  alpha Z        PSCENC =       667.73722884
  Ewald energy   TEWEN  =     36143.78473802
  -1/2 Hartree   DENC   =    -51927.10187391
  -exchange  EXHF       =         0.00000000
  -V(xc)+E(xc)   XCENC  =       512.09938686
  PAW double counting   =     13120.88231912   -14856.52958691
  entropy T*S    EENTRO =         0.00000000
  eigenvalues    EBANDS =      -394.75285858
  atomic energy  EATOM  =     16691.65700843
  ---------------------------------------------------
  free energy    TOTEN  =       -42.22363813 eV

  energy without entropy =      -42.22363813  energy(sigma->0) =      -42.22363813


--------------------------------------------------------------------------------------------------------




----------------------------------------- Iteration    8(   6)  ---------------------------------------


    POTLOK:  cpu time    0.44: real time    0.44
    SETDIJ:  cpu time    0.06: real time    0.06
     EDDAV:  cpu time   35.17: real time   35.17
 BZINTS: Fermi energy: -0.232426;132.000000 electrons
         Band energy:-394.756638;  BLOECHL correction: -0.141470
       DOS:  cpu time    0.04: real time    0.04
    CHARGE:  cpu time    1.34: real time    1.34
    MIXING:  cpu time    0.02: real time    0.02
    --------------------------------------------
      LOOP:  cpu time   37.07: real time   37.07

 eigenvalue-minimisations  :   880
 total energy-change (2. order) : 0.1458931E-05  (-0.3020960E-07)
 number of electron     131.9999563 magnetization 
 augmentation part       86.4640878 magnetization 

 Broyden mixing:
  rms(total) = 0.80025E-04    rms(broyden)= 0.80020E-04
  rms(prec ) = 0.93868E-04
  weight for this iteration     100.00

 eigenvalues of (default mixing * dielectric matrix)
  average eigenvalue GAMMA=   0.9896
  2.4812  0.9439  0.7326  0.3795  0.4107

 Free energy of the ion-electron system (eV)
  ---------------------------------------------------
  alpha Z        PSCENC =       667.73722884
  Ewald energy   TEWEN  =     36143.78473802
  -1/2 Hartree   DENC   =    -51927.09940539
  -exchange  EXHF       =         0.00000000
  -V(xc)+E(xc)   XCENC  =       512.09930039
  PAW double counting   =     13120.87115764   -14856.51702650
  entropy T*S    EENTRO =         0.00000000
  eigenvalues    EBANDS =      -394.75663811
  atomic energy  EATOM  =     16691.65700843
  ---------------------------------------------------
  free energy    TOTEN  =       -42.22363667 eV

  energy without entropy =      -42.22363667  energy(sigma->0) =      -42.22363667


--------------------------------------------------------------------------------------------------------




----------------------------------------- Iteration    8(   7)  ---------------------------------------


    POTLOK:  cpu time    0.44: real time    0.44
    SETDIJ:  cpu time    0.06: real time    0.06
     EDDAV:  cpu time   34.99: real time   34.99
 BZINTS: Fermi energy: -0.232398;132.000000 electrons
         Band energy:-394.752822;  BLOECHL correction: -0.141474
       DOS:  cpu time    0.04: real time    0.04
    CHARGE:  cpu time    1.33: real time    1.33
    MIXING:  cpu time    0.02: real time    0.02
    --------------------------------------------
      LOOP:  cpu time   36.89: real time   36.89

 eigenvalue-minimisations  :   872
 total energy-change (2. order) :-0.2286633E-05  (-0.6018331E-08)
 number of electron     131.9999563 magnetization 
 augmentation part       86.4640941 magnetization 

 Broyden mixing:
  rms(total) = 0.39153E-04    rms(broyden)= 0.39152E-04
  rms(prec ) = 0.41768E-04
  weight for this iteration     100.00

 eigenvalues of (default mixing * dielectric matrix)
  average eigenvalue GAMMA=   1.1531
  2.3260  2.0872  1.0307  0.7212  0.3880  0.3656

 Free energy of the ion-electron system (eV)
  ---------------------------------------------------
  alpha Z        PSCENC =       667.73722884
  Ewald energy   TEWEN  =     36143.78473802
  -1/2 Hartree   DENC   =    -51927.10335931
  -exchange  EXHF       =         0.00000000
  -V(xc)+E(xc)   XCENC  =       512.09929374
  PAW double counting   =     13120.86796885   -14856.51369556
  entropy T*S    EENTRO =         0.00000000
  eigenvalues    EBANDS =      -394.75282197
  atomic energy  EATOM  =     16691.65700843
  ---------------------------------------------------
  free energy    TOTEN  =       -42.22363896 eV

  energy without entropy =      -42.22363896  energy(sigma->0) =      -42.22363896


--------------------------------------------------------------------------------------------------------




----------------------------------------- Iteration    8(   8)  ---------------------------------------


    POTLOK:  cpu time    0.44: real time    0.44
    SETDIJ:  cpu time    0.06: real time    0.06
     EDDAV:  cpu time   35.04: real time   35.05
 BZINTS: Fermi energy: -0.232398;132.000000 electrons
         Band energy:-394.752515;  BLOECHL correction: -0.141472
       DOS:  cpu time    0.04: real time    0.04
    --------------------------------------------
      LOOP:  cpu time   35.59: real time   35.59

 eigenvalue-minimisations  :   872
 total energy-change (2. order) : 0.3894020E-06  (-0.4588265E-08)
 number of electron     131.9999563 magnetization 
 augmentation part       86.4640941 magnetization 

 Free energy of the ion-electron system (eV)
  ---------------------------------------------------
  alpha Z        PSCENC =       667.73722884
  Ewald energy   TEWEN  =     36143.78473802
  -1/2 Hartree   DENC   =    -51927.10332470
  -exchange  EXHF       =         0.00000000
  -V(xc)+E(xc)   XCENC  =       512.09931793
  PAW double counting   =     13120.86839323   -14856.51448547
  entropy T*S    EENTRO =         0.00000000
  eigenvalues    EBANDS =      -394.75251484
  atomic energy  EATOM  =     16691.65700843
  ---------------------------------------------------
  free energy    TOTEN  =       -42.22363857 eV

  energy without entropy =      -42.22363857  energy(sigma->0) =      -42.22363857


--------------------------------------------------------------------------------------------------------




 average (electrostatic) potential at core
  the test charge radii are     1.0053
  (the norm of the test charge is              1.0000)
       1 -43.4854       2 -43.7832       3 -43.8480       4 -43.4854       5 -43.7832
       6 -43.8480       7 -43.8479       8 -43.7832       9 -43.4856      10 -43.8479
      11 -43.7832      12 -43.4856
 
 
 
 E-fermi :  -0.2324     XC(G=0):  -7.5120     alpha+bet : -4.9539


 k-point   1 :       0.0000    0.0000    0.0000
  band No.  band energies     occupation 
      1      -9.0667      2.00000
      2      -8.2997      2.00000
      3      -7.0213      2.00000
      4      -5.6055      2.00000
      5      -4.8960      2.00000
      6      -4.8549      2.00000
      7      -4.7931      2.00000
      8      -4.7931      2.00000
      9      -4.4779      2.00000
     10      -4.4779      2.00000
     11      -4.3962      2.00000
     12      -4.3834      2.00000
     13      -4.3834      2.00000
     14      -4.2094      2.00000
     15      -4.1306      2.00000
     16      -4.1306      2.00000
     17      -3.9518      2.00000
     18      -3.9517      2.00000
     19      -3.8608      2.00000
     20      -3.6597      2.00000
     21      -3.6597      2.00000
     22      -3.4714      2.00000
     23      -3.2207      2.00000
     24      -3.1242      2.00000
     25      -3.0384      2.00000
     26      -3.0384      2.00000
     27      -3.0002      2.00000
     28      -3.0002      2.00000
     29      -2.8368      2.00000
     30      -2.8368      2.00000
     31      -2.6277      2.00000
     32      -2.5838      2.00000
     33      -2.4861      2.00000
     34      -2.4861      2.00000
     35      -2.3560      2.00000
     36      -2.3203      2.00000
     37      -2.3051      2.00000
     38      -2.3051      2.00000
     39      -2.2679      2.00000
     40      -2.1947      2.00000
     41      -2.1947      2.00000
     42      -2.1947      2.00000
     43      -2.0679      2.00000
     44      -2.0679      2.00000
     45      -2.0291      2.00000
     46      -1.9317      2.00000
     47      -1.9317      2.00000
     48      -1.8422      2.00000
     49      -1.7902      2.00000
     50      -1.7902      2.00000
     51      -1.7654      2.00000
     52      -1.7653      2.00000
     53      -1.7526      2.00000
     54      -1.7526      2.00000
     55      -1.6726      2.00000
     56      -1.6725      2.00000
     57      -1.6512      2.00000
     58      -1.6460      2.00000
     59      -1.6284      2.00000
     60      -1.6284      2.00000
     61      -1.6128      2.00000
     62      -1.5926      2.00000
     63      -1.5926      2.00000
     64      -1.2997      2.00000
     65      -1.2995      2.00000
     66       0.0545      0.00000
     67       1.1212      0.00000
     68       1.9440      0.00000
     69       1.9440      0.00000
     70       3.1792      0.00000
     71       3.1792      0.00000
     72       4.0143      0.00000
     73       4.6152      0.00000
     74       4.9232      0.00000
     75       4.9232      0.00000
     76       6.6045      0.00000
     77       6.9899      0.00000
     78       6.9899      0.00000
     79       7.0397      0.00000
     80       7.0397      0.00000

 k-point   2 :       0.1429    0.0000    0.0000
  band No.  band energies     occupation 
      1      -8.8242      2.00000
      2      -8.0656      2.00000
      3      -6.8051      2.00000
      4      -5.4210      2.00000
      5      -4.7900      2.00000
      6      -4.7478      2.00000
      7      -4.7333      2.00000
      8      -4.6896      2.00000
      9      -4.4455      2.00000
     10      -4.3986      2.00000
     11      -4.3311      2.00000
     12      -4.3233      2.00000
     13      -4.3144      2.00000
     14      -4.1546      2.00000
     15      -4.1152      2.00000
     16      -4.0831      2.00000
     17      -3.9211      2.00000
     18      -3.8751      2.00000
     19      -3.8242      2.00000
     20      -3.6670      2.00000
     21      -3.6393      2.00000
     22      -3.4599      2.00000
     23      -3.2346      2.00000
     24      -3.0858      2.00000
     25      -3.0685      2.00000
     26      -3.0352      2.00000
     27      -3.0310      2.00000
     28      -3.0004      2.00000
     29      -2.8993      2.00000
     30      -2.8965      2.00000
     31      -2.8430      2.00000
     32      -2.5822      2.00000
     33      -2.4976      2.00000
     34      -2.4457      2.00000
     35      -2.4334      2.00000
     36      -2.4084      2.00000
     37      -2.4065      2.00000
     38      -2.3317      2.00000
     39      -2.3081      2.00000
     40      -2.2591      2.00000
     41      -2.2115      2.00000
     42      -2.1845      2.00000
     43      -2.0889      2.00000
     44      -2.0791      2.00000
     45      -2.0600      2.00000
     46      -2.0312      2.00000
     47      -1.9901      2.00000
     48      -1.9651      2.00000
     49      -1.8838      2.00000
     50      -1.8783      2.00000
     51      -1.8640      2.00000
     52      -1.8331      2.00000
     53      -1.8027      2.00000
     54      -1.7927      2.00000
     55      -1.7883      2.00000
     56      -1.7614      2.00000
     57      -1.7481      2.00000
     58      -1.7234      2.00000
     59      -1.7040      2.00000
     60      -1.6914      2.00000
     61      -1.6787      2.00000
     62      -1.6322      2.00000
     63      -1.4537      2.00000
     64      -1.4330      2.00000
     65      -1.0765      2.00000
     66       0.4788     -0.01264
     67       0.6341      0.00000
     68       1.6145      0.00000
     69       1.7141      0.00000
     70       2.4759      0.00000
     71       3.1717      0.00000
     72       3.6192      0.00000
     73       4.2587      0.00000
     74       4.8350      0.00000
     75       4.8860      0.00000
     76       5.2948      0.00000
     77       6.7369      0.00000
     78       6.8381      0.00000
     79       7.1414      0.00000
     80       7.3155      0.00000

 k-point   3 :       0.2857    0.0000    0.0000
  band No.  band energies     occupation 
      1      -8.1144      2.00000
      2      -7.3850      2.00000
      3      -6.1908      2.00000
      4      -4.9495      2.00000
      5      -4.9272      2.00000
      6      -4.5516      2.00000
      7      -4.4184      2.00000
      8      -4.3876      2.00000
      9      -4.3583      2.00000
     10      -4.2068      2.00000
     11      -4.1533      2.00000
     12      -4.1334      2.00000
     13      -4.1095      2.00000
     14      -4.0798      2.00000
     15      -4.0233      2.00000
     16      -3.9915      2.00000
     17      -3.9512      2.00000
     18      -3.7267      2.00000
     19      -3.6878      2.00000
     20      -3.5931      2.00000
     21      -3.5321      2.00000
     22      -3.4716      2.00000
     23      -3.3769      2.00000
     24      -3.2280      2.00000
     25      -3.1649      2.00000
     26      -3.1583      2.00000
     27      -3.0435      2.00000
     28      -2.9561      2.00000
     29      -2.9166      2.00000
     30      -2.9113      2.00000
     31      -2.9061      2.00000
     32      -2.8038      2.00000
     33      -2.8038      2.00000
     34      -2.7353      2.00000
     35      -2.5890      2.00000
     36      -2.5845      2.00000
     37      -2.5125      2.00000
     38      -2.4529      2.00000
     39      -2.4311      2.00000
     40      -2.3574      2.00000
     41      -2.3049      2.00000
     42      -2.2702      2.00000
     43      -2.1906      2.00000
     44      -2.1762      2.00000
     45      -2.1614      2.00000
     46      -2.1311      2.00000
     47      -2.1302      2.00000
     48      -2.1050      2.00000
     49      -2.0878      2.00000
     50      -2.0785      2.00000
     51      -2.0143      2.00000
     52      -1.9796      2.00000
     53      -1.9683      2.00000
     54      -1.9630      2.00000
     55      -1.9259      2.00000
     56      -1.9204      2.00000
     57      -1.8736      2.00000
     58      -1.8716      2.00000
     59      -1.7830      2.00000
     60      -1.7468      2.00000
     61      -1.6942      2.00000
     62      -1.6413      2.00000
     63      -1.6123      2.00000
     64      -1.3435      2.00000
     65      -1.1657      2.00000
     66      -0.2484      0.80735
     67      -0.2225      0.65747
     68       0.9541      0.00000
     69       1.4456      0.00000
     70       2.4943      0.00000
     71       2.7580      0.00000
     72       3.7508      0.00000
     73       4.3307      0.00000
     74       4.7607      0.00000
     75       4.9918      0.00000
     76       5.4883      0.00000
     77       6.3136      0.00000
     78       6.3302      0.00000
     79       7.4972      0.00000
     80       7.5396      0.00000

 k-point   4 :       0.4286    0.0000    0.0000
  band No.  band energies     occupation 
      1      -7.0102      2.00000
      2      -6.3457      2.00000
      3      -5.7508      2.00000
      4      -5.3162      2.00000
      5      -5.2099      2.00000
      6      -4.5051      2.00000
      7      -4.3605      2.00000
      8      -4.1247      2.00000
      9      -4.1009      2.00000
     10      -4.0823      2.00000
     11      -3.9302      2.00000
     12      -3.9083      2.00000
     13      -3.9049      2.00000
     14      -3.8417      2.00000
     15      -3.8005      2.00000
     16      -3.7668      2.00000
     17      -3.7321      2.00000
     18      -3.6302      2.00000
     19      -3.6111      2.00000
     20      -3.5826      2.00000
     21      -3.5675      2.00000
     22      -3.5069      2.00000
     23      -3.4717      2.00000
     24      -3.4195      2.00000
     25      -3.3375      2.00000
     26      -3.3375      2.00000
     27      -3.2836      2.00000
     28      -3.1877      2.00000
     29      -3.0696      2.00000
     30      -3.0119      2.00000
     31      -2.9646      2.00000
     32      -2.8722      2.00000
     33      -2.6907      2.00000
     34      -2.6894      2.00000
     35      -2.6262      2.00000
     36      -2.6059      2.00000
     37      -2.5597      2.00000
     38      -2.4936      2.00000
     39      -2.4626      2.00000
     40      -2.4593      2.00000
     41      -2.4401      2.00000
     42      -2.4271      2.00000
     43      -2.4220      2.00000
     44      -2.4203      2.00000
     45      -2.4066      2.00000
     46      -2.3217      2.00000
     47      -2.2912      2.00000
     48      -2.2726      2.00000
     49      -2.2617      2.00000
     50      -2.2560      2.00000
     51      -2.1707      2.00000
     52      -2.1694      2.00000
     53      -2.1433      2.00000
     54      -2.1202      2.00000
     55      -2.1189      2.00000
     56      -2.0595      2.00000
     57      -2.0507      2.00000
     58      -1.9116      2.00000
     59      -1.8345      2.00000
     60      -1.8040      2.00000
     61      -1.7978      2.00000
     62      -1.6515      2.00000
     63      -1.6505      2.00000
     64      -1.4140      2.00000
     65      -1.3991      2.00000
     66      -0.6010      2.10864
     67      -0.5807      2.07863
     68       0.6471      0.00000
     69       0.8904      0.00000
     70       2.3764      0.00000
     71       2.7389      0.00000
     72       4.2509      0.00000
     73       4.3570      0.00000
     74       5.4360      0.00000
     75       6.0320      0.00000
     76       6.2066      0.00000
     77       6.3571      0.00000
     78       6.5634      0.00000
     79       7.4086      0.00000
     80       7.8127      0.00000

 k-point   5 :       0.1429    0.1429    0.0000
  band No.  band energies     occupation 
      1      -8.5854      2.00000
      2      -7.8376      2.00000
      3      -6.6013      2.00000
      4      -5.2623      2.00000
      5      -4.6788      2.00000
      6      -4.6788      2.00000
      7      -4.6247      2.00000
      8      -4.6238      2.00000
      9      -4.3754      2.00000
     10      -4.3753      2.00000
     11      -4.2710      2.00000
     12      -4.2511      2.00000
     13      -4.2511      2.00000
     14      -4.1041      2.00000
     15      -4.1041      2.00000
     16      -4.0963      2.00000
     17      -3.8484      2.00000
     18      -3.8483      2.00000
     19      -3.7748      2.00000
     20      -3.6444      2.00000
     21      -3.6443      2.00000
     22      -3.4366      2.00000
     23      -3.2492      2.00000
     24      -3.0735      2.00000
     25      -3.0734      2.00000
     26      -3.0270      2.00000
     27      -3.0168      2.00000
     28      -2.9872      2.00000
     29      -2.9802      2.00000
     30      -2.9417      2.00000
     31      -2.8468      2.00000
     32      -2.7019      2.00000
     33      -2.6168      2.00000
     34      -2.5247      2.00000
     35      -2.5247      2.00000
     36      -2.4027      2.00000
     37      -2.3826      2.00000
     38      -2.3601      2.00000
     39      -2.2811      2.00000
     40      -2.2722      2.00000
     41      -2.2722      2.00000
     42      -2.2532      2.00000
     43      -2.2388      2.00000
     44      -2.2132      2.00000
     45      -2.0944      2.00000
     46      -2.0943      2.00000
     47      -2.0610      2.00000
     48      -1.9988      2.00000
     49      -1.9558      2.00000
     50      -1.9557      2.00000
     51      -1.9305      2.00000
     52      -1.9305      2.00000
     53      -1.8942      2.00000
     54      -1.8374      2.00000
     55      -1.7987      2.00000
     56      -1.7987      2.00000
     57      -1.7585      2.00000
     58      -1.7541      2.00000
     59      -1.7289      2.00000
     60      -1.7289      2.00000
     61      -1.6552      2.00000
     62      -1.6190      2.00000
     63      -1.5398      2.00000
     64      -1.5396      2.00000
     65      -0.7919      2.01772
     66       0.8250     -0.01444
     67       1.1161      0.00000
     68       1.1161      0.00000
     69       2.0375      0.00000
     70       2.0724      0.00000
     71       2.0724      0.00000
     72       3.4224      0.00000
     73       3.4224      0.00000
     74       4.5033      0.00000
     75       5.0529      0.00000
     76       5.1958      0.00000
     77       5.1959      0.00000
     78       7.0681      0.00000
     79       7.0682      0.00000
     80       7.0717      0.00000

 k-point   6 :       0.2857    0.1429    0.0000
  band No.  band energies     occupation 
      1      -7.8880      2.00000
      2      -7.1781      2.00000
      3      -6.0324      2.00000
      4      -4.8652      2.00000
      5      -4.8220      2.00000
      6      -4.4940      2.00000
      7      -4.3782      2.00000
      8      -4.3434      2.00000
      9      -4.3258      2.00000
     10      -4.2125      2.00000
     11      -4.2096      2.00000
     12      -4.1613      2.00000
     13      -4.0940      2.00000
     14      -4.0707      2.00000
     15      -4.0214      2.00000
     16      -3.9157      2.00000
     17      -3.8040      2.00000
     18      -3.6978      2.00000
     19      -3.6184      2.00000
     20      -3.5321      2.00000
     21      -3.4849      2.00000
     22      -3.4042      2.00000
     23      -3.3657      2.00000
     24      -3.1529      2.00000
     25      -3.1452      2.00000
     26      -3.1372      2.00000
     27      -3.0487      2.00000
     28      -2.9693      2.00000
     29      -2.9183      2.00000
     30      -2.9130      2.00000
     31      -2.9065      2.00000
     32      -2.9002      2.00000
     33      -2.8603      2.00000
     34      -2.7909      2.00000
     35      -2.6970      2.00000
     36      -2.5838      2.00000
     37      -2.5674      2.00000
     38      -2.5050      2.00000
     39      -2.4637      2.00000
     40      -2.4426      2.00000
     41      -2.3590      2.00000
     42      -2.3396      2.00000
     43      -2.3226      2.00000
     44      -2.2944      2.00000
     45      -2.2730      2.00000
     46      -2.2272      2.00000
     47      -2.1943      2.00000
     48      -2.1788      2.00000
     49      -2.1395      2.00000
     50      -2.1343      2.00000
     51      -2.0501      2.00000
     52      -1.9987      2.00000
     53      -1.9592      2.00000
     54      -1.9253      2.00000
     55      -1.8501      2.00000
     56      -1.8432      2.00000
     57      -1.8072      2.00000
     58      -1.8060      2.00000
     59      -1.7891      2.00000
     60      -1.6962      2.00000
     61      -1.6634      2.00000
     62      -1.6606      2.00000
     63      -1.6569      2.00000
     64      -1.3451      2.00000
     65      -0.7038      2.00492
     66      -0.0581      0.25860
     67       0.0228      0.10005
     68       1.1300      0.00000
     69       1.6973      0.00000
     70       2.1745      0.00000
     71       2.5605      0.00000
     72       2.9148      0.00000
     73       3.0855      0.00000
     74       4.4636      0.00000
     75       4.6213      0.00000
     76       5.2358      0.00000
     77       5.6954      0.00000
     78       6.1059      0.00000
     79       6.5831      0.00000
     80       7.2193      0.00000

 k-point   7 :       0.4286    0.1429    0.0000
  band No.  band energies     occupation 
      1      -6.8090      2.00000
      2      -6.1854      2.00000
      3      -5.5909      2.00000
      4      -5.2622      2.00000
      5      -5.1299      2.00000
      6      -4.5958      2.00000
      7      -4.4638      2.00000
      8      -4.2514      2.00000
      9      -4.0588      2.00000
     10      -4.0371      2.00000
     11      -4.0251      2.00000
     12      -4.0037      2.00000
     13      -3.8523      2.00000
     14      -3.8411      2.00000
     15      -3.7655      2.00000
     16      -3.7133      2.00000
     17      -3.6389      2.00000
     18      -3.5861      2.00000
     19      -3.5700      2.00000
     20      -3.4516      2.00000
     21      -3.3943      2.00000
     22      -3.3926      2.00000
     23      -3.3682      2.00000
     24      -3.3639      2.00000
     25      -3.3310      2.00000
     26      -3.2876      2.00000
     27      -3.2161      2.00000
     28      -3.0898      2.00000
     29      -3.0414      2.00000
     30      -2.9977      2.00000
     31      -2.9897      2.00000
     32      -2.9303      2.00000
     33      -2.7870      2.00000
     34      -2.7592      2.00000
     35      -2.6872      2.00000
     36      -2.6794      2.00000
     37      -2.6409      2.00000
     38      -2.6312      2.00000
     39      -2.6063      2.00000
     40      -2.5566      2.00000
     41      -2.5494      2.00000
     42      -2.5431      2.00000
     43      -2.4850      2.00000
     44      -2.3963      2.00000
     45      -2.3937      2.00000
     46      -2.3702      2.00000
     47      -2.3019      2.00000
     48      -2.1882      2.00000
     49      -2.1726      2.00000
     50      -2.1149      2.00000
     51      -2.1081      2.00000
     52      -2.1040      2.00000
     53      -2.0283      2.00000
     54      -1.9967      2.00000
     55      -1.9354      2.00000
     56      -1.9281      2.00000
     57      -1.9043      2.00000
     58      -1.9007      2.00000
     59      -1.8007      2.00000
     60      -1.7673      2.00000
     61      -1.7307      2.00000
     62      -1.7042      2.00000
     63      -1.6386      2.00000
     64      -1.4332      2.00000
     65      -1.3220      2.03612
     66      -0.5621      2.03493
     67      -0.5517      1.95389
     68       0.7108      0.00000
     69       1.0077      0.00000
     70       2.4169      0.00000
     71       2.9098      0.00000
     72       3.4698      0.00000
     73       4.4781      0.00000
     74       4.4897      0.00000
     75       4.5866      0.00000
     76       5.2524      0.00000
     77       5.8239      0.00000
     78       6.1152      0.00000
     79       6.2746      0.00000
     80       6.4482      0.00000

 k-point   8 :       0.2857    0.2857    0.0000
  band No.  band energies     occupation 
      1      -7.2329      2.00000
      2      -6.5938      2.00000
      3      -5.6249      2.00000
      4      -4.7445      2.00000
      5      -4.5433      2.00000
      6      -4.5433      2.00000
      7      -4.4791      2.00000
      8      -4.4790      2.00000
      9      -4.2731      2.00000
     10      -4.2414      2.00000
     11      -4.2413      2.00000
     12      -4.1791      2.00000
     13      -3.9535      2.00000
     14      -3.8471      2.00000
     15      -3.8471      2.00000
     16      -3.6984      2.00000
     17      -3.6347      2.00000
     18      -3.6346      2.00000
     19      -3.3866      2.00000
     20      -3.3299      2.00000
     21      -3.3298      2.00000
     22      -3.3161      2.00000
     23      -3.2264      2.00000
     24      -3.1241      2.00000
     25      -3.1233      2.00000
     26      -3.1233      2.00000
     27      -3.1073      2.00000
     28      -3.0517      2.00000
     29      -3.0517      2.00000
     30      -2.9997      2.00000
     31      -2.9221      2.00000
     32      -2.9200      2.00000
     33      -2.8557      2.00000
     34      -2.8474      2.00000
     35      -2.7811      2.00000
     36      -2.7027      2.00000
     37      -2.6582      2.00000
     38      -2.6581      2.00000
     39      -2.6407      2.00000
     40      -2.6391      2.00000
     41      -2.5537      2.00000
     42      -2.5536      2.00000
     43      -2.4540      2.00000
     44      -2.4112      2.00000
     45      -2.4112      2.00000
     46      -2.3639      2.00000
     47      -2.1041      2.00000
     48      -2.1030      2.00000
     49      -2.1030      2.00000
     50      -2.0841      2.00000
     51      -2.0548      2.00000
     52      -1.9920      2.00000
     53      -1.9794      2.00000
     54      -1.9360      2.00000
     55      -1.9360      2.00000
     56      -1.8291      2.00000
     57      -1.7645      2.00000
     58      -1.7645      2.00000
     59      -1.7511      2.00000
     60      -1.6970      2.00000
     61      -1.6803      2.00000
     62      -1.6802      2.00000
     63      -1.6611      2.00000
     64      -1.1682      2.00000
     65       0.1573      0.88510
     66       0.1573     -0.07441
     67       0.4540     -0.31781
     68       0.6738     -0.00192
     69       0.6738      0.00000
     70       1.4516      0.00000
     71       1.4517      0.00000
     72       2.3647      0.00000
     73       3.7589      0.00000
     74       3.7590      0.00000
     75       3.9337      0.00000
     76       4.8398      0.00000
     77       5.4874      0.00000
     78       5.4875      0.00000
     79       5.7347      0.00000
     80       5.9647      0.00000

 k-point   9 :       0.4286    0.2857    0.0000
  band No.  band energies     occupation 
      1      -6.2448      2.00000
      2      -5.7704      2.00000
      3      -5.1856      2.00000
      4      -5.1529      2.00000
      5      -4.9913      2.00000
      6      -4.7643      2.00000
      7      -4.6285      2.00000
      8      -4.5082      2.00000
      9      -4.2217      2.00000
     10      -4.2061      2.00000
     11      -4.0447      2.00000
     12      -4.0048      2.00000
     13      -3.7932      2.00000
     14      -3.7011      2.00000
     15      -3.5505      2.00000
     16      -3.5455      2.00000
     17      -3.5258      2.00000
     18      -3.5110      2.00000
     19      -3.4652      2.00000
     20      -3.2651      2.00000
     21      -3.2605      2.00000
     22      -3.2183      2.00000
     23      -3.2103      2.00000
     24      -3.2048      2.00000
     25      -3.0893      2.00000
     26      -3.0782      2.00000
     27      -3.0653      2.00000
     28      -3.0595      2.00000
     29      -3.0506      2.00000
     30      -2.9997      2.00000
     31      -2.9789      2.00000
     32      -2.9765      2.00000
     33      -2.8719      2.00000
     34      -2.8422      2.00000
     35      -2.8322      2.00000
     36      -2.7702      2.00000
     37      -2.7496      2.00000
     38      -2.7392      2.00000
     39      -2.7086      2.00000
     40      -2.6383      2.00000
     41      -2.5145      2.00000
     42      -2.5049      2.00000
     43      -2.4660      2.00000
     44      -2.4506      2.00000
     45      -2.4505      2.00000
     46      -2.3310      2.00000
     47      -2.2976      2.00000
     48      -2.1349      2.00000
     49      -2.0744      2.00000
     50      -2.0190      2.00000
     51      -1.9927      2.00000
     52      -1.9576      2.00000
     53      -1.8814      2.00000
     54      -1.8454      2.00000
     55      -1.8365      2.00000
     56      -1.8310      2.00000
     57      -1.8113      2.00000
     58      -1.7966      2.00000
     59      -1.7627      2.00000
     60      -1.7378      2.00000
     61      -1.7354      2.00000
     62      -1.6820      2.00000
     63      -1.5288      2.00000
     64      -1.1421      2.00000
     65      -0.9504      2.05230
     66      -0.4749      1.91695
     67      -0.3897      1.70304
     68       0.6937     -0.07774
     69       1.2369      0.00000
     70       1.2705      0.00000
     71       1.4524      0.00000
     72       2.5440      0.00000
     73       3.5354      0.00000
     74       3.5376      0.00000
     75       3.7595      0.00000
     76       3.8143      0.00000
     77       5.0689      0.00000
     78       5.1851      0.00000
     79       5.3524      0.00000
     80       5.3527      0.00000

 k-point  10 :       0.4286    0.4286    0.0000
  band No.  band energies     occupation 
      1      -5.4697      2.00000
      2      -5.2970      2.00000
      3      -5.0461      2.00000
      4      -4.9728      2.00000
      5      -4.9728      2.00000
      6      -4.8053      2.00000
      7      -4.8052      2.00000
      8      -4.7244      2.00000
      9      -4.3508      2.00000
     10      -4.3046      2.00000
     11      -4.3045      2.00000
     12      -4.1575      2.00000
     13      -3.5442      2.00000
     14      -3.4451      2.00000
     15      -3.4450      2.00000
     16      -3.3711      2.00000
     17      -3.3565      2.00000
     18      -3.3315      2.00000
     19      -3.3314      2.00000
     20      -3.2613      2.00000
     21      -3.2613      2.00000
     22      -3.2348      2.00000
     23      -3.1839      2.00000
     24      -3.1531      2.00000
     25      -3.0962      2.00000
     26      -3.0962      2.00000
     27      -3.0480      2.00000
     28      -3.0374      2.00000
     29      -2.9668      2.00000
     30      -2.9208      2.00000
     31      -2.9208      2.00000
     32      -2.9206      2.00000
     33      -2.8778      2.00000
     34      -2.8777      2.00000
     35      -2.8707      2.00000
     36      -2.8374      2.00000
     37      -2.7090      2.00000
     38      -2.7062      2.00000
     39      -2.6755      2.00000
     40      -2.6755      2.00000
     41      -2.5455      2.00000
     42      -2.4958      2.00000
     43      -2.4710      2.00000
     44      -2.4709      2.00000
     45      -2.1500      2.00000
     46      -2.1102      2.00000
     47      -2.1013      2.00000
     48      -2.1013      2.00000
     49      -2.0028      2.00000
     50      -2.0028      2.00000
     51      -2.0011      2.00000
     52      -1.8757      2.00000
     53      -1.8397      2.00000
     54      -1.7948      2.00000
     55      -1.7946      2.00000
     56      -1.7706      2.00000
     57      -1.7489      2.00000
     58      -1.7489      2.00000
     59      -1.7489      2.00000
     60      -1.6992      2.00000
     61      -1.4917      2.00000
     62      -1.3413      2.00000
     63      -1.2062      2.00000
     64      -0.4378      2.00000
     65      -0.4377      1.95901
     66      -0.3210      1.89872
     67      -0.3209      1.84533
     68      -0.2509      0.69712
     69      -0.0111      0.00000
     70      -0.0109      0.00000
     71       0.7731      0.00000
     72       0.8757      0.00000
     73       3.1315      0.00000
     74       3.1317      0.00000
     75       3.2006      0.00000
     76       3.2214      0.00000
     77       4.7626      0.00000
     78       4.8001      0.00000
     79       4.8001      0.00000
     80       4.9738      0.00000


--------------------------------------------------------------------------------------------------------


 soft charge-density along one line, spin component           1
         0         1         2         3         4         5         6         7         8         9
 total charge-density along one line
 
 pseudopotential strength for first ion, spin component:           1
 -9.071   0.000   0.000   0.000   0.000   0.932   0.000   0.000
  0.000  -9.046   0.000   0.000   0.000   0.000   0.920   0.000
  0.000   0.000  -9.029   0.000   0.000   0.000   0.000   0.912
  0.000   0.000   0.000  -9.046   0.000   0.000   0.000   0.000
  0.000   0.000   0.000   0.000  -9.048   0.000   0.000   0.000
  0.932   0.000   0.000   0.000   0.000   1.147   0.000   0.000
  0.000   0.920   0.000   0.000   0.000   0.000   1.152   0.000
  0.000   0.000   0.912   0.000   0.000   0.000   0.000   1.156
  0.000   0.000   0.000   0.920   0.000   0.000   0.000   0.000
  0.000   0.000   0.000   0.000   0.922   0.000   0.000   0.000
  0.000   0.000  -0.005   0.000   0.000   0.000   0.000   0.002
  0.000   0.000   0.000   0.000   0.000   0.000   0.000   0.000
  0.000  -0.014   0.000   0.000   0.000   0.000   0.008   0.000
  0.000   0.000  -0.015   0.000   0.000   0.000   0.000   0.008
  0.000   0.000   0.000  -0.014   0.000   0.000   0.000   0.000
  0.000   0.007   0.000   0.000   0.000   0.000  -0.004   0.000
  0.000   0.000   0.009   0.000   0.000   0.000   0.000  -0.004
  0.000   0.000   0.000   0.007   0.000   0.000   0.000   0.000
 total augmentation occupancy for first ion, spin component:           1
  1.916   0.000   0.000   0.000   0.000   0.003   0.000   0.000   0.000   0.000   0.000   0.000   0.000   0.000   0.000   0.000
  0.000   1.921   0.000   0.000   0.000   0.000  -0.034   0.000   0.000   0.000   0.000   0.000   0.015   0.000   0.000  -0.008
  0.000   0.000   1.932   0.000   0.000   0.000   0.000  -0.059   0.000   0.000   0.020   0.031   0.000   0.015   0.000   0.000
  0.000   0.000   0.000   1.921   0.000   0.000   0.000   0.000  -0.034   0.000   0.000   0.000   0.000   0.000   0.015   0.000
  0.000   0.000   0.000   0.000   1.920   0.000   0.000   0.000   0.000  -0.053   0.000   0.000   0.000   0.000   0.000   0.000
  0.003   0.000   0.000   0.000   0.000   0.060   0.000   0.000   0.000   0.000   0.000   0.000   0.000   0.000   0.000   0.000
  0.000  -0.034   0.000   0.000   0.000   0.000   0.046   0.000   0.000   0.000   0.000   0.000   0.044   0.000   0.000  -0.003
  0.000   0.000  -0.059   0.000   0.000   0.000   0.000   0.052   0.000   0.000  -0.061   0.009   0.000   0.038   0.000   0.000
  0.000   0.000   0.000  -0.034   0.000   0.000   0.000   0.000   0.046   0.000   0.000   0.000   0.000   0.000   0.044   0.000
  0.000   0.000   0.000   0.000  -0.053   0.000   0.000   0.000   0.000   0.055   0.000   0.000   0.000   0.000   0.000   0.000
  0.000   0.000   0.020   0.000   0.000   0.000   0.000  -0.061   0.000   0.000   1.226  -0.277   0.000   0.094   0.000   0.000
  0.000   0.000   0.031   0.000   0.000   0.000   0.000   0.009   0.000   0.000  -0.277   0.108   0.000  -0.054   0.000   0.000
  0.000   0.015   0.000   0.000   0.000   0.000   0.044   0.000   0.000   0.000   0.000   0.000   0.150   0.000   0.000  -0.010
  0.000   0.000   0.015   0.000   0.000   0.000   0.000   0.038   0.000   0.000   0.094  -0.054   0.000   0.088   0.000   0.000
  0.000   0.000   0.000   0.015   0.000   0.000   0.000   0.000   0.044   0.000   0.000   0.000   0.000   0.000   0.150   0.000
  0.000  -0.008   0.000   0.000   0.000   0.000  -0.003   0.000   0.000   0.000   0.000   0.000  -0.010   0.000   0.000   0.001
  0.000   0.000  -0.009   0.000   0.000   0.000   0.000  -0.002   0.000   0.000  -0.017   0.007   0.000  -0.007   0.000   0.000
  0.000   0.000   0.000  -0.008   0.000   0.000   0.000   0.000  -0.003   0.000   0.000   0.000   0.000   0.000  -0.010   0.000


------------------------ aborting loop because EDIFF is reached ----------------------------------------


    CHARGE:  cpu time    1.34: real time    1.33
    FORLOC:  cpu time    0.04: real time    0.05
    FORNL :  cpu time   23.15: real time   23.15
    STRESS:  cpu time   62.56: real time   62.57
    FORCOR:  cpu time    0.46: real time    0.47
    FORHAR:  cpu time    0.16: real time    0.15
    MIXING:  cpu time    0.02: real time    0.02

  FORCE on cell =-STRESS in cart. coord.  units (eV):
  Direction    XX          YY          ZZ          XY          YZ          ZX
  --------------------------------------------------------------------------------------
  Alpha Z   667.73723   667.73723   667.73723
  Ewald   44816.43853 44816.43853-53489.11627     0.00000     0.00000     0.00000
  Hartree 49389.93279 49389.93279-46852.74900     0.00000     0.00000     0.00000
  E(xc)    -750.73618  -750.73618  -751.70371     0.00000     0.00000     0.00000
  Local  -95296.07025-95296.07025 99250.57461     0.00000     0.00000     0.00000
  n-local  -438.91427  -451.33674  -446.14014     3.77709     0.00000     0.00000
  augment   674.82988   674.82986   676.19521     0.00001    -0.00001     0.00000
  Kinetic   954.60671   926.43384   944.17570    -3.72177     0.00000     0.00000
  Fock        0.00000     0.00000     0.00000     0.00000     0.00000     0.00000
  -------------------------------------------------------------------------------------
  Total      -2.47324    -2.47324    -1.02636     0.00000     0.00000     0.00000
  in kB     -14.38190   -14.38190    -5.96830     0.00000     0.00000     0.00000
  external pressure =      -11.58 kB  Pullay stress =        0.00 kB


 VOLUME and BASIS-vectors are now :
 -----------------------------------------------------------------------------
  energy-cutoff  :      415.00
  volume of cell :      275.52
      direct lattice vectors                 reciprocal lattice vectors
     3.631354857  0.000000000  0.000000000     0.275379311  0.000000000  0.000000000
     0.000000000  3.631354857  0.000000000     0.000000000  0.275379311  0.000000000
     0.000000000  0.000000000 20.894064570     0.000000000  0.000000000  0.047860482

  length of vectors
     3.631354857  3.631354857 20.894064570     0.275379311  0.275379311  0.047860482


 FORCES acting on ions
    electron-ion (+dipol)            ewald-force                    non-local-force                 convergence-correction
 -----------------------------------------------------------------------------------------------
   -.493E-13 0.374E-13 0.393E+04   -.175E-13 0.896E-14 -.392E+04   0.258E-25 0.103E-24 -.265E+01   -.216E-14 -.538E-13 -.966E-03
   -.496E-13 -.225E-14 0.791E+03   -.452E-14 0.300E-14 -.791E+03   -.103E-24 0.000E+00 -.725E-02   -.319E-14 -.107E-13 0.373E-03
   -.803E-13 -.248E-13 -.238E+04   0.109E-13 0.557E-15 0.238E+04   0.103E-24 0.000E+00 0.733E+00   0.305E-13 0.222E-13 0.258E-03
   0.608E-12 0.570E-12 0.393E+04   -.304E-13 -.845E-14 -.392E+04   0.258E-25 0.103E-24 -.265E+01   -.453E-13 -.250E-13 -.966E-03
   0.626E-12 0.397E-12 0.791E+03   -.109E-13 -.159E-13 -.791E+03   -.103E-24 0.000E+00 -.725E-02   -.414E-13 0.916E-14 0.373E-03
   0.606E-12 0.509E-12 -.238E+04   0.287E-14 -.166E-13 0.238E+04   0.905E-25 -.517E-25 0.733E+00   -.269E-13 -.468E-14 0.258E-03
   0.606E-12 -.214E-13 0.238E+04   0.224E-13 0.140E-13 -.238E+04   -.110E-24 0.103E-24 -.733E+00   -.141E-13 0.210E-13 -.235E-03
   0.609E-12 -.496E-13 -.791E+03   0.641E-14 0.203E-13 0.791E+03   0.517E-25 0.129E-24 0.725E-02   0.172E-14 0.598E-13 -.324E-03
   0.619E-12 0.532E-14 -.393E+04   -.387E-13 0.441E-14 0.392E+04   -.258E-25 0.517E-25 0.265E+01   0.196E-13 0.175E-13 0.975E-03
   -.308E-13 0.674E-12 0.238E+04   0.457E-14 -.290E-14 -.238E+04   -.103E-24 0.000E+00 -.733E+00   0.452E-14 -.278E-13 -.235E-03
   -.697E-13 0.858E-12 -.791E+03   -.610E-14 0.307E-14 0.791E+03   0.103E-24 0.000E+00 0.725E-02   0.591E-13 0.447E-13 -.324E-03
   -.154E-13 0.586E-12 -.393E+04   -.481E-13 -.116E-13 0.392E+04   -.775E-25 0.517E-25 0.265E+01   0.647E-13 0.443E-13 0.975E-03
 -----------------------------------------------------------------------------------------------
   0.338E-11 0.354E-11 -.496E-02   -.109E-12 -.129E-14 0.455E-12   -.123E-24 0.491E-24 0.133E-14   0.471E-13 0.964E-13 0.161E-03
 
 
 POSITION                                       TOTAL-FORCE (eV/Angst)
 -----------------------------------------------------------------------------------
      0.00000      0.00000      0.02246         0.000000      0.000000      0.011543
      0.00000      0.00000      3.62880         0.000000      0.000000      0.010209
      0.00000      0.00000      7.28153         0.000000      0.000000     -0.016395
      1.81568      1.81568      0.02246         0.000000      0.000000      0.011543
      1.81568      1.81568      3.62880         0.000000      0.000000      0.010209
      1.81568      1.81568      7.28153         0.000000      0.000000     -0.016395
      1.81568      0.00000      1.79686         0.000000      0.000000      0.016395
      1.81568      0.00000      5.44959         0.000000      0.000000     -0.010209
      1.81568      0.00000      9.05593         0.000000      0.000000     -0.011543
      0.00000      1.81568      1.79686         0.000000      0.000000      0.016395
      0.00000      1.81568      5.44959         0.000000      0.000000     -0.010209
      0.00000      1.81568      9.05593         0.000000      0.000000     -0.011543
 -----------------------------------------------------------------------------------
    total drift:                                0.000000      0.000000     -0.004799


--------------------------------------------------------------------------------------------------------



  FREE ENERGIE OF THE ION-ELECTRON SYSTEM (eV)
  ---------------------------------------------------
  free  energy   TOTEN  =       -42.223639 eV

  energy  without entropy=      -42.223639  energy(sigma->0) =      -42.223639
 
 d Force = 0.3177774E-04[ 0.367E-06, 0.632E-04]  d Energy = 0.1007651E-03-0.690E-04
 d Force =-0.1142647E+02[-0.114E+02,-0.114E+02]  d Ewald  =-0.1142647E+02-0.337E-06


--------------------------------------------------------------------------------------------------------


    POTLOK:  cpu time    0.51: real time    0.51


--------------------------------------------------------------------------------------------------------




--------------------------------------------------------------------------------------------------------


    WAVPRE:  cpu time    0.10: real time    0.11
    FEWALD:  cpu time    0.00: real time    0.00
    ORTHCH:  cpu time    7.76: real time    7.76
     LOOP+:  cpu time  469.73: real time  469.79


----------------------------------------- Iteration    9(   1)  ---------------------------------------


    POTLOK:  cpu time    0.44: real time    0.44
    SETDIJ:  cpu time    0.06: real time    0.06
     EDDAV:  cpu time   53.37: real time   53.37
 BZINTS: Fermi energy: -0.232249;132.000000 electrons
         Band energy:-394.782147;  BLOECHL correction: -0.141376
       DOS:  cpu time    0.04: real time    0.04
    CHARGE:  cpu time    1.33: real time    1.33
    MIXING:  cpu time    0.02: real time    0.01
    --------------------------------------------
      LOOP:  cpu time   55.26: real time   55.26

 eigenvalue-minimisations  :  1600
 total energy-change (2. order) :-0.1804310E-04  (-0.2200408E-02)
 number of electron     131.9999564 magnetization 
 augmentation part       86.4632820 magnetization 

 Broyden mixing:
  rms(total) = 0.94348E-03    rms(broyden)= 0.94258E-03
  rms(prec ) = 0.10135E-02
  weight for this iteration     100.00

 Free energy of the ion-electron system (eV)
  ---------------------------------------------------
  alpha Z        PSCENC =       667.73722884
  Ewald energy   TEWEN  =     36162.32095821
  -1/2 Hartree   DENC   =    -51945.61372648
  -exchange  EXHF       =         0.00000000
  -V(xc)+E(xc)   XCENC  =       512.10398039
  PAW double counting   =     13120.87124767   -14856.51820676
  entropy T*S    EENTRO =         0.00000000
  eigenvalues    EBANDS =      -394.78214729
  atomic energy  EATOM  =     16691.65700843
  ---------------------------------------------------
  free energy    TOTEN  =       -42.22365700 eV

  energy without entropy =      -42.22365700  energy(sigma->0) =      -42.22365700


--------------------------------------------------------------------------------------------------------




----------------------------------------- Iteration    9(   2)  ---------------------------------------


    POTLOK:  cpu time    0.44: real time    0.44
    SETDIJ:  cpu time    0.06: real time    0.06
     EDDAV:  cpu time   56.52: real time   56.52
 BZINTS: Fermi energy: -0.232257;132.000000 electrons
         Band energy:-394.796459;  BLOECHL correction: -0.141410
       DOS:  cpu time    0.04: real time    0.05
    CHARGE:  cpu time    1.35: real time    1.35
    MIXING:  cpu time    0.01: real time    0.02
    --------------------------------------------
      LOOP:  cpu time   58.42: real time   58.43

 eigenvalue-minimisations  :  1728
 total energy-change (2. order) :-0.1773513E-04  (-0.5757997E-05)
 number of electron     131.9999564 magnetization 
 augmentation part       86.4637154 magnetization 

 Broyden mixing:
  rms(total) = 0.99529E-03    rms(broyden)= 0.99517E-03
  rms(prec ) = 0.10885E-02
  weight for this iteration     100.00

 eigenvalues of (default mixing * dielectric matrix)
  average eigenvalue GAMMA=   0.4559
  0.4559

 Free energy of the ion-electron system (eV)
  ---------------------------------------------------
  alpha Z        PSCENC =       667.73722884
  Ewald energy   TEWEN  =     36162.32095821
  -1/2 Hartree   DENC   =    -51945.60320978
  -exchange  EXHF       =         0.00000000
  -V(xc)+E(xc)   XCENC  =       512.10266616
  PAW double counting   =     13120.92755400   -14856.56942166
  entropy T*S    EENTRO =         0.00000000
  eigenvalues    EBANDS =      -394.79645893
  atomic energy  EATOM  =     16691.65700843
  ---------------------------------------------------
  free energy    TOTEN  =       -42.22367474 eV

  energy without entropy =      -42.22367474  energy(sigma->0) =      -42.22367474


--------------------------------------------------------------------------------------------------------




----------------------------------------- Iteration    9(   3)  ---------------------------------------


    POTLOK:  cpu time    0.44: real time    0.44
    SETDIJ:  cpu time    0.06: real time    0.06
     EDDAV:  cpu time   53.98: real time   53.99
 BZINTS: Fermi energy: -0.232431;132.000000 electrons
         Band energy:-394.818594;  BLOECHL correction: -0.141382
       DOS:  cpu time    0.04: real time    0.04
    CHARGE:  cpu time    1.36: real time    1.36
    MIXING:  cpu time    0.02: real time    0.02
    --------------------------------------------
      LOOP:  cpu time   55.91: real time   55.91

 eigenvalue-minimisations  :  1624
 total energy-change (2. order) : 0.1667174E-04  (-0.1050876E-05)
 number of electron     131.9999564 magnetization 
 augmentation part       86.4639235 magnetization 

 Broyden mixing:
  rms(total) = 0.52044E-03    rms(broyden)= 0.52041E-03
  rms(prec ) = 0.56166E-03
  weight for this iteration     100.00

 eigenvalues of (default mixing * dielectric matrix)
  average eigenvalue GAMMA=   1.3540
  0.4204  2.2877

 Free energy of the ion-electron system (eV)
  ---------------------------------------------------
  alpha Z        PSCENC =       667.73722884
  Ewald energy   TEWEN  =     36162.32095821
  -1/2 Hartree   DENC   =    -51945.57954792
  -exchange  EXHF       =         0.00000000
  -V(xc)+E(xc)   XCENC  =       512.10268901
  PAW double counting   =     13120.95596422   -14856.59936517
  entropy T*S    EENTRO =         0.00000000
  eigenvalues    EBANDS =      -394.81859368
  atomic energy  EATOM  =     16691.65700843
  ---------------------------------------------------
  free energy    TOTEN  =       -42.22365807 eV

  energy without entropy =      -42.22365807  energy(sigma->0) =      -42.22365807


--------------------------------------------------------------------------------------------------------




----------------------------------------- Iteration    9(   4)  ---------------------------------------


    POTLOK:  cpu time    0.44: real time    0.44
    SETDIJ:  cpu time    0.06: real time    0.06
     EDDAV:  cpu time   39.03: real time   39.03
 BZINTS: Fermi energy: -0.232119;132.000000 electrons
         Band energy:-394.765334;  BLOECHL correction: -0.141404
       DOS:  cpu time    0.04: real time    0.04
    CHARGE:  cpu time    1.36: real time    1.36
    MIXING:  cpu time    0.02: real time    0.02
    --------------------------------------------
      LOOP:  cpu time   40.95: real time   40.95

 eigenvalue-minimisations  :  1032
 total energy-change (2. order) :-0.1865152E-04  (-0.2197632E-06)
 number of electron     131.9999564 magnetization 
 augmentation part       86.4633686 magnetization 

 Broyden mixing:
  rms(total) = 0.18407E-03    rms(broyden)= 0.18406E-03
  rms(prec ) = 0.21802E-03
  weight for this iteration     100.00

 eigenvalues of (default mixing * dielectric matrix)
  average eigenvalue GAMMA=   1.2627
  2.7354  0.6587  0.3939

 Free energy of the ion-electron system (eV)
  ---------------------------------------------------
  alpha Z        PSCENC =       667.73722884
  Ewald energy   TEWEN  =     36162.32095821
  -1/2 Hartree   DENC   =    -51945.61921244
  -exchange  EXHF       =         0.00000000
  -V(xc)+E(xc)   XCENC  =       512.10327352
  PAW double counting   =     13121.09654783   -14856.75414718
  entropy T*S    EENTRO =         0.00000000
  eigenvalues    EBANDS =      -394.76533392
  atomic energy  EATOM  =     16691.65700843
  ---------------------------------------------------
  free energy    TOTEN  =       -42.22367672 eV

  energy without entropy =      -42.22367672  energy(sigma->0) =      -42.22367672


--------------------------------------------------------------------------------------------------------




----------------------------------------- Iteration    9(   5)  ---------------------------------------


    POTLOK:  cpu time    0.44: real time    0.44
    SETDIJ:  cpu time    0.06: real time    0.06
     EDDAV:  cpu time   35.31: real time   35.31
 BZINTS: Fermi energy: -0.232280;132.000000 electrons
         Band energy:-394.792088;  BLOECHL correction: -0.141396
       DOS:  cpu time    0.04: real time    0.05
    CHARGE:  cpu time    1.32: real time    1.32
    MIXING:  cpu time    0.02: real time    0.02
    --------------------------------------------
      LOOP:  cpu time   37.19: real time   37.19

 eigenvalue-minimisations  :   888
 total energy-change (2. order) : 0.6680417E-05  (-0.1806558E-06)
 number of electron     131.9999564 magnetization 
 augmentation part       86.4636433 magnetization 

 Broyden mixing:
  rms(total) = 0.18011E-03    rms(broyden)= 0.18010E-03
  rms(prec ) = 0.19362E-03
  weight for this iteration     100.00

 eigenvalues of (default mixing * dielectric matrix)
  average eigenvalue GAMMA=   1.0198
  2.6847  0.5846  0.4750  0.3350

 Free energy of the ion-electron system (eV)
  ---------------------------------------------------
  alpha Z        PSCENC =       667.73722884
  Ewald energy   TEWEN  =     36162.32095821
  -1/2 Hartree   DENC   =    -51945.59566769
  -exchange  EXHF       =         0.00000000
  -V(xc)+E(xc)   XCENC  =       512.10267736
  PAW double counting   =     13121.10330088   -14856.75708839
  entropy T*S    EENTRO =         0.00000000
  eigenvalues    EBANDS =      -394.79208768
  atomic energy  EATOM  =     16691.65700843
  ---------------------------------------------------
  free energy    TOTEN  =       -42.22367004 eV

  energy without entropy =      -42.22367004  energy(sigma->0) =      -42.22367004


--------------------------------------------------------------------------------------------------------




----------------------------------------- Iteration    9(   6)  ---------------------------------------


    POTLOK:  cpu time    0.44: real time    0.44
    SETDIJ:  cpu time    0.06: real time    0.06
     EDDAV:  cpu time   34.12: real time   34.12
 BZINTS: Fermi energy: -0.232294;132.000000 electrons
         Band energy:-394.795435;  BLOECHL correction: -0.141397
       DOS:  cpu time    0.04: real time    0.04
    --------------------------------------------
      LOOP:  cpu time   34.66: real time   34.67

 eigenvalue-minimisations  :   840
 total energy-change (2. order) : 0.3023342E-06  (-0.5227011E-07)
 number of electron     131.9999564 magnetization 
 augmentation part       86.4636433 magnetization 

 Free energy of the ion-electron system (eV)
  ---------------------------------------------------
  alpha Z        PSCENC =       667.73722884
  Ewald energy   TEWEN  =     36162.32095821
  -1/2 Hartree   DENC   =    -51945.59301176
  -exchange  EXHF       =         0.00000000
  -V(xc)+E(xc)   XCENC  =       512.10262343
  PAW double counting   =     13121.09806037   -14856.75110217
  entropy T*S    EENTRO =         0.00000000
  eigenvalues    EBANDS =      -394.79543509
  atomic energy  EATOM  =     16691.65700843
  ---------------------------------------------------
  free energy    TOTEN  =       -42.22366974 eV

  energy without entropy =      -42.22366974  energy(sigma->0) =      -42.22366974


--------------------------------------------------------------------------------------------------------




 average (electrostatic) potential at core
  the test charge radii are     1.0053
  (the norm of the test charge is              1.0000)
       1 -43.4853       2 -43.7838       3 -43.8483       4 -43.4853       5 -43.7838
       6 -43.8483       7 -43.8482       8 -43.7838       9 -43.4855      10 -43.8482
      11 -43.7838      12 -43.4855
 
 
 
 E-fermi :  -0.2323     XC(G=0):  -7.5106     alpha+bet : -4.9539


 k-point   1 :       0.0000    0.0000    0.0000
  band No.  band energies     occupation 
      1      -9.0681      2.00000
      2      -8.3002      2.00000
      3      -7.0215      2.00000
      4      -5.6058      2.00000
      5      -4.8963      2.00000
      6      -4.8556      2.00000
      7      -4.7942      2.00000
      8      -4.7942      2.00000
      9      -4.4786      2.00000
     10      -4.4786      2.00000
     11      -4.3972      2.00000
     12      -4.3844      2.00000
     13      -4.3844      2.00000
     14      -4.2099      2.00000
     15      -4.1312      2.00000
     16      -4.1312      2.00000
     17      -3.9518      2.00000
     18      -3.9516      2.00000
     19      -3.8611      2.00000
     20      -3.6601      2.00000
     21      -3.6601      2.00000
     22      -3.4716      2.00000
     23      -3.2207      2.00000
     24      -3.1242      2.00000
     25      -3.0393      2.00000
     26      -3.0393      2.00000
     27      -3.0006      2.00000
     28      -3.0006      2.00000
     29      -2.8373      2.00000
     30      -2.8373      2.00000
     31      -2.6273      2.00000
     32      -2.5838      2.00000
     33      -2.4864      2.00000
     34      -2.4864      2.00000
     35      -2.3560      2.00000
     36      -2.3201      2.00000
     37      -2.3053      2.00000
     38      -2.3053      2.00000
     39      -2.2687      2.00000
     40      -2.1952      2.00000
     41      -2.1950      2.00000
     42      -2.1950      2.00000
     43      -2.0681      2.00000
     44      -2.0681      2.00000
     45      -2.0295      2.00000
     46      -1.9317      2.00000
     47      -1.9317      2.00000
     48      -1.8426      2.00000
     49      -1.7901      2.00000
     50      -1.7901      2.00000
     51      -1.7654      2.00000
     52      -1.7653      2.00000
     53      -1.7526      2.00000
     54      -1.7526      2.00000
     55      -1.6729      2.00000
     56      -1.6728      2.00000
     57      -1.6511      2.00000
     58      -1.6459      2.00000
     59      -1.6284      2.00000
     60      -1.6284      2.00000
     61      -1.6120      2.00000
     62      -1.5932      2.00000
     63      -1.5932      2.00000
     64      -1.2996      2.00000
     65      -1.2993      2.00000
     66       0.0550      0.00000
     67       1.1225      0.00000
     68       1.9428      0.00000
     69       1.9428      0.00000
     70       3.1792      0.00000
     71       3.1792      0.00000
     72       4.0171      0.00000
     73       4.6161      0.00000
     74       4.9236      0.00000
     75       4.9236      0.00000
     76       6.6064      0.00000
     77       6.9902      0.00000
     78       6.9902      0.00000
     79       7.0393      0.00000
     80       7.0393      0.00000

 k-point   2 :       0.1429    0.0000    0.0000
  band No.  band energies     occupation 
      1      -8.8256      2.00000
      2      -8.0661      2.00000
      3      -6.8053      2.00000
      4      -5.4213      2.00000
      5      -4.7911      2.00000
      6      -4.7481      2.00000
      7      -4.7340      2.00000
      8      -4.6907      2.00000
      9      -4.4462      2.00000
     10      -4.3993      2.00000
     11      -4.3321      2.00000
     12      -4.3243      2.00000
     13      -4.3153      2.00000
     14      -4.1551      2.00000
     15      -4.1157      2.00000
     16      -4.0837      2.00000
     17      -3.9211      2.00000
     18      -3.8752      2.00000
     19      -3.8245      2.00000
     20      -3.6673      2.00000
     21      -3.6397      2.00000
     22      -3.4601      2.00000
     23      -3.2349      2.00000
     24      -3.0862      2.00000
     25      -3.0685      2.00000
     26      -3.0358      2.00000
     27      -3.0314      2.00000
     28      -3.0012      2.00000
     29      -2.8997      2.00000
     30      -2.8965      2.00000
     31      -2.8433      2.00000
     32      -2.5822      2.00000
     33      -2.4978      2.00000
     34      -2.4459      2.00000
     35      -2.4336      2.00000
     36      -2.4085      2.00000
     37      -2.4069      2.00000
     38      -2.3320      2.00000
     39      -2.3082      2.00000
     40      -2.2594      2.00000
     41      -2.2118      2.00000
     42      -2.1848      2.00000
     43      -2.0890      2.00000
     44      -2.0793      2.00000
     45      -2.0601      2.00000
     46      -2.0315      2.00000
     47      -1.9901      2.00000
     48      -1.9651      2.00000
     49      -1.8839      2.00000
     50      -1.8784      2.00000
     51      -1.8641      2.00000
     52      -1.8333      2.00000
     53      -1.8027      2.00000
     54      -1.7928      2.00000
     55      -1.7884      2.00000
     56      -1.7614      2.00000
     57      -1.7482      2.00000
     58      -1.7239      2.00000
     59      -1.7039      2.00000
     60      -1.6920      2.00000
     61      -1.6786      2.00000
     62      -1.6322      2.00000
     63      -1.4536      2.00000
     64      -1.4328      2.00000
     65      -1.0760      2.00000
     66       0.4794     -0.01259
     67       0.6332      0.00000
     68       1.6158      0.00000
     69       1.7141      0.00000
     70       2.4748      0.00000
     71       3.1721      0.00000
     72       3.6191      0.00000
     73       4.2615      0.00000
     74       4.8359      0.00000
     75       4.8864      0.00000
     76       5.2952      0.00000
     77       6.7376      0.00000
     78       6.8400      0.00000
     79       7.1411      0.00000
     80       7.3158      0.00000

 k-point   3 :       0.2857    0.0000    0.0000
  band No.  band energies     occupation 
      1      -8.1158      2.00000
      2      -7.3856      2.00000
      3      -6.1910      2.00000
      4      -4.9508      2.00000
      5      -4.9277      2.00000
      6      -4.5521      2.00000
      7      -4.4191      2.00000
      8      -4.3888      2.00000
      9      -4.3586      2.00000
     10      -4.2075      2.00000
     11      -4.1544      2.00000
     12      -4.1344      2.00000
     13      -4.1103      2.00000
     14      -4.0803      2.00000
     15      -4.0235      2.00000
     16      -3.9920      2.00000
     17      -3.9517      2.00000
     18      -3.7271      2.00000
     19      -3.6880      2.00000
     20      -3.5935      2.00000
     21      -3.5324      2.00000
     22      -3.4720      2.00000
     23      -3.3777      2.00000
     24      -3.2283      2.00000
     25      -3.1651      2.00000
     26      -3.1589      2.00000
     27      -3.0438      2.00000
     28      -2.9564      2.00000
     29      -2.9166      2.00000
     30      -2.9113      2.00000
     31      -2.9069      2.00000
     32      -2.8046      2.00000
     33      -2.8040      2.00000
     34      -2.7356      2.00000
     35      -2.5890      2.00000
     36      -2.5848      2.00000
     37      -2.5127      2.00000
     38      -2.4531      2.00000
     39      -2.4313      2.00000
     40      -2.3575      2.00000
     41      -2.3052      2.00000
     42      -2.2706      2.00000
     43      -2.1909      2.00000
     44      -2.1761      2.00000
     45      -2.1615      2.00000
     46      -2.1311      2.00000
     47      -2.1302      2.00000
     48      -2.1052      2.00000
     49      -2.0879      2.00000
     50      -2.0788      2.00000
     51      -2.0143      2.00000
     52      -1.9797      2.00000
     53      -1.9685      2.00000
     54      -1.9634      2.00000
     55      -1.9259      2.00000
     56      -1.9204      2.00000
     57      -1.8737      2.00000
     58      -1.8716      2.00000
     59      -1.7830      2.00000
     60      -1.7468      2.00000
     61      -1.6942      2.00000
     62      -1.6413      2.00000
     63      -1.6122      2.00000
     64      -1.3434      2.00000
     65      -1.1661      2.00000
     66      -0.2483      0.80687
     67      -0.2220      0.65593
     68       0.9545      0.00000
     69       1.4463      0.00000
     70       2.4946      0.00000
     71       2.7592      0.00000
     72       3.7498      0.00000
     73       4.3314      0.00000
     74       4.7606      0.00000
     75       4.9947      0.00000
     76       5.4892      0.00000
     77       6.3139      0.00000
     78       6.3312      0.00000
     79       7.4969      0.00000
     80       7.5415      0.00000

 k-point   4 :       0.4286    0.0000    0.0000
  band No.  band energies     occupation 
      1      -7.0117      2.00000
      2      -6.3462      2.00000
      3      -5.7521      2.00000
      4      -5.3165      2.00000
      5      -5.2104      2.00000
      6      -4.5055      2.00000
      7      -4.3611      2.00000
      8      -4.1258      2.00000
      9      -4.1016      2.00000
     10      -4.0828      2.00000
     11      -3.9306      2.00000
     12      -3.9090      2.00000
     13      -3.9060      2.00000
     14      -3.8421      2.00000
     15      -3.8014      2.00000
     16      -3.7674      2.00000
     17      -3.7327      2.00000
     18      -3.6313      2.00000
     19      -3.6114      2.00000
     20      -3.5832      2.00000
     21      -3.5680      2.00000
     22      -3.5074      2.00000
     23      -3.4721      2.00000
     24      -3.4201      2.00000
     25      -3.3385      2.00000
     26      -3.3378      2.00000
     27      -3.2839      2.00000
     28      -3.1879      2.00000
     29      -3.0701      2.00000
     30      -3.0123      2.00000
     31      -2.9651      2.00000
     32      -2.8725      2.00000
     33      -2.6906      2.00000
     34      -2.6893      2.00000
     35      -2.6263      2.00000
     36      -2.6060      2.00000
     37      -2.5600      2.00000
     38      -2.4939      2.00000
     39      -2.4627      2.00000
     40      -2.4596      2.00000
     41      -2.4405      2.00000
     42      -2.4271      2.00000
     43      -2.4219      2.00000
     44      -2.4201      2.00000
     45      -2.4067      2.00000
     46      -2.3219      2.00000
     47      -2.2914      2.00000
     48      -2.2728      2.00000
     49      -2.2618      2.00000
     50      -2.2561      2.00000
     51      -2.1707      2.00000
     52      -2.1693      2.00000
     53      -2.1432      2.00000
     54      -2.1201      2.00000
     55      -2.1191      2.00000
     56      -2.0597      2.00000
     57      -2.0508      2.00000
     58      -1.9117      2.00000
     59      -1.8345      2.00000
     60      -1.8041      2.00000
     61      -1.7978      2.00000
     62      -1.6514      2.00000
     63      -1.6505      2.00000
     64      -1.4139      2.00000
     65      -1.3990      2.00000
     66      -0.6008      2.10850
     67      -0.5804      2.07856
     68       0.6474      0.00000
     69       0.8910      0.00000
     70       2.3771      0.00000
     71       2.7398      0.00000
     72       4.2521      0.00000
     73       4.3580      0.00000
     74       5.4350      0.00000
     75       6.0332      0.00000
     76       6.2095      0.00000
     77       6.3570      0.00000
     78       6.5645      0.00000
     79       7.4076      0.00000
     80       7.8129      0.00000

 k-point   5 :       0.1429    0.1429    0.0000
  band No.  band energies     occupation 
      1      -8.5868      2.00000
      2      -7.8382      2.00000
      3      -6.6015      2.00000
      4      -5.2626      2.00000
      5      -4.6799      2.00000
      6      -4.6799      2.00000
      7      -4.6250      2.00000
      8      -4.6245      2.00000
      9      -4.3761      2.00000
     10      -4.3761      2.00000
     11      -4.2721      2.00000
     12      -4.2520      2.00000
     13      -4.2520      2.00000
     14      -4.1047      2.00000
     15      -4.1047      2.00000
     16      -4.0967      2.00000
     17      -3.8485      2.00000
     18      -3.8484      2.00000
     19      -3.7751      2.00000
     20      -3.6447      2.00000
     21      -3.6446      2.00000
     22      -3.4369      2.00000
     23      -3.2498      2.00000
     24      -3.0740      2.00000
     25      -3.0739      2.00000
     26      -3.0270      2.00000
     27      -3.0170      2.00000
     28      -2.9872      2.00000
     29      -2.9811      2.00000
     30      -2.9419      2.00000
     31      -2.8475      2.00000
     32      -2.7018      2.00000
     33      -2.6173      2.00000
     34      -2.5251      2.00000
     35      -2.5251      2.00000
     36      -2.4031      2.00000
     37      -2.3826      2.00000
     38      -2.3602      2.00000
     39      -2.2811      2.00000
     40      -2.2725      2.00000
     41      -2.2725      2.00000
     42      -2.2538      2.00000
     43      -2.2387      2.00000
     44      -2.2134      2.00000
     45      -2.0945      2.00000
     46      -2.0945      2.00000
     47      -2.0609      2.00000
     48      -1.9992      2.00000
     49      -1.9557      2.00000
     50      -1.9556      2.00000
     51      -1.9305      2.00000
     52      -1.9305      2.00000
     53      -1.8943      2.00000
     54      -1.8374      2.00000
     55      -1.7988      2.00000
     56      -1.7988      2.00000
     57      -1.7584      2.00000
     58      -1.7541      2.00000
     59      -1.7292      2.00000
     60      -1.7292      2.00000
     61      -1.6552      2.00000
     62      -1.6190      2.00000
     63      -1.5397      2.00000
     64      -1.5395      2.00000
     65      -0.7915      2.01770
     66       0.8256     -0.01438
     67       1.1153      0.00000
     68       1.1153      0.00000
     69       2.0388      0.00000
     70       2.0724      0.00000
     71       2.0724      0.00000
     72       3.4226      0.00000
     73       3.4227      0.00000
     74       4.5061      0.00000
     75       5.0538      0.00000
     76       5.1961      0.00000
     77       5.1962      0.00000
     78       7.0690      0.00000
     79       7.0690      0.00000
     80       7.0737      0.00000

 k-point   6 :       0.2857    0.1429    0.0000
  band No.  band energies     occupation 
      1      -7.8894      2.00000
      2      -7.1786      2.00000
      3      -6.0327      2.00000
      4      -4.8657      2.00000
      5      -4.8233      2.00000
      6      -4.4946      2.00000
      7      -4.3793      2.00000
      8      -4.3441      2.00000
      9      -4.3261      2.00000
     10      -4.2134      2.00000
     11      -4.2101      2.00000
     12      -4.1619      2.00000
     13      -4.0950      2.00000
     14      -4.0716      2.00000
     15      -4.0220      2.00000
     16      -3.9162      2.00000
     17      -3.8042      2.00000
     18      -3.6980      2.00000
     19      -3.6188      2.00000
     20      -3.5323      2.00000
     21      -3.4851      2.00000
     22      -3.4046      2.00000
     23      -3.3664      2.00000
     24      -3.1530      2.00000
     25      -3.1460      2.00000
     26      -3.1378      2.00000
     27      -3.0489      2.00000
     28      -2.9694      2.00000
     29      -2.9183      2.00000
     30      -2.9130      2.00000
     31      -2.9074      2.00000
     32      -2.9009      2.00000
     33      -2.8608      2.00000
     34      -2.7914      2.00000
     35      -2.6973      2.00000
     36      -2.5840      2.00000
     37      -2.5674      2.00000
     38      -2.5052      2.00000
     39      -2.4639      2.00000
     40      -2.4429      2.00000
     41      -2.3594      2.00000
     42      -2.3397      2.00000
     43      -2.3227      2.00000
     44      -2.2944      2.00000
     45      -2.2729      2.00000
     46      -2.2274      2.00000
     47      -2.1945      2.00000
     48      -2.1789      2.00000
     49      -2.1396      2.00000
     50      -2.1344      2.00000
     51      -2.0502      2.00000
     52      -1.9986      2.00000
     53      -1.9593      2.00000
     54      -1.9253      2.00000
     55      -1.8501      2.00000
     56      -1.8433      2.00000
     57      -1.8074      2.00000
     58      -1.8061      2.00000
     59      -1.7893      2.00000
     60      -1.6961      2.00000
     61      -1.6633      2.00000
     62      -1.6605      2.00000
     63      -1.6569      2.00000
     64      -1.3450      2.00000
     65      -0.7043      2.00512
     66      -0.0576      0.25761
     67       0.0229      0.10006
     68       1.1302      0.00000
     69       1.6980      0.00000
     70       2.1737      0.00000
     71       2.5608      0.00000
     72       2.9148      0.00000
     73       3.0868      0.00000
     74       4.4639      0.00000
     75       4.6219      0.00000
     76       5.2387      0.00000
     77       5.6963      0.00000
     78       6.1065      0.00000
     79       6.5843      0.00000
     80       7.2185      0.00000

 k-point   7 :       0.4286    0.1429    0.0000
  band No.  band energies     occupation 
      1      -6.8104      2.00000
      2      -6.1860      2.00000
      3      -5.5922      2.00000
      4      -5.2627      2.00000
      5      -5.1306      2.00000
      6      -4.5964      2.00000
      7      -4.4644      2.00000
      8      -4.2520      2.00000
      9      -4.0599      2.00000
     10      -4.0380      2.00000
     11      -4.0254      2.00000
     12      -4.0043      2.00000
     13      -3.8532      2.00000
     14      -3.8420      2.00000
     15      -3.7659      2.00000
     16      -3.7137      2.00000
     17      -3.6391      2.00000
     18      -3.5871      2.00000
     19      -3.5703      2.00000
     20      -3.4522      2.00000
     21      -3.3947      2.00000
     22      -3.3931      2.00000
     23      -3.3685      2.00000
     24      -3.3645      2.00000
     25      -3.3318      2.00000
     26      -3.2879      2.00000
     27      -3.2167      2.00000
     28      -3.0902      2.00000
     29      -3.0420      2.00000
     30      -2.9982      2.00000
     31      -2.9902      2.00000
     32      -2.9307      2.00000
     33      -2.7871      2.00000
     34      -2.7593      2.00000
     35      -2.6872      2.00000
     36      -2.6794      2.00000
     37      -2.6410      2.00000
     38      -2.6313      2.00000
     39      -2.6064      2.00000
     40      -2.5564      2.00000
     41      -2.5493      2.00000
     42      -2.5432      2.00000
     43      -2.4851      2.00000
     44      -2.3964      2.00000
     45      -2.3940      2.00000
     46      -2.3705      2.00000
     47      -2.3022      2.00000
     48      -2.1882      2.00000
     49      -2.1728      2.00000
     50      -2.1149      2.00000
     51      -2.1081      2.00000
     52      -2.1039      2.00000
     53      -2.0283      2.00000
     54      -1.9969      2.00000
     55      -1.9355      2.00000
     56      -1.9283      2.00000
     57      -1.9045      2.00000
     58      -1.9007      2.00000
     59      -1.8008      2.00000
     60      -1.7673      2.00000
     61      -1.7307      2.00000
     62      -1.7043      2.00000
     63      -1.6386      2.00000
     64      -1.4332      2.00000
     65      -1.3220      2.03609
     66      -0.5619      2.03485
     67      -0.5515      1.95373
     68       0.7111      0.00000
     69       1.0083      0.00000
     70       2.4174      0.00000
     71       2.9106      0.00000
     72       3.4691      0.00000
     73       4.4781      0.00000
     74       4.4909      0.00000
     75       4.5873      0.00000
     76       5.2516      0.00000
     77       5.8244      0.00000
     78       6.1153      0.00000
     79       6.2759      0.00000
     80       6.4511      0.00000

 k-point   8 :       0.2857    0.2857    0.0000
  band No.  band energies     occupation 
      1      -7.2343      2.00000
      2      -6.5943      2.00000
      3      -5.6253      2.00000
      4      -4.7450      2.00000
      5      -4.5446      2.00000
      6      -4.5446      2.00000
      7      -4.4799      2.00000
      8      -4.4798      2.00000
      9      -4.2734      2.00000
     10      -4.2418      2.00000
     11      -4.2417      2.00000
     12      -4.1797      2.00000
     13      -3.9546      2.00000
     14      -3.8477      2.00000
     15      -3.8476      2.00000
     16      -3.6988      2.00000
     17      -3.6350      2.00000
     18      -3.6350      2.00000
     19      -3.3874      2.00000
     20      -3.3302      2.00000
     21      -3.3301      2.00000
     22      -3.3163      2.00000
     23      -3.2268      2.00000
     24      -3.1242      2.00000
     25      -3.1240      2.00000
     26      -3.1239      2.00000
     27      -3.1073      2.00000
     28      -3.0523      2.00000
     29      -3.0523      2.00000
     30      -2.9998      2.00000
     31      -2.9231      2.00000
     32      -2.9210      2.00000
     33      -2.8557      2.00000
     34      -2.8475      2.00000
     35      -2.7816      2.00000
     36      -2.7030      2.00000
     37      -2.6583      2.00000
     38      -2.6583      2.00000
     39      -2.6406      2.00000
     40      -2.6390      2.00000
     41      -2.5536      2.00000
     42      -2.5535      2.00000
     43      -2.4543      2.00000
     44      -2.4114      2.00000
     45      -2.4114      2.00000
     46      -2.3642      2.00000
     47      -2.1043      2.00000
     48      -2.1030      2.00000
     49      -2.1030      2.00000
     50      -2.0841      2.00000
     51      -2.0549      2.00000
     52      -1.9921      2.00000
     53      -1.9795      2.00000
     54      -1.9361      2.00000
     55      -1.9360      2.00000
     56      -1.8291      2.00000
     57      -1.7647      2.00000
     58      -1.7647      2.00000
     59      -1.7512      2.00000
     60      -1.6970      2.00000
     61      -1.6804      2.00000
     62      -1.6803      2.00000
     63      -1.6610      2.00000
     64      -1.1681      2.00000
     65       0.1567      0.88714
     66       0.1567     -0.07345
     67       0.4545     -0.31793
     68       0.6738     -0.00194
     69       0.6738      0.00000
     70       1.4517      0.00000
     71       1.4518      0.00000
     72       2.3654      0.00000
     73       3.7592      0.00000
     74       3.7593      0.00000
     75       3.9349      0.00000
     76       4.8391      0.00000
     77       5.4886      0.00000
     78       5.4886      0.00000
     79       5.7348      0.00000
     80       5.9676      0.00000

 k-point   9 :       0.4286    0.2857    0.0000
  band No.  band energies     occupation 
      1      -6.2462      2.00000
      2      -5.7711      2.00000
      3      -5.1870      2.00000
      4      -5.1535      2.00000
      5      -4.9922      2.00000
      6      -4.7650      2.00000
      7      -4.6292      2.00000
      8      -4.5088      2.00000
      9      -4.2220      2.00000
     10      -4.2065      2.00000
     11      -4.0454      2.00000
     12      -4.0053      2.00000
     13      -3.7942      2.00000
     14      -3.7016      2.00000
     15      -3.5513      2.00000
     16      -3.5459      2.00000
     17      -3.5262      2.00000
     18      -3.5113      2.00000
     19      -3.4659      2.00000
     20      -3.2652      2.00000
     21      -3.2610      2.00000
     22      -3.2187      2.00000
     23      -3.2110      2.00000
     24      -3.2049      2.00000
     25      -3.0898      2.00000
     26      -3.0789      2.00000
     27      -3.0655      2.00000
     28      -3.0600      2.00000
     29      -3.0512      2.00000
     30      -3.0003      2.00000
     31      -2.9795      2.00000
     32      -2.9769      2.00000
     33      -2.8720      2.00000
     34      -2.8423      2.00000
     35      -2.8323      2.00000
     36      -2.7703      2.00000
     37      -2.7498      2.00000
     38      -2.7396      2.00000
     39      -2.7088      2.00000
     40      -2.6384      2.00000
     41      -2.5146      2.00000
     42      -2.5050      2.00000
     43      -2.4661      2.00000
     44      -2.4509      2.00000
     45      -2.4506      2.00000
     46      -2.3311      2.00000
     47      -2.2977      2.00000
     48      -2.1349      2.00000
     49      -2.0744      2.00000
     50      -2.0192      2.00000
     51      -1.9927      2.00000
     52      -1.9576      2.00000
     53      -1.8814      2.00000
     54      -1.8454      2.00000
     55      -1.8367      2.00000
     56      -1.8310      2.00000
     57      -1.8114      2.00000
     58      -1.7967      2.00000
     59      -1.7628      2.00000
     60      -1.7380      2.00000
     61      -1.7355      2.00000
     62      -1.6820      2.00000
     63      -1.5288      2.00000
     64      -1.1424      2.00000
     65      -0.9504      2.05231
     66      -0.4747      1.91711
     67      -0.3896      1.70294
     68       0.6938     -0.07777
     69       1.2373      0.00000
     70       1.2699      0.00000
     71       1.4523      0.00000
     72       2.5435      0.00000
     73       3.5356      0.00000
     74       3.5380      0.00000
     75       3.7600      0.00000
     76       3.8143      0.00000
     77       5.0698      0.00000
     78       5.1858      0.00000
     79       5.3539      0.00000
     80       5.3541      0.00000

 k-point  10 :       0.4286    0.4286    0.0000
  band No.  band energies     occupation 
      1      -5.4710      2.00000
      2      -5.2979      2.00000
      3      -5.0468      2.00000
      4      -4.9739      2.00000
      5      -4.9738      2.00000
      6      -4.8062      2.00000
      7      -4.8062      2.00000
      8      -4.7251      2.00000
      9      -4.3510      2.00000
     10      -4.3049      2.00000
     11      -4.3047      2.00000
     12      -4.1580      2.00000
     13      -3.5450      2.00000
     14      -3.4455      2.00000
     15      -3.4455      2.00000
     16      -3.3712      2.00000
     17      -3.3569      2.00000
     18      -3.3319      2.00000
     19      -3.3319      2.00000
     20      -3.2617      2.00000
     21      -3.2617      2.00000
     22      -3.2351      2.00000
     23      -3.1840      2.00000
     24      -3.1534      2.00000
     25      -3.0969      2.00000
     26      -3.0969      2.00000
     27      -3.0490      2.00000
     28      -3.0385      2.00000
     29      -2.9668      2.00000
     30      -2.9210      2.00000
     31      -2.9209      2.00000
     32      -2.9206      2.00000
     33      -2.8780      2.00000
     34      -2.8780      2.00000
     35      -2.8712      2.00000
     36      -2.8379      2.00000
     37      -2.7092      2.00000
     38      -2.7064      2.00000
     39      -2.6759      2.00000
     40      -2.6759      2.00000
     41      -2.5457      2.00000
     42      -2.4959      2.00000
     43      -2.4712      2.00000
     44      -2.4711      2.00000
     45      -2.1502      2.00000
     46      -2.1104      2.00000
     47      -2.1014      2.00000
     48      -2.1013      2.00000
     49      -2.0029      2.00000
     50      -2.0029      2.00000
     51      -2.0013      2.00000
     52      -1.8758      2.00000
     53      -1.8398      2.00000
     54      -1.7947      2.00000
     55      -1.7945      2.00000
     56      -1.7706      2.00000
     57      -1.7490      2.00000
     58      -1.7490      2.00000
     59      -1.7488      2.00000
     60      -1.6992      2.00000
     61      -1.4919      2.00000
     62      -1.3414      2.00000
     63      -1.2063      2.00000
     64      -0.4382      2.00000
     65      -0.4382      1.95924
     66      -0.3212      1.89911
     67      -0.3211      1.84550
     68      -0.2510      0.69762
     69      -0.0111      0.00000
     70      -0.0109      0.00000
     71       0.7730      0.00000
     72       0.8752      0.00000
     73       3.1317      0.00000
     74       3.1319      0.00000
     75       3.2010      0.00000
     76       3.2217      0.00000
     77       4.7636      0.00000
     78       4.8013      0.00000
     79       4.8013      0.00000
     80       4.9752      0.00000


--------------------------------------------------------------------------------------------------------


 soft charge-density along one line, spin component           1
         0         1         2         3         4         5         6         7         8         9
 total charge-density along one line
 
 pseudopotential strength for first ion, spin component:           1
 -9.071   0.000   0.000   0.000   0.000   0.931   0.000   0.000
  0.000  -9.046   0.000   0.000   0.000   0.000   0.919   0.000
  0.000   0.000  -9.029   0.000   0.000   0.000   0.000   0.912
  0.000   0.000   0.000  -9.046   0.000   0.000   0.000   0.000
  0.000   0.000   0.000   0.000  -9.048   0.000   0.000   0.000
  0.931   0.000   0.000   0.000   0.000   1.147   0.000   0.000
  0.000   0.919   0.000   0.000   0.000   0.000   1.152   0.000
  0.000   0.000   0.912   0.000   0.000   0.000   0.000   1.156
  0.000   0.000   0.000   0.919   0.000   0.000   0.000   0.000
  0.000   0.000   0.000   0.000   0.922   0.000   0.000   0.000
  0.000   0.000  -0.005   0.000   0.000   0.000   0.000   0.002
  0.000   0.000   0.000   0.000   0.000   0.000   0.000   0.000
  0.000  -0.013   0.000   0.000   0.000   0.000   0.008   0.000
  0.000   0.000  -0.015   0.000   0.000   0.000   0.000   0.008
  0.000   0.000   0.000  -0.013   0.000   0.000   0.000   0.000
  0.000   0.007   0.000   0.000   0.000   0.000  -0.004   0.000
  0.000   0.000   0.009   0.000   0.000   0.000   0.000  -0.004
  0.000   0.000   0.000   0.007   0.000   0.000   0.000   0.000
 total augmentation occupancy for first ion, spin component:           1
  1.916   0.000   0.000   0.000   0.000   0.003   0.000   0.000   0.000   0.000   0.000   0.000   0.000   0.000   0.000   0.000
  0.000   1.921   0.000   0.000   0.000   0.000  -0.034   0.000   0.000   0.000   0.000   0.000   0.015   0.000   0.000  -0.008
  0.000   0.000   1.932   0.000   0.000   0.000   0.000  -0.059   0.000   0.000   0.020   0.031   0.000   0.015   0.000   0.000
  0.000   0.000   0.000   1.921   0.000   0.000   0.000   0.000  -0.034   0.000   0.000   0.000   0.000   0.000   0.015   0.000
  0.000   0.000   0.000   0.000   1.920   0.000   0.000   0.000   0.000  -0.053   0.000   0.000   0.000   0.000   0.000   0.000
  0.003   0.000   0.000   0.000   0.000   0.060   0.000   0.000   0.000   0.000   0.000   0.000   0.000   0.000   0.000   0.000
  0.000  -0.034   0.000   0.000   0.000   0.000   0.046   0.000   0.000   0.000   0.000   0.000   0.044   0.000   0.000  -0.003
  0.000   0.000  -0.059   0.000   0.000   0.000   0.000   0.052   0.000   0.000  -0.061   0.009   0.000   0.038   0.000   0.000
  0.000   0.000   0.000  -0.034   0.000   0.000   0.000   0.000   0.046   0.000   0.000   0.000   0.000   0.000   0.044   0.000
  0.000   0.000   0.000   0.000  -0.053   0.000   0.000   0.000   0.000   0.055   0.000   0.000   0.000   0.000   0.000   0.000
  0.000   0.000   0.020   0.000   0.000   0.000   0.000  -0.061   0.000   0.000   1.226  -0.277   0.000   0.094   0.000   0.000
  0.000   0.000   0.031   0.000   0.000   0.000   0.000   0.009   0.000   0.000  -0.277   0.108   0.000  -0.054   0.000   0.000
  0.000   0.015   0.000   0.000   0.000   0.000   0.044   0.000   0.000   0.000   0.000   0.000   0.150   0.000   0.000  -0.010
  0.000   0.000   0.015   0.000   0.000   0.000   0.000   0.038   0.000   0.000   0.094  -0.054   0.000   0.088   0.000   0.000
  0.000   0.000   0.000   0.015   0.000   0.000   0.000   0.000   0.044   0.000   0.000   0.000   0.000   0.000   0.150   0.000
  0.000  -0.008   0.000   0.000   0.000   0.000  -0.003   0.000   0.000   0.000   0.000   0.000  -0.010   0.000   0.000   0.001
  0.000   0.000  -0.009   0.000   0.000   0.000   0.000  -0.002   0.000   0.000  -0.017   0.007   0.000  -0.007   0.000   0.000
  0.000   0.000   0.000  -0.008   0.000   0.000   0.000   0.000  -0.003   0.000   0.000   0.000   0.000   0.000  -0.010   0.000


------------------------ aborting loop because EDIFF is reached ----------------------------------------


    CHARGE:  cpu time    1.34: real time    1.34
    FORLOC:  cpu time    0.05: real time    0.05
    FORNL :  cpu time   23.01: real time   23.01
    STRESS:  cpu time   62.58: real time   62.59
    FORCOR:  cpu time    0.47: real time    0.47
    FORHAR:  cpu time    0.16: real time    0.15
    MIXING:  cpu time    0.02: real time    0.02

  FORCE on cell =-STRESS in cart. coord.  units (eV):
  Direction    XX          YY          ZZ          XY          YZ          ZX
  --------------------------------------------------------------------------------------
  Alpha Z   667.73723   667.73723   667.73723
  Ewald   44835.31249 44835.31249-53508.32798     0.00000     0.00000     0.00000
  Hartree 49408.61272 49408.61272-46871.62095     0.00000     0.00000     0.00000
  E(xc)    -750.73932  -750.73932  -751.70682     0.00000     0.00000     0.00000
  Local  -95333.63607-95333.63607 99288.65037     0.00000     0.00000     0.00000
  n-local  -438.90377  -451.32638  -446.12747     3.77525     0.00000     0.00000
  augment   674.83114   674.83114   676.19627    -0.00001    -0.00005    -0.00003
  Kinetic   954.61509   926.44562   944.18849    -3.72336     0.00000     0.00000
  Fock        0.00000     0.00000     0.00000     0.00000     0.00000     0.00000
  -------------------------------------------------------------------------------------
  Total      -2.46653    -2.46653    -1.01087     0.00000     0.00000     0.00000
  in kB     -14.34289   -14.34289    -5.87820     0.00000     0.00000     0.00000
  external pressure =      -11.52 kB  Pullay stress =        0.00 kB


 VOLUME and BASIS-vectors are now :
 -----------------------------------------------------------------------------
  energy-cutoff  :      415.00
  volume of cell :      275.52
      direct lattice vectors                 reciprocal lattice vectors
     3.631354857  0.000000000  0.000000000     0.275379311  0.000000000  0.000000000
     0.000000000  3.631354857  0.000000000     0.000000000  0.275379311  0.000000000
     0.000000000  0.000000000 20.894064570     0.000000000  0.000000000  0.047860482

  length of vectors
     3.631354857  3.631354857 20.894064570     0.275379311  0.275379311  0.047860482


 FORCES acting on ions
    electron-ion (+dipol)            ewald-force                    non-local-force                 convergence-correction
 -----------------------------------------------------------------------------------------------
   -.504E-13 0.620E-13 0.393E+04   0.121E-13 0.113E-13 -.392E+04   0.000E+00 0.000E+00 -.265E+01   0.276E-13 -.182E-13 -.338E-02
   -.717E-13 0.253E-14 0.791E+03   -.121E-13 -.295E-14 -.791E+03   -.103E-24 0.000E+00 -.468E-02   0.221E-13 -.602E-13 -.136E-02
   -.100E-12 -.540E-14 -.238E+04   -.259E-14 0.242E-13 0.238E+04   -.129E-24 0.620E-24 0.730E+00   0.956E-14 -.549E-14 0.426E-02
   0.609E-12 0.987E-12 0.393E+04   -.458E-14 -.379E-14 -.392E+04   0.207E-24 0.000E+00 -.265E+01   0.111E-12 0.163E-13 -.338E-02
   0.634E-12 -.770E-12 0.791E+03   -.259E-13 -.162E-13 -.791E+03   -.103E-24 0.000E+00 -.468E-02   0.469E-13 0.468E-14 -.136E-02
   0.589E-12 0.577E-12 -.238E+04   -.141E-13 0.102E-13 0.238E+04   -.336E-24 -.414E-24 0.730E+00   0.131E-13 0.163E-13 0.426E-02
   0.624E-12 -.614E-14 0.238E+04   -.847E-14 0.126E-14 -.238E+04   0.465E-24 0.414E-24 -.730E+00   0.767E-13 -.246E-13 -.426E-02
   0.596E-12 -.125E-13 -.791E+03   0.649E-14 0.664E-14 0.791E+03   0.000E+00 0.000E+00 0.468E-02   0.492E-13 -.173E-13 0.135E-02
   0.633E-12 -.511E-13 -.393E+04   -.154E-13 0.394E-14 0.392E+04   -.207E-24 0.000E+00 0.265E+01   0.269E-13 0.443E-13 0.339E-02
   -.469E-13 0.651E-12 0.238E+04   -.179E-13 -.126E-13 -.238E+04   0.414E-24 -.788E-24 -.730E+00   0.325E-14 -.561E-14 -.426E-02
   -.965E-13 0.511E-12 -.791E+03   0.101E-15 -.933E-14 0.791E+03   0.000E+00 0.000E+00 0.468E-02   0.481E-13 -.190E-13 0.135E-02
   -.348E-13 0.372E-12 -.393E+04   -.267E-13 -.139E-13 0.392E+04   0.000E+00 0.000E+00 0.265E+01   0.149E-13 0.387E-13 0.339E-02
 -----------------------------------------------------------------------------------------------
   0.328E-11 0.232E-11 -.483E-02   -.109E-12 -.129E-14 -.909E-12   0.207E-24 -.168E-24 -.888E-15   0.449E-12 -.302E-13 0.103E-05
 
 
 POSITION                                       TOTAL-FORCE (eV/Angst)
 -----------------------------------------------------------------------------------
      0.00000      0.00000      0.02315         0.000000      0.000000      0.011572
      0.00000      0.00000      3.62903         0.000000      0.000000      0.010202
      0.00000      0.00000      7.28080         0.000000      0.000000     -0.014552
      1.81568      1.81568      0.02315         0.000000      0.000000      0.011572
      1.81568      1.81568      3.62903         0.000000      0.000000      0.010202
      1.81568      1.81568      7.28080         0.000000      0.000000     -0.014552
      1.81568      0.00000      1.79759         0.000000      0.000000      0.014552
      1.81568      0.00000      5.44936         0.000000      0.000000     -0.010202
      1.81568      0.00000      9.05524         0.000000      0.000000     -0.011572
      0.00000      1.81568      1.79759         0.000000      0.000000      0.014552
      0.00000      1.81568      5.44936         0.000000      0.000000     -0.010202
      0.00000      1.81568      9.05524         0.000000      0.000000     -0.011572
 -----------------------------------------------------------------------------------
    total drift:                                0.000000      0.000000     -0.004829


--------------------------------------------------------------------------------------------------------



  FREE ENERGIE OF THE ION-ELECTRON SYSTEM (eV)
  ---------------------------------------------------
  free  energy   TOTEN  =       -42.223670 eV

  energy  without entropy=      -42.223670  energy(sigma->0) =      -42.223670
 
 d Force = 0.8662136E-04[ 0.840E-04, 0.893E-04]  d Energy = 0.3116466E-04 0.555E-04
 d Force =-0.1853622E+02[-0.185E+02,-0.185E+02]  d Ewald  =-0.1853622E+02 0.163E-07


--------------------------------------------------------------------------------------------------------


    POTLOK:  cpu time    0.51: real time    0.51


--------------------------------------------------------------------------------------------------------


 Conjugate gradient step on ions:
 trial-energy change:   -0.000031  1 .order   -0.000087   -0.000089   -0.000084
  (g-gl).g = 0.846E-05      g.g   = 0.977E-05  gl.gl    = 0.961E-04
 g(Force)  = 0.977E-05   g(Stress)= 0.000E+00 ortho     = 0.906E-07
 gamma     =   0.08812
 trial     =   9.13039
 opt step  =  36.52157  (harmonic = 153.79724) maximal distance =0.00291628
 next E    =   -42.224390   (d E  =  -0.00075)


--------------------------------------------------------------------------------------------------------


    WAVPRE:  cpu time    0.11: real time    0.10
    FEWALD:  cpu time    0.00: real time    0.00
    ORTHCH:  cpu time    7.77: real time    7.77
     LOOP+:  cpu time  378.47: real time  378.50


----------------------------------------- Iteration   10(   1)  ---------------------------------------


    POTLOK:  cpu time    0.44: real time    0.44
    SETDIJ:  cpu time    0.06: real time    0.06
     EDDAV:  cpu time   53.35: real time   53.36
 BZINTS: Fermi energy: -0.231902;132.000000 electrons
         Band energy:-394.893631;  BLOECHL correction: -0.141111
       DOS:  cpu time    0.04: real time    0.04
    CHARGE:  cpu time    1.34: real time    1.34
    MIXING:  cpu time    0.02: real time    0.01
    --------------------------------------------
      LOOP:  cpu time   55.25: real time   55.25

 eigenvalue-minimisations  :  1600
 total energy-change (2. order) :-0.1846363E-04  (-0.1980476E-01)
 number of electron     131.9999569 magnetization 
 augmentation part       86.4613266 magnetization 

 Broyden mixing:
  rms(total) = 0.28224E-02    rms(broyden)= 0.28197E-02
  rms(prec ) = 0.30336E-02
  weight for this iteration     100.00

 Free energy of the ion-electron system (eV)
  ---------------------------------------------------
  alpha Z        PSCENC =       667.73722884
  Ewald energy   TEWEN  =     36217.95283278
  -1/2 Hartree   DENC   =    -52001.14084322
  -exchange  EXHF       =         0.00000000
  -V(xc)+E(xc)   XCENC  =       512.11646351
  PAW double counting   =     13121.09169639   -14856.74444423
  entropy T*S    EENTRO =         0.00000000
  eigenvalues    EBANDS =      -394.89363100
  atomic energy  EATOM  =     16691.65700843
  ---------------------------------------------------
  free energy    TOTEN  =       -42.22368850 eV

  energy without entropy =      -42.22368850  energy(sigma->0) =      -42.22368850


--------------------------------------------------------------------------------------------------------




----------------------------------------- Iteration   10(   2)  ---------------------------------------


    POTLOK:  cpu time    0.44: real time    0.44
    SETDIJ:  cpu time    0.06: real time    0.06
     EDDAV:  cpu time   56.62: real time   56.65
 BZINTS: Fermi energy: -0.231906;132.000000 electrons
         Band energy:-394.934992;  BLOECHL correction: -0.141217
       DOS:  cpu time    0.04: real time    0.05
    CHARGE:  cpu time    1.34: real time    1.35
    MIXING:  cpu time    0.02: real time    0.02
    --------------------------------------------
      LOOP:  cpu time   58.53: real time   58.55

 eigenvalue-minimisations  :  1728
 total energy-change (2. order) :-0.7609956E-04  (-0.5274544E-04)
 number of electron     131.9999569 magnetization 
 augmentation part       86.4626157 magnetization 

 Broyden mixing:
  rms(total) = 0.30260E-02    rms(broyden)= 0.30257E-02
  rms(prec ) = 0.33234E-02
  weight for this iteration     100.00

 eigenvalues of (default mixing * dielectric matrix)
  average eigenvalue GAMMA=   0.4472
  0.4472

 Free energy of the ion-electron system (eV)
  ---------------------------------------------------
  alpha Z        PSCENC =       667.73722884
  Ewald energy   TEWEN  =     36217.95283278
  -1/2 Hartree   DENC   =    -52001.10988753
  -exchange  EXHF       =         0.00000000
  -V(xc)+E(xc)   XCENC  =       512.11251855
  PAW double counting   =     13121.25810872   -14856.89658261
  entropy T*S    EENTRO =         0.00000000
  eigenvalues    EBANDS =      -394.93499178
  atomic energy  EATOM  =     16691.65700843
  ---------------------------------------------------
  free energy    TOTEN  =       -42.22376460 eV

  energy without entropy =      -42.22376460  energy(sigma->0) =      -42.22376460


--------------------------------------------------------------------------------------------------------




----------------------------------------- Iteration   10(   3)  ---------------------------------------


    POTLOK:  cpu time    0.44: real time    0.44
    SETDIJ:  cpu time    0.06: real time    0.06
     EDDAV:  cpu time   54.56: real time   54.56
 BZINTS: Fermi energy: -0.232460;132.000000 electrons
         Band energy:-395.005116;  BLOECHL correction: -0.141129
       DOS:  cpu time    0.04: real time    0.04
    CHARGE:  cpu time    1.33: real time    1.33
    MIXING:  cpu time    0.02: real time    0.02
    --------------------------------------------
      LOOP:  cpu time   56.45: real time   56.45

 eigenvalue-minimisations  :  1648
 total energy-change (2. order) : 0.5846900E-04  (-0.9704925E-05)
 number of electron     131.9999569 magnetization 
 augmentation part       86.4632616 magnetization 

 Broyden mixing:
  rms(total) = 0.15591E-02    rms(broyden)= 0.15590E-02
  rms(prec ) = 0.16773E-02
  weight for this iteration     100.00

 eigenvalues of (default mixing * dielectric matrix)
  average eigenvalue GAMMA=   1.3425
  0.4231  2.2620

 Free energy of the ion-electron system (eV)
  ---------------------------------------------------
  alpha Z        PSCENC =       667.73722884
  Ewald energy   TEWEN  =     36217.95283278
  -1/2 Hartree   DENC   =    -52001.03516336
  -exchange  EXHF       =         0.00000000
  -V(xc)+E(xc)   XCENC  =       512.11258784
  PAW double counting   =     13121.34127876   -14856.98436387
  entropy T*S    EENTRO =         0.00000000
  eigenvalues    EBANDS =      -395.00511555
  atomic energy  EATOM  =     16691.65700843
  ---------------------------------------------------
  free energy    TOTEN  =       -42.22370613 eV

  energy without entropy =      -42.22370613  energy(sigma->0) =      -42.22370613


--------------------------------------------------------------------------------------------------------




----------------------------------------- Iteration   10(   4)  ---------------------------------------


    POTLOK:  cpu time    0.44: real time    0.44
    SETDIJ:  cpu time    0.06: real time    0.06
     EDDAV:  cpu time   61.90: real time   61.91
 BZINTS: Fermi energy: -0.231533;132.000000 electrons
         Band energy:-394.846017;  BLOECHL correction: -0.141195
       DOS:  cpu time    0.04: real time    0.04
    CHARGE:  cpu time    1.32: real time    1.32
    MIXING:  cpu time    0.02: real time    0.02
    --------------------------------------------
      LOOP:  cpu time   63.78: real time   63.79

 eigenvalue-minimisations  :  1936
 total energy-change (2. order) :-0.4927487E-04  (-0.2511048E-05)
 number of electron     131.9999569 magnetization 
 augmentation part       86.4616013 magnetization 

 Broyden mixing:
  rms(total) = 0.53211E-03    rms(broyden)= 0.53207E-03
  rms(prec ) = 0.63212E-03
  weight for this iteration     100.00

 eigenvalues of (default mixing * dielectric matrix)
  average eigenvalue GAMMA=   1.2381
  2.6685  0.6453  0.4004

 Free energy of the ion-electron system (eV)
  ---------------------------------------------------
  alpha Z        PSCENC =       667.73722884
  Ewald energy   TEWEN  =     36217.95283278
  -1/2 Hartree   DENC   =    -52001.15278546
  -exchange  EXHF       =         0.00000000
  -V(xc)+E(xc)   XCENC  =       512.11441793
  PAW double counting   =     13121.76021898   -14857.44666015
  entropy T*S    EENTRO =         0.00000000
  eigenvalues    EBANDS =      -394.84601675
  atomic energy  EATOM  =     16691.65700843
  ---------------------------------------------------
  free energy    TOTEN  =       -42.22375541 eV

  energy without entropy =      -42.22375541  energy(sigma->0) =      -42.22375541


--------------------------------------------------------------------------------------------------------




----------------------------------------- Iteration   10(   5)  ---------------------------------------


    POTLOK:  cpu time    0.44: real time    0.44
    SETDIJ:  cpu time    0.06: real time    0.06
     EDDAV:  cpu time   54.04: real time   54.04
 BZINTS: Fermi energy: -0.232029;132.000000 electrons
         Band energy:-394.928373;  BLOECHL correction: -0.141170
       DOS:  cpu time    0.04: real time    0.04
    CHARGE:  cpu time    1.33: real time    1.33
    MIXING:  cpu time    0.02: real time    0.02
    --------------------------------------------
      LOOP:  cpu time   55.92: real time   55.93

 eigenvalue-minimisations  :  1624
 total energy-change (2. order) : 0.2033192E-04  (-0.1032292E-05)
 number of electron     131.9999569 magnetization 
 augmentation part       86.4623870 magnetization 

 Broyden mixing:
  rms(total) = 0.43149E-03    rms(broyden)= 0.43146E-03
  rms(prec ) = 0.46679E-03
  weight for this iteration     100.00

 eigenvalues of (default mixing * dielectric matrix)
  average eigenvalue GAMMA=   1.0147
  2.6079  0.5415  0.5415  0.3679

 Free energy of the ion-electron system (eV)
  ---------------------------------------------------
  alpha Z        PSCENC =       667.73722884
  Ewald energy   TEWEN  =     36217.95283278
  -1/2 Hartree   DENC   =    -52001.07915761
  -exchange  EXHF       =         0.00000000
  -V(xc)+E(xc)   XCENC  =       512.11261874
  PAW double counting   =     13121.77814338   -14857.45403670
  entropy T*S    EENTRO =         0.00000000
  eigenvalues    EBANDS =      -394.92837292
  atomic energy  EATOM  =     16691.65700843
  ---------------------------------------------------
  free energy    TOTEN  =       -42.22373507 eV

  energy without entropy =      -42.22373507  energy(sigma->0) =      -42.22373507


--------------------------------------------------------------------------------------------------------




----------------------------------------- Iteration   10(   6)  ---------------------------------------


    POTLOK:  cpu time    0.44: real time    0.44
    SETDIJ:  cpu time    0.06: real time    0.06
     EDDAV:  cpu time   35.79: real time   35.79
 BZINTS: Fermi energy: -0.232072;132.000000 electrons
         Band energy:-394.938712;  BLOECHL correction: -0.141174
       DOS:  cpu time    0.04: real time    0.04
    --------------------------------------------
      LOOP:  cpu time   36.33: real time   36.34

 eigenvalue-minimisations  :   904
 total energy-change (2. order) : 0.7506424E-06  (-0.1976643E-06)
 number of electron     131.9999569 magnetization 
 augmentation part       86.4623870 magnetization 

 Free energy of the ion-electron system (eV)
  ---------------------------------------------------
  alpha Z        PSCENC =       667.73722884
  Ewald energy   TEWEN  =     36217.95283278
  -1/2 Hartree   DENC   =    -52001.07131040
  -exchange  EXHF       =         0.00000000
  -V(xc)+E(xc)   XCENC  =       512.11241750
  PAW double counting   =     13121.76109746   -14857.43429713
  entropy T*S    EENTRO =         0.00000000
  eigenvalues    EBANDS =      -394.93871181
  atomic energy  EATOM  =     16691.65700843
  ---------------------------------------------------
  free energy    TOTEN  =       -42.22373432 eV

  energy without entropy =      -42.22373432  energy(sigma->0) =      -42.22373432


--------------------------------------------------------------------------------------------------------




 average (electrostatic) potential at core
  the test charge radii are     1.0053
  (the norm of the test charge is              1.0000)
       1 -43.4850       2 -43.7857       3 -43.8491       4 -43.4850       5 -43.7857
       6 -43.8491       7 -43.8490       8 -43.7857       9 -43.4852      10 -43.8490
      11 -43.7857      12 -43.4852
 
 
 
 E-fermi :  -0.2321     XC(G=0):  -7.5065     alpha+bet : -4.9539


 k-point   1 :       0.0000    0.0000    0.0000
  band No.  band energies     occupation 
      1      -9.0724      2.00000
      2      -8.3017      2.00000
      3      -7.0221      2.00000
      4      -5.6067      2.00000
      5      -4.8971      2.00000
      6      -4.8579      2.00000
      7      -4.7976      2.00000
      8      -4.7976      2.00000
      9      -4.4808      2.00000
     10      -4.4808      2.00000
     11      -4.4004      2.00000
     12      -4.3876      2.00000
     13      -4.3876      2.00000
     14      -4.2113      2.00000
     15      -4.1329      2.00000
     16      -4.1329      2.00000
     17      -3.9519      2.00000
     18      -3.9518      2.00000
     19      -3.8619      2.00000
     20      -3.6613      2.00000
     21      -3.6613      2.00000
     22      -3.4722      2.00000
     23      -3.2208      2.00000
     24      -3.1241      2.00000
     25      -3.0421      2.00000
     26      -3.0421      2.00000
     27      -3.0020      2.00000
     28      -3.0020      2.00000
     29      -2.8387      2.00000
     30      -2.8387      2.00000
     31      -2.6262      2.00000
     32      -2.5837      2.00000
     33      -2.4873      2.00000
     34      -2.4873      2.00000
     35      -2.3560      2.00000
     36      -2.3199      2.00000
     37      -2.3061      2.00000
     38      -2.3061      2.00000
     39      -2.2711      2.00000
     40      -2.1965      2.00000
     41      -2.1957      2.00000
     42      -2.1957      2.00000
     43      -2.0689      2.00000
     44      -2.0689      2.00000
     45      -2.0306      2.00000
     46      -1.9320      2.00000
     47      -1.9320      2.00000
     48      -1.8436      2.00000
     49      -1.7898      2.00000
     50      -1.7898      2.00000
     51      -1.7655      2.00000
     52      -1.7654      2.00000
     53      -1.7527      2.00000
     54      -1.7527      2.00000
     55      -1.6738      2.00000
     56      -1.6737      2.00000
     57      -1.6510      2.00000
     58      -1.6458      2.00000
     59      -1.6285      2.00000
     60      -1.6285      2.00000
     61      -1.6098      2.00000
     62      -1.5952      2.00000
     63      -1.5952      2.00000
     64      -1.2992      2.00000
     65      -1.2991      2.00000
     66       0.0564      0.00000
     67       1.1264      0.00000
     68       1.9392      0.00000
     69       1.9392      0.00000
     70       3.1791      0.00000
     71       3.1791      0.00000
     72       4.0262      0.00000
     73       4.6186      0.00000
     74       4.9246      0.00000
     75       4.9246      0.00000
     76       6.6131      0.00000
     77       6.9910      0.00000
     78       6.9910      0.00000
     79       7.0383      0.00000
     80       7.0383      0.00000

 k-point   2 :       0.1429    0.0000    0.0000
  band No.  band energies     occupation 
      1      -8.8299      2.00000
      2      -8.0677      2.00000
      3      -6.8060      2.00000
      4      -5.4223      2.00000
      5      -4.7946      2.00000
      6      -4.7490      2.00000
      7      -4.7363      2.00000
      8      -4.6939      2.00000
      9      -4.4483      2.00000
     10      -4.4017      2.00000
     11      -4.3352      2.00000
     12      -4.3275      2.00000
     13      -4.3180      2.00000
     14      -4.1565      2.00000
     15      -4.1175      2.00000
     16      -4.0854      2.00000
     17      -3.9213      2.00000
     18      -3.8754      2.00000
     19      -3.8254      2.00000
     20      -3.6685      2.00000
     21      -3.6410      2.00000
     22      -3.4609      2.00000
     23      -3.2362      2.00000
     24      -3.0876      2.00000
     25      -3.0685      2.00000
     26      -3.0374      2.00000
     27      -3.0329      2.00000
     28      -3.0039      2.00000
     29      -2.9010      2.00000
     30      -2.8966      2.00000
     31      -2.8446      2.00000
     32      -2.5823      2.00000
     33      -2.4987      2.00000
     34      -2.4467      2.00000
     35      -2.4342      2.00000
     36      -2.4090      2.00000
     37      -2.4083      2.00000
     38      -2.3330      2.00000
     39      -2.3085      2.00000
     40      -2.2605      2.00000
     41      -2.2126      2.00000
     42      -2.1858      2.00000
     43      -2.0892      2.00000
     44      -2.0801      2.00000
     45      -2.0607      2.00000
     46      -2.0325      2.00000
     47      -1.9903      2.00000
     48      -1.9654      2.00000
     49      -1.8841      2.00000
     50      -1.8787      2.00000
     51      -1.8643      2.00000
     52      -1.8341      2.00000
     53      -1.8026      2.00000
     54      -1.7930      2.00000
     55      -1.7889      2.00000
     56      -1.7616      2.00000
     57      -1.7485      2.00000
     58      -1.7253      2.00000
     59      -1.7037      2.00000
     60      -1.6937      2.00000
     61      -1.6785      2.00000
     62      -1.6323      2.00000
     63      -1.4534      2.00000
     64      -1.4325      2.00000
     65      -1.0747      2.00000
     66       0.4810     -0.01243
     67       0.6304      0.00000
     68       1.6196      0.00000
     69       1.7141      0.00000
     70       2.4714      0.00000
     71       3.1729      0.00000
     72       3.6189      0.00000
     73       4.2708      0.00000
     74       4.8384      0.00000
     75       4.8873      0.00000
     76       5.2961      0.00000
     77       6.7394      0.00000
     78       6.8467      0.00000
     79       7.1399      0.00000
     80       7.3166      0.00000

 k-point   3 :       0.2857    0.0000    0.0000
  band No.  band energies     occupation 
      1      -8.1201      2.00000
      2      -7.3872      2.00000
      3      -6.1918      2.00000
      4      -4.9546      2.00000
      5      -4.9290      2.00000
      6      -4.5537      2.00000
      7      -4.4214      2.00000
      8      -4.3922      2.00000
      9      -4.3597      2.00000
     10      -4.2099      2.00000
     11      -4.1575      2.00000
     12      -4.1375      2.00000
     13      -4.1126      2.00000
     14      -4.0822      2.00000
     15      -4.0242      2.00000
     16      -3.9935      2.00000
     17      -3.9536      2.00000
     18      -3.7283      2.00000
     19      -3.6888      2.00000
     20      -3.5950      2.00000
     21      -3.5333      2.00000
     22      -3.4734      2.00000
     23      -3.3803      2.00000
     24      -3.2294      2.00000
     25      -3.1657      2.00000
     26      -3.1606      2.00000
     27      -3.0450      2.00000
     28      -2.9573      2.00000
     29      -2.9169      2.00000
     30      -2.9113      2.00000
     31      -2.9093      2.00000
     32      -2.8071      2.00000
     33      -2.8045      2.00000
     34      -2.7367      2.00000
     35      -2.5891      2.00000
     36      -2.5860      2.00000
     37      -2.5133      2.00000
     38      -2.4537      2.00000
     39      -2.4320      2.00000
     40      -2.3579      2.00000
     41      -2.3063      2.00000
     42      -2.2718      2.00000
     43      -2.1919      2.00000
     44      -2.1762      2.00000
     45      -2.1621      2.00000
     46      -2.1311      2.00000
     47      -2.1302      2.00000
     48      -2.1059      2.00000
     49      -2.0882      2.00000
     50      -2.0796      2.00000
     51      -2.0147      2.00000
     52      -1.9798      2.00000
     53      -1.9692      2.00000
     54      -1.9645      2.00000
     55      -1.9259      2.00000
     56      -1.9203      2.00000
     57      -1.8741      2.00000
     58      -1.8719      2.00000
     59      -1.7832      2.00000
     60      -1.7469      2.00000
     61      -1.6944      2.00000
     62      -1.6414      2.00000
     63      -1.6120      2.00000
     64      -1.3431      2.00000
     65      -1.1676      2.00000
     66      -0.2480      0.80541
     67      -0.2204      0.65127
     68       0.9553      0.00000
     69       1.4483      0.00000
     70       2.4956      0.00000
     71       2.7630      0.00000
     72       3.7467      0.00000
     73       4.3335      0.00000
     74       4.7603      0.00000
     75       5.0041      0.00000
     76       5.4920      0.00000
     77       6.3146      0.00000
     78       6.3341      0.00000
     79       7.4958      0.00000
     80       7.5483      0.00000

 k-point   4 :       0.4286    0.0000    0.0000
  band No.  band energies     occupation 
      1      -7.0160      2.00000
      2      -6.3480      2.00000
      3      -5.7564      2.00000
      4      -5.3176      2.00000
      5      -5.2122      2.00000
      6      -4.5067      2.00000
      7      -4.3630      2.00000
      8      -4.1291      2.00000
      9      -4.1040      2.00000
     10      -4.0845      2.00000
     11      -3.9318      2.00000
     12      -3.9112      2.00000
     13      -3.9091      2.00000
     14      -3.8435      2.00000
     15      -3.8044      2.00000
     16      -3.7693      2.00000
     17      -3.7345      2.00000
     18      -3.6349      2.00000
     19      -3.6124      2.00000
     20      -3.5848      2.00000
     21      -3.5694      2.00000
     22      -3.5089      2.00000
     23      -3.4735      2.00000
     24      -3.4219      2.00000
     25      -3.3415      2.00000
     26      -3.3389      2.00000
     27      -3.2851      2.00000
     28      -3.1887      2.00000
     29      -3.0716      2.00000
     30      -3.0136      2.00000
     31      -2.9665      2.00000
     32      -2.8735      2.00000
     33      -2.6905      2.00000
     34      -2.6892      2.00000
     35      -2.6269      2.00000
     36      -2.6064      2.00000
     37      -2.5610      2.00000
     38      -2.4948      2.00000
     39      -2.4631      2.00000
     40      -2.4608      2.00000
     41      -2.4416      2.00000
     42      -2.4272      2.00000
     43      -2.4216      2.00000
     44      -2.4199      2.00000
     45      -2.4070      2.00000
     46      -2.3225      2.00000
     47      -2.2921      2.00000
     48      -2.2737      2.00000
     49      -2.2623      2.00000
     50      -2.2565      2.00000
     51      -2.1708      2.00000
     52      -2.1692      2.00000
     53      -2.1432      2.00000
     54      -2.1201      2.00000
     55      -2.1197      2.00000
     56      -2.0603      2.00000
     57      -2.0511      2.00000
     58      -1.9119      2.00000
     59      -1.8348      2.00000
     60      -1.8043      2.00000
     61      -1.7981      2.00000
     62      -1.6513      2.00000
     63      -1.6505      2.00000
     64      -1.4138      2.00000
     65      -1.3990      2.00000
     66      -0.6001      2.10806
     67      -0.5797      2.07832
     68       0.6483      0.00000
     69       0.8929      0.00000
     70       2.3792      0.00000
     71       2.7423      0.00000
     72       4.2558      0.00000
     73       4.3609      0.00000
     74       5.4320      0.00000
     75       6.0367      0.00000
     76       6.2191      0.00000
     77       6.3566      0.00000
     78       6.5675      0.00000
     79       7.4046      0.00000
     80       7.8135      0.00000

 k-point   5 :       0.1429    0.1429    0.0000
  band No.  band energies     occupation 
      1      -8.5911      2.00000
      2      -7.8398      2.00000
      3      -6.6022      2.00000
      4      -5.2638      2.00000
      5      -4.6834      2.00000
      6      -4.6834      2.00000
      7      -4.6268      2.00000
      8      -4.6259      2.00000
      9      -4.3784      2.00000
     10      -4.3784      2.00000
     11      -4.2752      2.00000
     12      -4.2546      2.00000
     13      -4.2546      2.00000
     14      -4.1067      2.00000
     15      -4.1066      2.00000
     16      -4.0982      2.00000
     17      -3.8489      2.00000
     18      -3.8488      2.00000
     19      -3.7761      2.00000
     20      -3.6456      2.00000
     21      -3.6456      2.00000
     22      -3.4378      2.00000
     23      -3.2515      2.00000
     24      -3.0756      2.00000
     25      -3.0755      2.00000
     26      -3.0270      2.00000
     27      -3.0178      2.00000
     28      -2.9873      2.00000
     29      -2.9840      2.00000
     30      -2.9426      2.00000
     31      -2.8493      2.00000
     32      -2.7016      2.00000
     33      -2.6188      2.00000
     34      -2.5264      2.00000
     35      -2.5264      2.00000
     36      -2.4044      2.00000
     37      -2.3830      2.00000
     38      -2.3604      2.00000
     39      -2.2812      2.00000
     40      -2.2736      2.00000
     41      -2.2736      2.00000
     42      -2.2558      2.00000
     43      -2.2384      2.00000
     44      -2.2140      2.00000
     45      -2.0951      2.00000
     46      -2.0950      2.00000
     47      -2.0608      2.00000
     48      -2.0004      2.00000
     49      -1.9557      2.00000
     50      -1.9556      2.00000
     51      -1.9307      2.00000
     52      -1.9307      2.00000
     53      -1.8947      2.00000
     54      -1.8375      2.00000
     55      -1.7993      2.00000
     56      -1.7993      2.00000
     57      -1.7585      2.00000
     58      -1.7540      2.00000
     59      -1.7302      2.00000
     60      -1.7302      2.00000
     61      -1.6553      2.00000
     62      -1.6191      2.00000
     63      -1.5395      2.00000
     64      -1.5394      2.00000
     65      -0.7900      2.01764
     66       0.8274     -0.01421
     67       1.1126      0.00000
     68       1.1126      0.00000
     69       2.0426      0.00000
     70       2.0723      0.00000
     71       2.0723      0.00000
     72       3.4233      0.00000
     73       3.4234      0.00000
     74       4.5154      0.00000
     75       5.0564      0.00000
     76       5.1970      0.00000
     77       5.1971      0.00000
     78       7.0715      0.00000
     79       7.0715      0.00000
     80       7.0804      0.00000

 k-point   6 :       0.2857    0.1429    0.0000
  band No.  band energies     occupation 
      1      -7.8937      2.00000
      2      -7.1803      2.00000
      3      -6.0337      2.00000
      4      -4.8671      2.00000
      5      -4.8272      2.00000
      6      -4.4968      2.00000
      7      -4.3827      2.00000
      8      -4.3462      2.00000
      9      -4.3271      2.00000
     10      -4.2164      2.00000
     11      -4.2117      2.00000
     12      -4.1638      2.00000
     13      -4.0982      2.00000
     14      -4.0744      2.00000
     15      -4.0238      2.00000
     16      -3.9178      2.00000
     17      -3.8050      2.00000
     18      -3.6988      2.00000
     19      -3.6200      2.00000
     20      -3.5331      2.00000
     21      -3.4857      2.00000
     22      -3.4059      2.00000
     23      -3.3688      2.00000
     24      -3.1534      2.00000
     25      -3.1482      2.00000
     26      -3.1397      2.00000
     27      -3.0496      2.00000
     28      -2.9700      2.00000
     29      -2.9185      2.00000
     30      -2.9132      2.00000
     31      -2.9101      2.00000
     32      -2.9031      2.00000
     33      -2.8624      2.00000
     34      -2.7929      2.00000
     35      -2.6985      2.00000
     36      -2.5845      2.00000
     37      -2.5675      2.00000
     38      -2.5059      2.00000
     39      -2.4647      2.00000
     40      -2.4440      2.00000
     41      -2.3605      2.00000
     42      -2.3402      2.00000
     43      -2.3232      2.00000
     44      -2.2943      2.00000
     45      -2.2727      2.00000
     46      -2.2279      2.00000
     47      -2.1952      2.00000
     48      -2.1793      2.00000
     49      -2.1400      2.00000
     50      -2.1346      2.00000
     51      -2.0509      2.00000
     52      -1.9987      2.00000
     53      -1.9596      2.00000
     54      -1.9252      2.00000
     55      -1.8502      2.00000
     56      -1.8437      2.00000
     57      -1.8082      2.00000
     58      -1.8064      2.00000
     59      -1.7902      2.00000
     60      -1.6962      2.00000
     61      -1.6633      2.00000
     62      -1.6606      2.00000
     63      -1.6570      2.00000
     64      -1.3447      2.00000
     65      -0.7059      2.00573
     66      -0.0560      0.25461
     67       0.0230      0.10011
     68       1.1309      0.00000
     69       1.7000      0.00000
     70       2.1712      0.00000
     71       2.5614      0.00000
     72       2.9145      0.00000
     73       3.0905      0.00000
     74       4.4646      0.00000
     75       4.6237      0.00000
     76       5.2481      0.00000
     77       5.6991      0.00000
     78       6.1083      0.00000
     79       6.5879      0.00000
     80       7.2158      0.00000

 k-point   7 :       0.4286    0.1429    0.0000
  band No.  band energies     occupation 
      1      -6.8147      2.00000
      2      -6.1878      2.00000
      3      -5.5965      2.00000
      4      -5.2640      2.00000
      5      -5.1326      2.00000
      6      -4.5982      2.00000
      7      -4.4662      2.00000
      8      -4.2538      2.00000
      9      -4.0631      2.00000
     10      -4.0406      2.00000
     11      -4.0265      2.00000
     12      -4.0060      2.00000
     13      -3.8557      2.00000
     14      -3.8447      2.00000
     15      -3.7675      2.00000
     16      -3.7152      2.00000
     17      -3.6400      2.00000
     18      -3.5901      2.00000
     19      -3.5714      2.00000
     20      -3.4544      2.00000
     21      -3.3960      2.00000
     22      -3.3947      2.00000
     23      -3.3694      2.00000
     24      -3.3663      2.00000
     25      -3.3344      2.00000
     26      -3.2891      2.00000
     27      -3.2187      2.00000
     28      -3.0914      2.00000
     29      -3.0439      2.00000
     30      -2.9999      2.00000
     31      -2.9916      2.00000
     32      -2.9318      2.00000
     33      -2.7873      2.00000
     34      -2.7596      2.00000
     35      -2.6874      2.00000
     36      -2.6797      2.00000
     37      -2.6415      2.00000
     38      -2.6319      2.00000
     39      -2.6068      2.00000
     40      -2.5563      2.00000
     41      -2.5492      2.00000
     42      -2.5437      2.00000
     43      -2.4856      2.00000
     44      -2.3968      2.00000
     45      -2.3950      2.00000
     46      -2.3714      2.00000
     47      -2.3030      2.00000
     48      -2.1884      2.00000
     49      -2.1732      2.00000
     50      -2.1150      2.00000
     51      -2.1081      2.00000
     52      -2.1038      2.00000
     53      -2.0286      2.00000
     54      -1.9976      2.00000
     55      -1.9358      2.00000
     56      -1.9287      2.00000
     57      -1.9051      2.00000
     58      -1.9010      2.00000
     59      -1.8011      2.00000
     60      -1.7675      2.00000
     61      -1.7309      2.00000
     62      -1.7044      2.00000
     63      -1.6389      2.00000
     64      -1.4331      2.00000
     65      -1.3220      2.03600
     66      -0.5613      2.03459
     67      -0.5509      1.95326
     68       0.7119      0.00000
     69       1.0101      0.00000
     70       2.4190      0.00000
     71       2.9129      0.00000
     72       3.4668      0.00000
     73       4.4780      0.00000
     74       4.4944      0.00000
     75       4.5895      0.00000
     76       5.2492      0.00000
     77       5.8259      0.00000
     78       6.1153      0.00000
     79       6.2797      0.00000
     80       6.4606      0.00000

 k-point   8 :       0.2857    0.2857    0.0000
  band No.  band energies     occupation 
      1      -7.2386      2.00000
      2      -6.5962      2.00000
      3      -5.6267      2.00000
      4      -4.7467      2.00000
      5      -4.5485      2.00000
      6      -4.5485      2.00000
      7      -4.4826      2.00000
      8      -4.4825      2.00000
      9      -4.2743      2.00000
     10      -4.2431      2.00000
     11      -4.2430      2.00000
     12      -4.1815      2.00000
     13      -3.9579      2.00000
     14      -3.8493      2.00000
     15      -3.8493      2.00000
     16      -3.7003      2.00000
     17      -3.6362      2.00000
     18      -3.6361      2.00000
     19      -3.3898      2.00000
     20      -3.3313      2.00000
     21      -3.3312      2.00000
     22      -3.3169      2.00000
     23      -3.2281      2.00000
     24      -3.1259      2.00000
     25      -3.1258      2.00000
     26      -3.1244      2.00000
     27      -3.1075      2.00000
     28      -3.0543      2.00000
     29      -3.0543      2.00000
     30      -3.0003      2.00000
     31      -2.9264      2.00000
     32      -2.9239      2.00000
     33      -2.8559      2.00000
     34      -2.8476      2.00000
     35      -2.7830      2.00000
     36      -2.7043      2.00000
     37      -2.6588      2.00000
     38      -2.6588      2.00000
     39      -2.6404      2.00000
     40      -2.6389      2.00000
     41      -2.5535      2.00000
     42      -2.5534      2.00000
     43      -2.4553      2.00000
     44      -2.4122      2.00000
     45      -2.4122      2.00000
     46      -2.3652      2.00000
     47      -2.1047      2.00000
     48      -2.1032      2.00000
     49      -2.1032      2.00000
     50      -2.0844      2.00000
     51      -2.0553      2.00000
     52      -1.9925      2.00000
     53      -1.9799      2.00000
     54      -1.9364      2.00000
     55      -1.9363      2.00000
     56      -1.8292      2.00000
     57      -1.7652      2.00000
     58      -1.7652      2.00000
     59      -1.7514      2.00000
     60      -1.6971      2.00000
     61      -1.6807      2.00000
     62      -1.6806      2.00000
     63      -1.6610      2.00000
     64      -1.1678      2.00000
     65       0.1548      0.89329
     66       0.1549     -0.07054
     67       0.4561     -0.31828
     68       0.6735     -0.00200
     69       0.6735      0.00000
     70       1.4520      0.00000
     71       1.4521      0.00000
     72       2.3675      0.00000
     73       3.7599      0.00000
     74       3.7601      0.00000
     75       3.9383      0.00000
     76       4.8368      0.00000
     77       5.4918      0.00000
     78       5.4918      0.00000
     79       5.7351      0.00000
     80       5.9771      0.00000

 k-point   9 :       0.4286    0.2857    0.0000
  band No.  band energies     occupation 
      1      -6.2504      2.00000
      2      -5.7732      2.00000
      3      -5.1912      2.00000
      4      -5.1555      2.00000
      5      -4.9949      2.00000
      6      -4.7674      2.00000
      7      -4.6311      2.00000
      8      -4.5109      2.00000
      9      -4.2228      2.00000
     10      -4.2075      2.00000
     11      -4.0477      2.00000
     12      -4.0069      2.00000
     13      -3.7973      2.00000
     14      -3.7034      2.00000
     15      -3.5536      2.00000
     16      -3.5472      2.00000
     17      -3.5273      2.00000
     18      -3.5122      2.00000
     19      -3.4681      2.00000
     20      -3.2656      2.00000
     21      -3.2626      2.00000
     22      -3.2199      2.00000
     23      -3.2133      2.00000
     24      -3.2055      2.00000
     25      -3.0915      2.00000
     26      -3.0808      2.00000
     27      -3.0664      2.00000
     28      -3.0616      2.00000
     29      -3.0528      2.00000
     30      -3.0023      2.00000
     31      -2.9816      2.00000
     32      -2.9783      2.00000
     33      -2.8727      2.00000
     34      -2.8430      2.00000
     35      -2.8325      2.00000
     36      -2.7706      2.00000
     37      -2.7506      2.00000
     38      -2.7406      2.00000
     39      -2.7095      2.00000
     40      -2.6391      2.00000
     41      -2.5153      2.00000
     42      -2.5056      2.00000
     43      -2.4666      2.00000
     44      -2.4519      2.00000
     45      -2.4508      2.00000
     46      -2.3315      2.00000
     47      -2.2980      2.00000
     48      -2.1351      2.00000
     49      -2.0747      2.00000
     50      -2.0197      2.00000
     51      -1.9928      2.00000
     52      -1.9579      2.00000
     53      -1.8814      2.00000
     54      -1.8458      2.00000
     55      -1.8371      2.00000
     56      -1.8313      2.00000
     57      -1.8116      2.00000
     58      -1.7970      2.00000
     59      -1.7633      2.00000
     60      -1.7387      2.00000
     61      -1.7358      2.00000
     62      -1.6821      2.00000
     63      -1.5288      2.00000
     64      -1.1434      2.00000
     65      -0.9506      2.05234
     66      -0.4744      1.91759
     67      -0.3893      1.70268
     68       0.6937     -0.07785
     69       1.2384      0.00000
     70       1.2680      0.00000
     71       1.4519      0.00000
     72       2.5419      0.00000
     73       3.5362      0.00000
     74       3.5392      0.00000
     75       3.7613      0.00000
     76       3.8144      0.00000
     77       5.0724      0.00000
     78       5.1877      0.00000
     79       5.3581      0.00000
     80       5.3581      0.00000

 k-point  10 :       0.4286    0.4286    0.0000
  band No.  band energies     occupation 
      1      -5.4753      2.00000
      2      -5.3005      2.00000
      3      -5.0492      2.00000
      4      -4.9772      2.00000
      5      -4.9771      2.00000
      6      -4.8092      2.00000
      7      -4.8091      2.00000
      8      -4.7272      2.00000
      9      -4.3516      2.00000
     10      -4.3057      2.00000
     11      -4.3056      2.00000
     12      -4.1594      2.00000
     13      -3.5474      2.00000
     14      -3.4469      2.00000
     15      -3.4469      2.00000
     16      -3.3716      2.00000
     17      -3.3582      2.00000
     18      -3.3335      2.00000
     19      -3.3335      2.00000
     20      -3.2629      2.00000
     21      -3.2629      2.00000
     22      -3.2361      2.00000
     23      -3.1844      2.00000
     24      -3.1546      2.00000
     25      -3.0990      2.00000
     26      -3.0990      2.00000
     27      -3.0521      2.00000
     28      -3.0417      2.00000
     29      -2.9670      2.00000
     30      -2.9215      2.00000
     31      -2.9214      2.00000
     32      -2.9208      2.00000
     33      -2.8789      2.00000
     34      -2.8789      2.00000
     35      -2.8727      2.00000
     36      -2.8396      2.00000
     37      -2.7100      2.00000
     38      -2.7073      2.00000
     39      -2.6771      2.00000
     40      -2.6770      2.00000
     41      -2.5465      2.00000
     42      -2.4964      2.00000
     43      -2.4720      2.00000
     44      -2.4719      2.00000
     45      -2.1509      2.00000
     46      -2.1109      2.00000
     47      -2.1017      2.00000
     48      -2.1016      2.00000
     49      -2.0035      2.00000
     50      -2.0035      2.00000
     51      -2.0020      2.00000
     52      -1.8760      2.00000
     53      -1.8404      2.00000
     54      -1.7946      2.00000
     55      -1.7945      2.00000
     56      -1.7706      2.00000
     57      -1.7496      2.00000
     58      -1.7495      2.00000
     59      -1.7488      2.00000
     60      -1.6991      2.00000
     61      -1.4927      2.00000
     62      -1.3418      2.00000
     63      -1.2068      2.00000
     64      -0.4396      2.00000
     65      -0.4396      1.95994
     66      -0.3220      1.90027
     67      -0.3219      1.84603
     68      -0.2513      0.69909
     69      -0.0112      0.00000
     70      -0.0110      0.00000
     71       0.7726      0.00000
     72       0.8734      0.00000
     73       3.1322      0.00000
     74       3.1324      0.00000
     75       3.2019      0.00000
     76       3.2222      0.00000
     77       4.7666      0.00000
     78       4.8051      0.00000
     79       4.8051      0.00000
     80       4.9794      0.00000


--------------------------------------------------------------------------------------------------------


 soft charge-density along one line, spin component           1
         0         1         2         3         4         5         6         7         8         9
 total charge-density along one line
 
 pseudopotential strength for first ion, spin component:           1
 -9.070   0.000   0.000   0.000   0.000   0.931   0.000   0.000
  0.000  -9.046   0.000   0.000   0.000   0.000   0.919   0.000
  0.000   0.000  -9.029   0.000   0.000   0.000   0.000   0.912
  0.000   0.000   0.000  -9.046   0.000   0.000   0.000   0.000
  0.000   0.000   0.000   0.000  -9.048   0.000   0.000   0.000
  0.931   0.000   0.000   0.000   0.000   1.147   0.000   0.000
  0.000   0.919   0.000   0.000   0.000   0.000   1.152   0.000
  0.000   0.000   0.912   0.000   0.000   0.000   0.000   1.156
  0.000   0.000   0.000   0.919   0.000   0.000   0.000   0.000
  0.000   0.000   0.000   0.000   0.921   0.000   0.000   0.000
  0.000   0.000  -0.005   0.000   0.000   0.000   0.000   0.002
  0.000   0.000   0.000   0.000   0.000   0.000   0.000   0.000
  0.000  -0.013   0.000   0.000   0.000   0.000   0.008   0.000
  0.000   0.000  -0.015   0.000   0.000   0.000   0.000   0.008
  0.000   0.000   0.000  -0.013   0.000   0.000   0.000   0.000
  0.000   0.007   0.000   0.000   0.000   0.000  -0.004   0.000
  0.000   0.000   0.009   0.000   0.000   0.000   0.000  -0.004
  0.000   0.000   0.000   0.007   0.000   0.000   0.000   0.000
 total augmentation occupancy for first ion, spin component:           1
  1.916   0.000   0.000   0.000   0.000   0.003   0.000   0.000   0.000   0.000   0.000   0.000   0.000   0.000   0.000   0.000
  0.000   1.921   0.000   0.000   0.000   0.000  -0.034   0.000   0.000   0.000   0.000   0.000   0.015   0.000   0.000  -0.008
  0.000   0.000   1.932   0.000   0.000   0.000   0.000  -0.059   0.000   0.000   0.020   0.031   0.000   0.015   0.000   0.000
  0.000   0.000   0.000   1.921   0.000   0.000   0.000   0.000  -0.034   0.000   0.000   0.000   0.000   0.000   0.015   0.000
  0.000   0.000   0.000   0.000   1.920   0.000   0.000   0.000   0.000  -0.052   0.000   0.000   0.000   0.000   0.000   0.000
  0.003   0.000   0.000   0.000   0.000   0.060   0.000   0.000   0.000   0.000   0.000   0.000   0.000   0.000   0.000   0.000
  0.000  -0.034   0.000   0.000   0.000   0.000   0.046   0.000   0.000   0.000   0.000   0.000   0.044   0.000   0.000  -0.003
  0.000   0.000  -0.059   0.000   0.000   0.000   0.000   0.052   0.000   0.000  -0.061   0.009   0.000   0.038   0.000   0.000
  0.000   0.000   0.000  -0.034   0.000   0.000   0.000   0.000   0.046   0.000   0.000   0.000   0.000   0.000   0.044   0.000
  0.000   0.000   0.000   0.000  -0.052   0.000   0.000   0.000   0.000   0.055   0.000   0.000   0.000   0.000   0.000   0.000
  0.000   0.000   0.020   0.000   0.000   0.000   0.000  -0.061   0.000   0.000   1.226  -0.277   0.000   0.094   0.000   0.000
  0.000   0.000   0.031   0.000   0.000   0.000   0.000   0.009   0.000   0.000  -0.277   0.108   0.000  -0.054   0.000   0.000
  0.000   0.015   0.000   0.000   0.000   0.000   0.044   0.000   0.000   0.000   0.000   0.000   0.150   0.000   0.000  -0.010
  0.000   0.000   0.015   0.000   0.000   0.000   0.000   0.038   0.000   0.000   0.094  -0.054   0.000   0.088   0.000   0.000
  0.000   0.000   0.000   0.015   0.000   0.000   0.000   0.000   0.044   0.000   0.000   0.000   0.000   0.000   0.150   0.000
  0.000  -0.008   0.000   0.000   0.000   0.000  -0.003   0.000   0.000   0.000   0.000   0.000  -0.010   0.000   0.000   0.001
  0.000   0.000  -0.009   0.000   0.000   0.000   0.000  -0.002   0.000   0.000  -0.017   0.007   0.000  -0.007   0.000   0.000
  0.000   0.000   0.000  -0.008   0.000   0.000   0.000   0.000  -0.003   0.000   0.000   0.000   0.000   0.000  -0.010   0.000


------------------------ aborting loop because EDIFF is reached ----------------------------------------


    CHARGE:  cpu time    1.31: real time    1.31
    FORLOC:  cpu time    0.05: real time    0.05
    FORNL :  cpu time   23.01: real time   23.00
    STRESS:  cpu time   62.68: real time   62.69
    FORCOR:  cpu time    0.47: real time    0.47
    FORHAR:  cpu time    0.15: real time    0.15
    MIXING:  cpu time    0.02: real time    0.02

  FORCE on cell =-STRESS in cart. coord.  units (eV):
  Direction    XX          YY          ZZ          XY          YZ          ZX
  --------------------------------------------------------------------------------------
  Alpha Z   667.73723   667.73723   667.73723
  Ewald   44891.95916 44891.95916-53565.98944     0.00000     0.00000     0.00000
  Hartree 49464.65961 49464.65961-46928.24287     0.00000     0.00000     0.00000
  E(xc)    -750.74855  -750.74855  -751.71602     0.00000     0.00000     0.00000
  Local  -95446.36425-95446.36425 99402.91137     0.00000     0.00000     0.00000
  n-local  -438.86873  -451.29215  -446.08626     3.76952     0.00000     0.00000
  augment   674.83619   674.83619   676.19993    -0.00006    -0.00006    -0.00007
  Kinetic   954.63990   926.48089   944.22681    -3.72808     0.00000     0.00000
  Fock        0.00000     0.00000     0.00000     0.00000     0.00000     0.00000
  -------------------------------------------------------------------------------------
  Total      -2.44066    -2.44066    -0.95924     0.00000     0.00000     0.00000
  in kB     -14.19244   -14.19244    -5.57800     0.00000     0.00000     0.00000
  external pressure =      -11.32 kB  Pullay stress =        0.00 kB


 VOLUME and BASIS-vectors are now :
 -----------------------------------------------------------------------------
  energy-cutoff  :      415.00
  volume of cell :      275.52
      direct lattice vectors                 reciprocal lattice vectors
     3.631354857  0.000000000  0.000000000     0.275379311  0.000000000  0.000000000
     0.000000000  3.631354857  0.000000000     0.000000000  0.275379311  0.000000000
     0.000000000  0.000000000 20.894064570     0.000000000  0.000000000  0.047860482

  length of vectors
     3.631354857  3.631354857 20.894064570     0.275379311  0.275379311  0.047860482


 FORCES acting on ions
    electron-ion (+dipol)            ewald-force                    non-local-force                 convergence-correction
 -----------------------------------------------------------------------------------------------
   -.556E-13 -.129E-13 0.393E+04   0.130E-13 0.125E-13 -.393E+04   0.207E-24 -.207E-24 -.264E+01   0.157E-13 0.758E-13 -.789E-02
   -.324E-13 -.188E-13 0.791E+03   -.184E-13 -.547E-14 -.791E+03   -.103E-24 0.207E-24 -.939E-03   0.282E-13 0.795E-14 -.314E-02
   -.383E-13 -.785E-14 -.238E+04   0.373E-13 0.282E-14 0.238E+04   0.000E+00 -.620E-24 0.726E+00   -.137E-13 -.950E-13 0.101E-01
   0.621E-12 -.314E-12 0.393E+04   0.602E-16 -.168E-14 -.393E+04   0.000E+00 0.000E+00 -.264E+01   0.994E-13 0.782E-13 -.789E-02
   0.661E-12 0.783E-12 0.791E+03   -.309E-13 -.181E-13 -.791E+03   -.207E-24 0.000E+00 -.939E-03   0.771E-13 0.232E-14 -.314E-02
   0.645E-12 0.752E-12 -.238E+04   0.231E-13 -.114E-13 0.238E+04   0.000E+00 -.620E-24 0.726E+00   0.723E-13 -.326E-13 0.101E-01
   0.626E-12 -.117E-13 0.238E+04   -.122E-13 0.136E-13 -.238E+04   0.000E+00 0.000E+00 -.726E+00   0.113E-12 0.990E-13 -.101E-01
   0.635E-12 -.171E-13 -.791E+03   -.366E-13 0.943E-14 0.791E+03   0.103E-24 0.000E+00 0.939E-03   0.127E-12 -.707E-13 0.304E-02
   0.655E-12 -.814E-14 -.393E+04   -.193E-14 0.876E-14 0.393E+04   -.103E-24 0.000E+00 0.264E+01   0.726E-13 -.615E-13 0.794E-02
   -.325E-13 0.538E-12 0.238E+04   -.260E-13 -.669E-15 -.238E+04   0.000E+00 0.000E+00 -.726E+00   0.249E-13 0.674E-13 -.101E-01
   -.243E-13 0.554E-12 -.791E+03   -.450E-13 -.450E-14 0.791E+03   0.000E+00 0.000E+00 0.939E-03   0.415E-13 -.451E-13 0.304E-02
   -.203E-14 0.155E-12 -.393E+04   -.114E-13 -.661E-14 0.393E+04   -.103E-24 0.000E+00 0.264E+01   -.289E-13 -.867E-14 0.794E-02
 -----------------------------------------------------------------------------------------------
   0.366E-11 0.239E-11 -.442E-02   -.109E-12 -.129E-14 0.000E+00   -.207E-24 -.124E-23 -.222E-14   0.629E-12 0.170E-13 -.228E-03
 
 
 POSITION                                       TOTAL-FORCE (eV/Angst)
 -----------------------------------------------------------------------------------
      0.00000      0.00000      0.02523         0.000000      0.000000      0.011791
      0.00000      0.00000      3.62973         0.000000      0.000000      0.010272
      0.00000      0.00000      7.27861         0.000000      0.000000     -0.009093
      1.81568      1.81568      0.02523         0.000000      0.000000      0.011791
      1.81568      1.81568      3.62973         0.000000      0.000000      0.010272
      1.81568      1.81568      7.27861         0.000000      0.000000     -0.009093
      1.81568      0.00000      1.79978         0.000000      0.000000      0.009093
      1.81568      0.00000      5.44866         0.000000      0.000000     -0.010272
      1.81568      0.00000      9.05316         0.000000      0.000000     -0.011791
      0.00000      1.81568      1.79978         0.000000      0.000000      0.009093
      0.00000      1.81568      5.44866         0.000000      0.000000     -0.010272
      0.00000      1.81568      9.05316         0.000000      0.000000     -0.011791
 -----------------------------------------------------------------------------------
    total drift:                                0.000000      0.000000     -0.004647


--------------------------------------------------------------------------------------------------------



  FREE ENERGIE OF THE ION-ELECTRON SYSTEM (eV)
  ---------------------------------------------------
  free  energy   TOTEN  =       -42.223734 eV

  energy  without entropy=      -42.223734  energy(sigma->0) =      -42.223734
 
 d Force = 0.2290435E-03[ 0.206E-03, 0.252E-03]  d Energy = 0.6458883E-04 0.164E-03
 d Force =-0.5563187E+02[-0.556E+02,-0.556E+02]  d Ewald  =-0.5563187E+02 0.431E-06


--------------------------------------------------------------------------------------------------------


    POTLOK:  cpu time    0.50: real time    0.50


--------------------------------------------------------------------------------------------------------




--------------------------------------------------------------------------------------------------------


    WAVPRE:  cpu time    0.10: real time    0.11
    FEWALD:  cpu time    0.00: real time    0.00
    ORTHCH:  cpu time    7.73: real time    7.73
     LOOP+:  cpu time  422.37: real time  422.42


----------------------------------------- Iteration   11(   1)  ---------------------------------------


    POTLOK:  cpu time    0.44: real time    0.44
    SETDIJ:  cpu time    0.06: real time    0.06
     EDDAV:  cpu time   53.26: real time   53.27
 BZINTS: Fermi energy: -0.231313;132.000000 electrons
         Band energy:-395.139255;  BLOECHL correction: -0.140602
       DOS:  cpu time    0.04: real time    0.04
    CHARGE:  cpu time    1.34: real time    1.34
    MIXING:  cpu time    0.02: real time    0.02
    --------------------------------------------
      LOOP:  cpu time   55.16: real time   55.16

 eigenvalue-minimisations  :  1600
 total energy-change (2. order) : 0.1116867E-03  (-0.7922859E-01)
 number of electron     131.9999589 magnetization 
 augmentation part       86.4577354 magnetization 

 Broyden mixing:
  rms(total) = 0.56904E-02    rms(broyden)= 0.56851E-02
  rms(prec ) = 0.61152E-02
  weight for this iteration     100.00

 Free energy of the ion-electron system (eV)
  ---------------------------------------------------
  alpha Z        PSCENC =       667.73722884
  Ewald energy   TEWEN  =     36329.32102774
  -1/2 Hartree   DENC   =    -52112.26845059
  -exchange  EXHF       =         0.00000000
  -V(xc)+E(xc)   XCENC  =       512.14023560
  PAW double counting   =     13121.74124478   -14857.41266329
  entropy T*S    EENTRO =         0.00000000
  eigenvalues    EBANDS =      -395.13925490
  atomic energy  EATOM  =     16691.65700843
  ---------------------------------------------------
  free energy    TOTEN  =       -42.22362339 eV

  energy without entropy =      -42.22362339  energy(sigma->0) =      -42.22362339


--------------------------------------------------------------------------------------------------------




----------------------------------------- Iteration   11(   2)  ---------------------------------------


    POTLOK:  cpu time    0.44: real time    0.44
    SETDIJ:  cpu time    0.06: real time    0.06
     EDDAV:  cpu time   56.30: real time   56.31
 BZINTS: Fermi energy: -0.231364;132.000000 electrons
         Band energy:-395.231242;  BLOECHL correction: -0.140818
       DOS:  cpu time    0.04: real time    0.04
    CHARGE:  cpu time    1.32: real time    1.32
    MIXING:  cpu time    0.02: real time    0.02
    --------------------------------------------
      LOOP:  cpu time   58.17: real time   58.18

 eigenvalue-minimisations  :  1720
 total energy-change (2. order) :-0.2126475E-03  (-0.2143581E-03)
 number of electron     131.9999589 magnetization 
 augmentation part       86.4605441 magnetization 

 Broyden mixing:
  rms(total) = 0.61028E-02    rms(broyden)= 0.61021E-02
  rms(prec ) = 0.67039E-02
  weight for this iteration     100.00

 eigenvalues of (default mixing * dielectric matrix)
  average eigenvalue GAMMA=   0.4473
  0.4473

 Free energy of the ion-electron system (eV)
  ---------------------------------------------------
  alpha Z        PSCENC =       667.73722884
  Ewald energy   TEWEN  =     36329.32102774
  -1/2 Hartree   DENC   =    -52112.19785586
  -exchange  EXHF       =         0.00000000
  -V(xc)+E(xc)   XCENC  =       512.13204869
  PAW double counting   =     13122.06454690   -14857.70659827
  entropy T*S    EENTRO =         0.00000000
  eigenvalues    EBANDS =      -395.23124250
  atomic energy  EATOM  =     16691.65700843
  ---------------------------------------------------
  free energy    TOTEN  =       -42.22383604 eV

  energy without entropy =      -42.22383604  energy(sigma->0) =      -42.22383604


--------------------------------------------------------------------------------------------------------




----------------------------------------- Iteration   11(   3)  ---------------------------------------


    POTLOK:  cpu time    0.44: real time    0.44
    SETDIJ:  cpu time    0.06: real time    0.06
     EDDAV:  cpu time   54.71: real time   54.71
 BZINTS: Fermi energy: -0.232471;132.000000 electrons
         Band energy:-395.369401;  BLOECHL correction: -0.140638
       DOS:  cpu time    0.04: real time    0.04
    CHARGE:  cpu time    1.33: real time    1.33
    MIXING:  cpu time    0.02: real time    0.02
    --------------------------------------------
      LOOP:  cpu time   56.60: real time   56.60

 eigenvalue-minimisations  :  1656
 total energy-change (2. order) : 0.1365918E-03  (-0.3888418E-04)
 number of electron     131.9999589 magnetization 
 augmentation part       86.4617912 magnetization 

 Broyden mixing:
  rms(total) = 0.31439E-02    rms(broyden)= 0.31437E-02
  rms(prec ) = 0.33827E-02
  weight for this iteration     100.00

 eigenvalues of (default mixing * dielectric matrix)
  average eigenvalue GAMMA=   1.3281
  0.4253  2.2309

 Free energy of the ion-electron system (eV)
  ---------------------------------------------------
  alpha Z        PSCENC =       667.73722884
  Ewald energy   TEWEN  =     36329.32102774
  -1/2 Hartree   DENC   =    -52112.04925011
  -exchange  EXHF       =         0.00000000
  -V(xc)+E(xc)   XCENC  =       512.13229996
  PAW double counting   =     13122.23787916   -14857.89049206
  entropy T*S    EENTRO =         0.00000000
  eigenvalues    EBANDS =      -395.36940141
  atomic energy  EATOM  =     16691.65700843
  ---------------------------------------------------
  free energy    TOTEN  =       -42.22369944 eV

  energy without entropy =      -42.22369944  energy(sigma->0) =      -42.22369944


--------------------------------------------------------------------------------------------------------




----------------------------------------- Iteration   11(   4)  ---------------------------------------


    POTLOK:  cpu time    0.44: real time    0.44
    SETDIJ:  cpu time    0.06: real time    0.06
     EDDAV:  cpu time   61.62: real time   61.62
 BZINTS: Fermi energy: -0.230574;132.000000 electrons
         Band energy:-395.042668;  BLOECHL correction: -0.140771
       DOS:  cpu time    0.04: real time    0.04
    CHARGE:  cpu time    1.32: real time    1.32
    MIXING:  cpu time    0.02: real time    0.02
    --------------------------------------------
      LOOP:  cpu time   63.50: real time   63.51

 eigenvalue-minimisations  :  1928
 total energy-change (2. order) :-0.8189439E-04  (-0.1015660E-04)
 number of electron     131.9999589 magnetization 
 augmentation part       86.4583270 magnetization 

 Broyden mixing:
  rms(total) = 0.11135E-02    rms(broyden)= 0.11134E-02
  rms(prec ) = 0.13175E-02
  weight for this iteration     100.00

 eigenvalues of (default mixing * dielectric matrix)
  average eigenvalue GAMMA=   1.2380
  2.6722  0.6405  0.4013

 Free energy of the ion-electron system (eV)
  ---------------------------------------------------
  alpha Z        PSCENC =       667.73722884
  Ewald energy   TEWEN  =     36329.32102774
  -1/2 Hartree   DENC   =    -52112.29118780
  -exchange  EXHF       =         0.00000000
  -V(xc)+E(xc)   XCENC  =       512.13619561
  PAW double counting   =     13123.08410718   -14858.82549334
  entropy T*S    EENTRO =         0.00000000
  eigenvalues    EBANDS =      -395.04266801
  atomic energy  EATOM  =     16691.65700843
  ---------------------------------------------------
  free energy    TOTEN  =       -42.22378134 eV

  energy without entropy =      -42.22378134  energy(sigma->0) =      -42.22378134


--------------------------------------------------------------------------------------------------------




----------------------------------------- Iteration   11(   5)  ---------------------------------------


    POTLOK:  cpu time    0.44: real time    0.44
    SETDIJ:  cpu time    0.06: real time    0.06
     EDDAV:  cpu time   54.10: real time   54.11
 BZINTS: Fermi energy: -0.231588;132.000000 electrons
         Band energy:-395.211280;  BLOECHL correction: -0.140721
       DOS:  cpu time    0.04: real time    0.04
    CHARGE:  cpu time    1.34: real time    1.34
    MIXING:  cpu time    0.02: real time    0.02
    --------------------------------------------
      LOOP:  cpu time   56.00: real time   56.01

 eigenvalue-minimisations  :  1632
 total energy-change (2. order) : 0.4034820E-04  (-0.4377980E-05)
 number of electron     131.9999589 magnetization 
 augmentation part       86.4599347 magnetization 

 Broyden mixing:
  rms(total) = 0.88884E-03    rms(broyden)= 0.88877E-03
  rms(prec ) = 0.95970E-03
  weight for this iteration     100.00

 eigenvalues of (default mixing * dielectric matrix)
  average eigenvalue GAMMA=   1.0168
  2.6104  0.5436  0.5436  0.3694

 Free energy of the ion-electron system (eV)
  ---------------------------------------------------
  alpha Z        PSCENC =       667.73722884
  Ewald energy   TEWEN  =     36329.32102774
  -1/2 Hartree   DENC   =    -52112.13998695
  -exchange  EXHF       =         0.00000000
  -V(xc)+E(xc)   XCENC  =       512.13249166
  PAW double counting   =     13123.13396655   -14858.85419691
  entropy T*S    EENTRO =         0.00000000
  eigenvalues    EBANDS =      -395.21128035
  atomic energy  EATOM  =     16691.65700843
  ---------------------------------------------------
  free energy    TOTEN  =       -42.22374099 eV

  energy without entropy =      -42.22374099  energy(sigma->0) =      -42.22374099


--------------------------------------------------------------------------------------------------------




----------------------------------------- Iteration   11(   6)  ---------------------------------------


    POTLOK:  cpu time    0.44: real time    0.44
    SETDIJ:  cpu time    0.06: real time    0.06
     EDDAV:  cpu time   53.68: real time   53.68
 BZINTS: Fermi energy: -0.231687;132.000000 electrons
         Band energy:-395.233988;  BLOECHL correction: -0.140730
       DOS:  cpu time    0.04: real time    0.04
    CHARGE:  cpu time    1.34: real time    1.34
    MIXING:  cpu time    0.02: real time    0.02
    --------------------------------------------
      LOOP:  cpu time   55.58: real time   55.58

 eigenvalue-minimisations  :  1616
 total energy-change (2. order) : 0.2365639E-05  (-0.8490977E-06)
 number of electron     131.9999589 magnetization 
 augmentation part       86.4603440 magnetization 

 Broyden mixing:
  rms(total) = 0.53871E-03    rms(broyden)= 0.53870E-03
  rms(prec ) = 0.57559E-03
  weight for this iteration     100.00

 eigenvalues of (default mixing * dielectric matrix)
  average eigenvalue GAMMA=   0.9753
  2.3782  0.3811  0.3811  0.8680  0.8680

 Free energy of the ion-electron system (eV)
  ---------------------------------------------------
  alpha Z        PSCENC =       667.73722884
  Ewald energy   TEWEN  =     36329.32102774
  -1/2 Hartree   DENC   =    -52112.12258732
  -exchange  EXHF       =         0.00000000
  -V(xc)+E(xc)   XCENC  =       512.13206618
  PAW double counting   =     13123.09840462   -14858.81289929
  entropy T*S    EENTRO =         0.00000000
  eigenvalues    EBANDS =      -395.23398783
  atomic energy  EATOM  =     16691.65700843
  ---------------------------------------------------
  free energy    TOTEN  =       -42.22373862 eV

  energy without entropy =      -42.22373862  energy(sigma->0) =      -42.22373862


--------------------------------------------------------------------------------------------------------




----------------------------------------- Iteration   11(   7)  ---------------------------------------


    POTLOK:  cpu time    0.44: real time    0.44
    SETDIJ:  cpu time    0.06: real time    0.06
     EDDAV:  cpu time   36.78: real time   36.78
 BZINTS: Fermi energy: -0.231812;132.000000 electrons
         Band energy:-395.255514;  BLOECHL correction: -0.140726
       DOS:  cpu time    0.04: real time    0.04
    CHARGE:  cpu time    1.32: real time    1.33
    MIXING:  cpu time    0.02: real time    0.02
    --------------------------------------------
      LOOP:  cpu time   38.67: real time   38.67

 eigenvalue-minimisations  :   944
 total energy-change (2. order) : 0.5292481E-05  (-0.1400579E-06)
 number of electron     131.9999589 magnetization 
 augmentation part       86.4605852 magnetization 

 Broyden mixing:
  rms(total) = 0.19802E-03    rms(broyden)= 0.19801E-03
  rms(prec ) = 0.21594E-03
  weight for this iteration     100.00

 eigenvalues of (default mixing * dielectric matrix)
  average eigenvalue GAMMA=   1.2885
  2.5867  2.5867  0.9011  0.9011  0.3837  0.3716

 Free energy of the ion-electron system (eV)
  ---------------------------------------------------
  alpha Z        PSCENC =       667.73722884
  Ewald energy   TEWEN  =     36329.32102774
  -1/2 Hartree   DENC   =    -52112.10473642
  -exchange  EXHF       =         0.00000000
  -V(xc)+E(xc)   XCENC  =       512.13185346
  PAW double counting   =     13123.05882517   -14858.76942661
  entropy T*S    EENTRO =         0.00000000
  eigenvalues    EBANDS =      -395.25551394
  atomic energy  EATOM  =     16691.65700843
  ---------------------------------------------------
  free energy    TOTEN  =       -42.22373333 eV

  energy without entropy =      -42.22373333  energy(sigma->0) =      -42.22373333


--------------------------------------------------------------------------------------------------------




----------------------------------------- Iteration   11(   8)  ---------------------------------------


    POTLOK:  cpu time    0.44: real time    0.44
    SETDIJ:  cpu time    0.06: real time    0.06
     EDDAV:  cpu time   36.79: real time   36.79
 BZINTS: Fermi energy: -0.231833;132.000000 electrons
         Band energy:-395.254968;  BLOECHL correction: -0.140727
       DOS:  cpu time    0.04: real time    0.04
    CHARGE:  cpu time    1.36: real time    1.36
    MIXING:  cpu time    0.02: real time    0.02
    --------------------------------------------
      LOOP:  cpu time   38.72: real time   38.72

 eigenvalue-minimisations  :   944
 total energy-change (2. order) :-0.2395493E-05  (-0.4203828E-07)
 number of electron     131.9999589 magnetization 
 augmentation part       86.4604136 magnetization 

 Broyden mixing:
  rms(total) = 0.90028E-04    rms(broyden)= 0.90019E-04
  rms(prec ) = 0.10206E-03
  weight for this iteration     100.00

 eigenvalues of (default mixing * dielectric matrix)
  average eigenvalue GAMMA=   1.1953
  2.6573  2.0638  1.2320  0.8303  0.8303  0.3911  0.3626

 Free energy of the ion-electron system (eV)
  ---------------------------------------------------
  alpha Z        PSCENC =       667.73722884
  Ewald energy   TEWEN  =     36329.32102774
  -1/2 Hartree   DENC   =    -52112.10021675
  -exchange  EXHF       =         0.00000000
  -V(xc)+E(xc)   XCENC  =       512.13210397
  PAW double counting   =     13123.06553008   -14858.78145004
  entropy T*S    EENTRO =         0.00000000
  eigenvalues    EBANDS =      -395.25496799
  atomic energy  EATOM  =     16691.65700843
  ---------------------------------------------------
  free energy    TOTEN  =       -42.22373573 eV

  energy without entropy =      -42.22373573  energy(sigma->0) =      -42.22373573


--------------------------------------------------------------------------------------------------------




----------------------------------------- Iteration   11(   9)  ---------------------------------------


    POTLOK:  cpu time    0.44: real time    0.44
    SETDIJ:  cpu time    0.06: real time    0.06
     EDDAV:  cpu time   36.21: real time   36.21
 BZINTS: Fermi energy: -0.231942;132.000000 electrons
         Band energy:-395.272376;  BLOECHL correction: -0.140726
       DOS:  cpu time    0.04: real time    0.04
    CHARGE:  cpu time    1.34: real time    1.34
    MIXING:  cpu time    0.02: real time    0.02
    --------------------------------------------
      LOOP:  cpu time   38.12: real time   38.12

 eigenvalue-minimisations  :   920
 total energy-change (2. order) : 0.1479428E-05  (-0.3954840E-07)
 number of electron     131.9999589 magnetization 
 augmentation part       86.4605980 magnetization 

 Broyden mixing:
  rms(total) = 0.39085E-04    rms(broyden)= 0.39078E-04
  rms(prec ) = 0.45836E-04
  weight for this iteration     100.00

 eigenvalues of (default mixing * dielectric matrix)
  average eigenvalue GAMMA=   1.1681
  2.6485  1.7412  1.7412  0.3633  0.3909  0.8180  0.8180  0.8240

 Free energy of the ion-electron system (eV)
  ---------------------------------------------------
  alpha Z        PSCENC =       667.73722884
  Ewald energy   TEWEN  =     36329.32102774
  -1/2 Hartree   DENC   =    -52112.08424849
  -exchange  EXHF       =         0.00000000
  -V(xc)+E(xc)   XCENC  =       512.13175753
  PAW double counting   =     13123.07080545   -14858.78493809
  entropy T*S    EENTRO =         0.00000000
  eigenvalues    EBANDS =      -395.27237565
  atomic energy  EATOM  =     16691.65700843
  ---------------------------------------------------
  free energy    TOTEN  =       -42.22373425 eV

  energy without entropy =      -42.22373425  energy(sigma->0) =      -42.22373425


--------------------------------------------------------------------------------------------------------




----------------------------------------- Iteration   11(  10)  ---------------------------------------


    POTLOK:  cpu time    0.44: real time    0.44
    SETDIJ:  cpu time    0.06: real time    0.06
     EDDAV:  cpu time   35.91: real time   35.90
 BZINTS: Fermi energy: -0.231943;132.000000 electrons
         Band energy:-395.270818;  BLOECHL correction: -0.140726
       DOS:  cpu time    0.04: real time    0.05
    --------------------------------------------
      LOOP:  cpu time   36.45: real time   36.45

 eigenvalue-minimisations  :   904
 total energy-change (2. order) :-0.7879280E-06  (-0.7036813E-08)
 number of electron     131.9999589 magnetization 
 augmentation part       86.4605980 magnetization 

 Free energy of the ion-electron system (eV)
  ---------------------------------------------------
  alpha Z        PSCENC =       667.73722884
  Ewald energy   TEWEN  =     36329.32102774
  -1/2 Hartree   DENC   =    -52112.08390929
  -exchange  EXHF       =         0.00000000
  -V(xc)+E(xc)   XCENC  =       512.13191512
  PAW double counting   =     13123.07729268   -14858.79348067
  entropy T*S    EENTRO =         0.00000000
  eigenvalues    EBANDS =      -395.27081789
  atomic energy  EATOM  =     16691.65700843
  ---------------------------------------------------
  free energy    TOTEN  =       -42.22373504 eV

  energy without entropy =      -42.22373504  energy(sigma->0) =      -42.22373504


--------------------------------------------------------------------------------------------------------




 average (electrostatic) potential at core
  the test charge radii are     1.0053
  (the norm of the test charge is              1.0000)
       1 -43.4852       2 -43.7897       3 -43.8509       4 -43.4852       5 -43.7897
       6 -43.8509       7 -43.8509       8 -43.7897       9 -43.4853      10 -43.8509
      11 -43.7897      12 -43.4853
 
 
 
 E-fermi :  -0.2319     XC(G=0):  -7.5005     alpha+bet : -4.9539


 k-point   1 :       0.0000    0.0000    0.0000
  band No.  band energies     occupation 
      1      -9.0814      2.00000
      2      -8.3052      2.00000
      3      -7.0236      2.00000
      4      -5.6089      2.00000
      5      -4.8992      2.00000
      6      -4.8628      2.00000
      7      -4.8046      2.00000
      8      -4.8046      2.00000
      9      -4.4854      2.00000
     10      -4.4854      2.00000
     11      -4.4069      2.00000
     12      -4.3941      2.00000
     13      -4.3941      2.00000
     14      -4.2143      2.00000
     15      -4.1366      2.00000
     16      -4.1366      2.00000
     17      -3.9526      2.00000
     18      -3.9525      2.00000
     19      -3.8638      2.00000
     20      -3.6642      2.00000
     21      -3.6642      2.00000
     22      -3.4738      2.00000
     23      -3.2215      2.00000
     24      -3.1243      2.00000
     25      -3.0480      2.00000
     26      -3.0480      2.00000
     27      -3.0052      2.00000
     28      -3.0052      2.00000
     29      -2.8419      2.00000
     30      -2.8419      2.00000
     31      -2.6240      2.00000
     32      -2.5840      2.00000
     33      -2.4896      2.00000
     34      -2.4896      2.00000
     35      -2.3567      2.00000
     36      -2.3196      2.00000
     37      -2.3082      2.00000
     38      -2.3082      2.00000
     39      -2.2761      2.00000
     40      -2.1994      2.00000
     41      -2.1974      2.00000
     42      -2.1974      2.00000
     43      -2.0709      2.00000
     44      -2.0709      2.00000
     45      -2.0332      2.00000
     46      -1.9328      2.00000
     47      -1.9328      2.00000
     48      -1.8460      2.00000
     49      -1.7897      2.00000
     50      -1.7897      2.00000
     51      -1.7663      2.00000
     52      -1.7662      2.00000
     53      -1.7536      2.00000
     54      -1.7536      2.00000
     55      -1.6757      2.00000
     56      -1.6756      2.00000
     57      -1.6515      2.00000
     58      -1.6463      2.00000
     59      -1.6291      2.00000
     60      -1.6291      2.00000
     61      -1.6055      2.00000
     62      -1.5993      2.00000
     63      -1.5993      2.00000
     64      -1.2994      2.00000
     65      -1.2993      2.00000
     66       0.0591      0.00000
     67       1.1338      0.00000
     68       1.9315      0.00000
     69       1.9315      0.00000
     70       3.1785      0.00000
     71       3.1785      0.00000
     72       4.0375      0.00000
     73       4.6215      0.00000
     74       4.9264      0.00000
     75       4.9264      0.00000
     76       6.6203      0.00000
     77       6.9924      0.00000
     78       6.9924      0.00000
     79       7.0359      0.00000
     80       7.0359      0.00000

 k-point   2 :       0.1429    0.0000    0.0000
  band No.  band energies     occupation 
      1      -8.8389      2.00000
      2      -8.0712      2.00000
      3      -6.8076      2.00000
      4      -5.4247      2.00000
      5      -4.8020      2.00000
      6      -4.7512      2.00000
      7      -4.7412      2.00000
      8      -4.7008      2.00000
      9      -4.4529      2.00000
     10      -4.4066      2.00000
     11      -4.3417      2.00000
     12      -4.3340      2.00000
     13      -4.3237      2.00000
     14      -4.1597      2.00000
     15      -4.1213      2.00000
     16      -4.0892      2.00000
     17      -3.9223      2.00000
     18      -3.8763      2.00000
     19      -3.8275      2.00000
     20      -3.6713      2.00000
     21      -3.6439      2.00000
     22      -3.4629      2.00000
     23      -3.2392      2.00000
     24      -3.0907      2.00000
     25      -3.0688      2.00000
     26      -3.0410      2.00000
     27      -3.0363      2.00000
     28      -3.0093      2.00000
     29      -2.9040      2.00000
     30      -2.8971      2.00000
     31      -2.8472      2.00000
     32      -2.5827      2.00000
     33      -2.5007      2.00000
     34      -2.4487      2.00000
     35      -2.4358      2.00000
     36      -2.4116      2.00000
     37      -2.4103      2.00000
     38      -2.3352      2.00000
     39      -2.3096      2.00000
     40      -2.2629      2.00000
     41      -2.2146      2.00000
     42      -2.1880      2.00000
     43      -2.0898      2.00000
     44      -2.0820      2.00000
     45      -2.0622      2.00000
     46      -2.0348      2.00000
     47      -1.9910      2.00000
     48      -1.9662      2.00000
     49      -1.8849      2.00000
     50      -1.8796      2.00000
     51      -1.8652      2.00000
     52      -1.8360      2.00000
     53      -1.8030      2.00000
     54      -1.7938      2.00000
     55      -1.7902      2.00000
     56      -1.7625      2.00000
     57      -1.7493      2.00000
     58      -1.7283      2.00000
     59      -1.7039      2.00000
     60      -1.6973      2.00000
     61      -1.6790      2.00000
     62      -1.6329      2.00000
     63      -1.4538      2.00000
     64      -1.4327      2.00000
     65      -1.0722      2.00000
     66       0.4838     -0.01212
     67       0.6244      0.00000
     68       1.6269      0.00000
     69       1.7139      0.00000
     70       2.4642      0.00000
     71       3.1744      0.00000
     72       3.6182      0.00000
     73       4.2821      0.00000
     74       4.8415      0.00000
     75       4.8889      0.00000
     76       5.2978      0.00000
     77       6.7427      0.00000
     78       6.8541      0.00000
     79       7.1373      0.00000
     80       7.3179      0.00000

 k-point   3 :       0.2857    0.0000    0.0000
  band No.  band energies     occupation 
      1      -8.1291      2.00000
      2      -7.3909      2.00000
      3      -6.1938      2.00000
      4      -4.9627      2.00000
      5      -4.9320      2.00000
      6      -4.5573      2.00000
      7      -4.4263      2.00000
      8      -4.3993      2.00000
      9      -4.3620      2.00000
     10      -4.2149      2.00000
     11      -4.1640      2.00000
     12      -4.1439      2.00000
     13      -4.1174      2.00000
     14      -4.0861      2.00000
     15      -4.0260      2.00000
     16      -3.9969      2.00000
     17      -3.9574      2.00000
     18      -3.7310      2.00000
     19      -3.6908      2.00000
     20      -3.5981      2.00000
     21      -3.5355      2.00000
     22      -3.4765      2.00000
     23      -3.3858      2.00000
     24      -3.2320      2.00000
     25      -3.1672      2.00000
     26      -3.1645      2.00000
     27      -3.0477      2.00000
     28      -2.9592      2.00000
     29      -2.9179      2.00000
     30      -2.9144      2.00000
     31      -2.9118      2.00000
     32      -2.8124      2.00000
     33      -2.8059      2.00000
     34      -2.7393      2.00000
     35      -2.5897      2.00000
     36      -2.5885      2.00000
     37      -2.5149      2.00000
     38      -2.4552      2.00000
     39      -2.4338      2.00000
     40      -2.3591      2.00000
     41      -2.3087      2.00000
     42      -2.2744      2.00000
     43      -2.1942      2.00000
     44      -2.1766      2.00000
     45      -2.1635      2.00000
     46      -2.1318      2.00000
     47      -2.1309      2.00000
     48      -2.1078      2.00000
     49      -2.0892      2.00000
     50      -2.0816      2.00000
     51      -2.0156      2.00000
     52      -1.9806      2.00000
     53      -1.9707      2.00000
     54      -1.9669      2.00000
     55      -1.9266      2.00000
     56      -1.9209      2.00000
     57      -1.8751      2.00000
     58      -1.8729      2.00000
     59      -1.7842      2.00000
     60      -1.7477      2.00000
     61      -1.6953      2.00000
     62      -1.6419      2.00000
     63      -1.6120      2.00000
     64      -1.3429      2.00000
     65      -1.1708      2.00000
     66      -0.2477      0.80243
     67      -0.2175      0.64197
     68       0.9568      0.00000
     69       1.4519      0.00000
     70       2.4973      0.00000
     71       2.7701      0.00000
     72       3.7400      0.00000
     73       4.3373      0.00000
     74       4.7593      0.00000
     75       5.0157      0.00000
     76       5.4955      0.00000
     77       6.3159      0.00000
     78       6.3396      0.00000
     79       7.4932      0.00000
     80       7.5559      0.00000

 k-point   4 :       0.4286    0.0000    0.0000
  band No.  band energies     occupation 
      1      -7.0250      2.00000
      2      -6.3518      2.00000
      3      -5.7653      2.00000
      4      -5.3201      2.00000
      5      -5.2161      2.00000
      6      -4.5095      2.00000
      7      -4.3670      2.00000
      8      -4.1360      2.00000
      9      -4.1089      2.00000
     10      -4.0880      2.00000
     11      -3.9344      2.00000
     12      -3.9158      2.00000
     13      -3.9156      2.00000
     14      -3.8466      2.00000
     15      -3.8106      2.00000
     16      -3.7735      2.00000
     17      -3.7385      2.00000
     18      -3.6422      2.00000
     19      -3.6146      2.00000
     20      -3.5883      2.00000
     21      -3.5726      2.00000
     22      -3.5121      2.00000
     23      -3.4767      2.00000
     24      -3.4256      2.00000
     25      -3.3476      2.00000
     26      -3.3415      2.00000
     27      -3.2879      2.00000
     28      -3.1906      2.00000
     29      -3.0750      2.00000
     30      -3.0165      2.00000
     31      -2.9696      2.00000
     32      -2.8759      2.00000
     33      -2.6909      2.00000
     34      -2.6896      2.00000
     35      -2.6283      2.00000
     36      -2.6074      2.00000
     37      -2.5633      2.00000
     38      -2.4969      2.00000
     39      -2.4641      2.00000
     40      -2.4633      2.00000
     41      -2.4442      2.00000
     42      -2.4279      2.00000
     43      -2.4218      2.00000
     44      -2.4200      2.00000
     45      -2.4081      2.00000
     46      -2.3242      2.00000
     47      -2.2937      2.00000
     48      -2.2757      2.00000
     49      -2.2636      2.00000
     50      -2.2575      2.00000
     51      -2.1717      2.00000
     52      -2.1697      2.00000
     53      -2.1437      2.00000
     54      -2.1214      2.00000
     55      -2.1206      2.00000
     56      -2.0618      2.00000
     57      -2.0521      2.00000
     58      -1.9129      2.00000
     59      -1.8356      2.00000
     60      -1.8053      2.00000
     61      -1.7991      2.00000
     62      -1.6514      2.00000
     63      -1.6508      2.00000
     64      -1.4139      2.00000
     65      -1.3992      2.00000
     66      -0.5991      2.10717
     67      -0.5787      2.07783
     68       0.6499      0.00000
     69       0.8964      0.00000
     70       2.3830      0.00000
     71       2.7469      0.00000
     72       4.2627      0.00000
     73       4.3664      0.00000
     74       5.4257      0.00000
     75       6.0433      0.00000
     76       6.2310      0.00000
     77       6.3553      0.00000
     78       6.5717      0.00000
     79       7.3983      0.00000
     80       7.8144      0.00000

 k-point   5 :       0.1429    0.1429    0.0000
  band No.  band energies     occupation 
      1      -8.6001      2.00000
      2      -7.8433      2.00000
      3      -6.6040      2.00000
      4      -5.2663      2.00000
      5      -4.6906      2.00000
      6      -4.6906      2.00000
      7      -4.6316      2.00000
      8      -4.6281      2.00000
      9      -4.3834      2.00000
     10      -4.3834      2.00000
     11      -4.2817      2.00000
     12      -4.2600      2.00000
     13      -4.2600      2.00000
     14      -4.1108      2.00000
     15      -4.1108      2.00000
     16      -4.1014      2.00000
     17      -3.8501      2.00000
     18      -3.8500      2.00000
     19      -3.7783      2.00000
     20      -3.6480      2.00000
     21      -3.6479      2.00000
     22      -3.4401      2.00000
     23      -3.2554      2.00000
     24      -3.0792      2.00000
     25      -3.0792      2.00000
     26      -3.0273      2.00000
     27      -3.0197      2.00000
     28      -2.9899      2.00000
     29      -2.9876      2.00000
     30      -2.9443      2.00000
     31      -2.8534      2.00000
     32      -2.7015      2.00000
     33      -2.6221      2.00000
     34      -2.5295      2.00000
     35      -2.5295      2.00000
     36      -2.4074      2.00000
     37      -2.3839      2.00000
     38      -2.3614      2.00000
     39      -2.2819      2.00000
     40      -2.2760      2.00000
     41      -2.2760      2.00000
     42      -2.2601      2.00000
     43      -2.2384      2.00000
     44      -2.2155      2.00000
     45      -2.0965      2.00000
     46      -2.0964      2.00000
     47      -2.0611      2.00000
     48      -2.0031      2.00000
     49      -1.9562      2.00000
     50      -1.9561      2.00000
     51      -1.9316      2.00000
     52      -1.9316      2.00000
     53      -1.8960      2.00000
     54      -1.8381      2.00000
     55      -1.8005      2.00000
     56      -1.8005      2.00000
     57      -1.7592      2.00000
     58      -1.7546      2.00000
     59      -1.7324      2.00000
     60      -1.7324      2.00000
     61      -1.6560      2.00000
     62      -1.6196      2.00000
     63      -1.5398      2.00000
     64      -1.5397      2.00000
     65      -0.7875      2.01750
     66       0.8305     -0.01386
     67       1.1070      0.00000
     68       1.1070      0.00000
     69       2.0498      0.00000
     70       2.0718      0.00000
     71       2.0718      0.00000
     72       3.4244      0.00000
     73       3.4244      0.00000
     74       4.5268      0.00000
     75       5.0597      0.00000
     76       5.1986      0.00000
     77       5.1986      0.00000
     78       7.0763      0.00000
     79       7.0763      0.00000
     80       7.0878      0.00000

 k-point   6 :       0.2857    0.1429    0.0000
  band No.  band energies     occupation 
      1      -7.9027      2.00000
      2      -7.1840      2.00000
      3      -6.0358      2.00000
      4      -4.8704      2.00000
      5      -4.8352      2.00000
      6      -4.5013      2.00000
      7      -4.3897      2.00000
      8      -4.3508      2.00000
      9      -4.3294      2.00000
     10      -4.2226      2.00000
     11      -4.2150      2.00000
     12      -4.1678      2.00000
     13      -4.1048      2.00000
     14      -4.0802      2.00000
     15      -4.0276      2.00000
     16      -3.9212      2.00000
     17      -3.8068      2.00000
     18      -3.7008      2.00000
     19      -3.6228      2.00000
     20      -3.5352      2.00000
     21      -3.4876      2.00000
     22      -3.4090      2.00000
     23      -3.3738      2.00000
     24      -3.1544      2.00000
     25      -3.1530      2.00000
     26      -3.1438      2.00000
     27      -3.0512      2.00000
     28      -2.9713      2.00000
     29      -2.9194      2.00000
     30      -2.9157      2.00000
     31      -2.9139      2.00000
     32      -2.9079      2.00000
     33      -2.8658      2.00000
     34      -2.7964      2.00000
     35      -2.7010      2.00000
     36      -2.5859      2.00000
     37      -2.5682      2.00000
     38      -2.5078      2.00000
     39      -2.4665      2.00000
     40      -2.4462      2.00000
     41      -2.3629      2.00000
     42      -2.3416      2.00000
     43      -2.3245      2.00000
     44      -2.2948      2.00000
     45      -2.2730      2.00000
     46      -2.2294      2.00000
     47      -2.1969      2.00000
     48      -2.1804      2.00000
     49      -2.1414      2.00000
     50      -2.1354      2.00000
     51      -2.0524      2.00000
     52      -1.9994      2.00000
     53      -1.9606      2.00000
     54      -1.9258      2.00000
     55      -1.8509      2.00000
     56      -1.8448      2.00000
     57      -1.8099      2.00000
     58      -1.8073      2.00000
     59      -1.7920      2.00000
     60      -1.6969      2.00000
     61      -1.6636      2.00000
     62      -1.6612      2.00000
     63      -1.6577      2.00000
     64      -1.3445      2.00000
     65      -0.7094      2.00692
     66      -0.0531      0.24860
     67       0.0228      0.10018
     68       1.1320      0.00000
     69       1.7038      0.00000
     70       2.1658      0.00000
     71       2.5625      0.00000
     72       2.9135      0.00000
     73       3.0976      0.00000
     74       4.4657      0.00000
     75       4.6268      0.00000
     76       5.2598      0.00000
     77       5.7027      0.00000
     78       6.1116      0.00000
     79       6.5947      0.00000
     80       7.2101      0.00000

 k-point   7 :       0.4286    0.1429    0.0000
  band No.  band energies     occupation 
      1      -6.8237      2.00000
      2      -6.1919      2.00000
      3      -5.6054      2.00000
      4      -5.2670      2.00000
      5      -5.1370      2.00000
      6      -4.6021      2.00000
      7      -4.4700      2.00000
      8      -4.2577      2.00000
      9      -4.0698      2.00000
     10      -4.0461      2.00000
     11      -4.0288      2.00000
     12      -4.0099      2.00000
     13      -3.8610      2.00000
     14      -3.8505      2.00000
     15      -3.7708      2.00000
     16      -3.7185      2.00000
     17      -3.6421      2.00000
     18      -3.5963      2.00000
     19      -3.5738      2.00000
     20      -3.4588      2.00000
     21      -3.3989      2.00000
     22      -3.3981      2.00000
     23      -3.3715      2.00000
     24      -3.3703      2.00000
     25      -3.3399      2.00000
     26      -3.2916      2.00000
     27      -3.2231      2.00000
     28      -3.0943      2.00000
     29      -3.0480      2.00000
     30      -3.0036      2.00000
     31      -2.9948      2.00000
     32      -2.9344      2.00000
     33      -2.7883      2.00000
     34      -2.7607      2.00000
     35      -2.6882      2.00000
     36      -2.6808      2.00000
     37      -2.6427      2.00000
     38      -2.6334      2.00000
     39      -2.6082      2.00000
     40      -2.5566      2.00000
     41      -2.5496      2.00000
     42      -2.5450      2.00000
     43      -2.4870      2.00000
     44      -2.3980      2.00000
     45      -2.3972      2.00000
     46      -2.3737      2.00000
     47      -2.3050      2.00000
     48      -2.1893      2.00000
     49      -2.1744      2.00000
     50      -2.1159      2.00000
     51      -2.1087      2.00000
     52      -2.1042      2.00000
     53      -2.0295      2.00000
     54      -1.9995      2.00000
     55      -1.9369      2.00000
     56      -1.9299      2.00000
     57      -1.9067      2.00000
     58      -1.9020      2.00000
     59      -1.8020      2.00000
     60      -1.7683      2.00000
     61      -1.7317      2.00000
     62      -1.7050      2.00000
     63      -1.6399      2.00000
     64      -1.4334      2.00000
     65      -1.3222      2.03582
     66      -0.5604      2.03405
     67      -0.5501      1.95230
     68       0.7131      0.00000
     69       1.0133      0.00000
     70       2.4219      0.00000
     71       2.9172      0.00000
     72       3.4621      0.00000
     73       4.4776      0.00000
     74       4.5008      0.00000
     75       4.5934      0.00000
     76       5.2442      0.00000
     77       5.8286      0.00000
     78       6.1151      0.00000
     79       6.2868      0.00000
     80       6.4727      0.00000

 k-point   8 :       0.2857    0.2857    0.0000
  band No.  band energies     occupation 
      1      -7.2476      2.00000
      2      -6.6002      2.00000
      3      -5.6297      2.00000
      4      -4.7504      2.00000
      5      -4.5566      2.00000
      6      -4.5566      2.00000
      7      -4.4881      2.00000
      8      -4.4881      2.00000
      9      -4.2766      2.00000
     10      -4.2460      2.00000
     11      -4.2460      2.00000
     12      -4.1854      2.00000
     13      -3.9649      2.00000
     14      -3.8529      2.00000
     15      -3.8529      2.00000
     16      -3.7034      2.00000
     17      -3.6387      2.00000
     18      -3.6387      2.00000
     19      -3.3950      2.00000
     20      -3.3339      2.00000
     21      -3.3339      2.00000
     22      -3.3186      2.00000
     23      -3.2309      2.00000
     24      -3.1299      2.00000
     25      -3.1299      2.00000
     26      -3.1250      2.00000
     27      -3.1079      2.00000
     28      -3.0586      2.00000
     29      -3.0586      2.00000
     30      -3.0013      2.00000
     31      -2.9332      2.00000
     32      -2.9300      2.00000
     33      -2.8568      2.00000
     34      -2.8486      2.00000
     35      -2.7861      2.00000
     36      -2.7071      2.00000
     37      -2.6601      2.00000
     38      -2.6601      2.00000
     39      -2.6408      2.00000
     40      -2.6392      2.00000
     41      -2.5539      2.00000
     42      -2.5539      2.00000
     43      -2.4575      2.00000
     44      -2.4141      2.00000
     45      -2.4140      2.00000
     46      -2.3675      2.00000
     47      -2.1062      2.00000
     48      -2.1039      2.00000
     49      -2.1039      2.00000
     50      -2.0854      2.00000
     51      -2.0564      2.00000
     52      -1.9938      2.00000
     53      -1.9810      2.00000
     54      -1.9374      2.00000
     55      -1.9373      2.00000
     56      -1.8298      2.00000
     57      -1.7666      2.00000
     58      -1.7666      2.00000
     59      -1.7522      2.00000
     60      -1.6977      2.00000
     61      -1.6817      2.00000
     62      -1.6817      2.00000
     63      -1.6615      2.00000
     64      -1.1676      2.00000
     65       0.1509      0.90570
     66       0.1509     -0.06467
     67       0.4588     -0.31896
     68       0.6726     -0.00212
     69       0.6726      0.00000
     70       1.4521      0.00000
     71       1.4522      0.00000
     72       2.3711      0.00000
     73       3.7611      0.00000
     74       3.7612      0.00000
     75       3.9447      0.00000
     76       4.8319      0.00000
     77       5.4980      0.00000
     78       5.4980      0.00000
     79       5.7353      0.00000
     80       5.9890      0.00000

 k-point   9 :       0.4286    0.2857    0.0000
  band No.  band energies     occupation 
      1      -6.2594      2.00000
      2      -5.7779      2.00000
      3      -5.2000      2.00000
      4      -5.1597      2.00000
      5      -5.0005      2.00000
      6      -4.7725      2.00000
      7      -4.6351      2.00000
      8      -4.5153      2.00000
      9      -4.2249      2.00000
     10      -4.2100      2.00000
     11      -4.0525      2.00000
     12      -4.0105      2.00000
     13      -3.8037      2.00000
     14      -3.7071      2.00000
     15      -3.5586      2.00000
     16      -3.5501      2.00000
     17      -3.5298      2.00000
     18      -3.5142      2.00000
     19      -3.4728      2.00000
     20      -3.2668      2.00000
     21      -3.2663      2.00000
     22      -3.2227      2.00000
     23      -3.2182      2.00000
     24      -3.2068      2.00000
     25      -3.0952      2.00000
     26      -3.0851      2.00000
     27      -3.0684      2.00000
     28      -3.0649      2.00000
     29      -3.0563      2.00000
     30      -3.0063      2.00000
     31      -2.9861      2.00000
     32      -2.9813      2.00000
     33      -2.8744      2.00000
     34      -2.8446      2.00000
     35      -2.8334      2.00000
     36      -2.7717      2.00000
     37      -2.7525      2.00000
     38      -2.7431      2.00000
     39      -2.7113      2.00000
     40      -2.6408      2.00000
     41      -2.5169      2.00000
     42      -2.5073      2.00000
     43      -2.4680      2.00000
     44      -2.4544      2.00000
     45      -2.4519      2.00000
     46      -2.3326      2.00000
     47      -2.2989      2.00000
     48      -2.1358      2.00000
     49      -2.0758      2.00000
     50      -2.0214      2.00000
     51      -1.9936      2.00000
     52      -1.9589      2.00000
     53      -1.8821      2.00000
     54      -1.8467      2.00000
     55      -1.8383      2.00000
     56      -1.8321      2.00000
     57      -1.8124      2.00000
     58      -1.7980      2.00000
     59      -1.7646      2.00000
     60      -1.7404      2.00000
     61      -1.7370      2.00000
     62      -1.6828      2.00000
     63      -1.5291      2.00000
     64      -1.1459      2.00000
     65      -0.9514      2.05241
     66      -0.4742      1.91854
     67      -0.3892      1.70218
     68       0.6934     -0.07800
     69       1.2402      0.00000
     70       1.2640      0.00000
     71       1.4509      0.00000
     72       2.5383      0.00000
     73       3.5370      0.00000
     74       3.5411      0.00000
     75       3.7634      0.00000
     76       3.8141      0.00000
     77       5.0774      0.00000
     78       5.1912      0.00000
     79       5.3658      0.00000
     80       5.3661      0.00000

 k-point  10 :       0.4286    0.4286    0.0000
  band No.  band energies     occupation 
      1      -5.4841      2.00000
      2      -5.3063      2.00000
      3      -5.0544      2.00000
      4      -4.9840      2.00000
      5      -4.9840      2.00000
      6      -4.8154      2.00000
      7      -4.8154      2.00000
      8      -4.7318      2.00000
      9      -4.3531      2.00000
     10      -4.3076      2.00000
     11      -4.3076      2.00000
     12      -4.1627      2.00000
     13      -3.5526      2.00000
     14      -3.4499      2.00000
     15      -3.4499      2.00000
     16      -3.3726      2.00000
     17      -3.3612      2.00000
     18      -3.3369      2.00000
     19      -3.3369      2.00000
     20      -3.2655      2.00000
     21      -3.2655      2.00000
     22      -3.2385      2.00000
     23      -3.1854      2.00000
     24      -3.1572      2.00000
     25      -3.1035      2.00000
     26      -3.1035      2.00000
     27      -3.0585      2.00000
     28      -3.0485      2.00000
     29      -2.9678      2.00000
     30      -2.9230      2.00000
     31      -2.9229      2.00000
     32      -2.9217      2.00000
     33      -2.8810      2.00000
     34      -2.8810      2.00000
     35      -2.8759      2.00000
     36      -2.8431      2.00000
     37      -2.7120      2.00000
     38      -2.7095      2.00000
     39      -2.6798      2.00000
     40      -2.6798      2.00000
     41      -2.5484      2.00000
     42      -2.4978      2.00000
     43      -2.4738      2.00000
     44      -2.4738      2.00000
     45      -2.1526      2.00000
     46      -2.1123      2.00000
     47      -2.1026      2.00000
     48      -2.1026      2.00000
     49      -2.0049      2.00000
     50      -2.0049      2.00000
     51      -2.0038      2.00000
     52      -1.8768      2.00000
     53      -1.8418      2.00000
     54      -1.7950      2.00000
     55      -1.7949      2.00000
     56      -1.7709      2.00000
     57      -1.7510      2.00000
     58      -1.7509      2.00000
     59      -1.7494      2.00000
     60      -1.6994      2.00000
     61      -1.4947      2.00000
     62      -1.3430      2.00000
     63      -1.2082      2.00000
     64      -0.4428      2.00000
     65      -0.4428      1.96132
     66      -0.3240      1.90266
     67      -0.3240      1.84717
     68      -0.2524      0.70199
     69      -0.0116      0.00000
     70      -0.0115      0.00000
     71       0.7714      0.00000
     72       0.8695      0.00000
     73       3.1329      0.00000
     74       3.1330      0.00000
     75       3.2033      0.00000
     76       3.2228      0.00000
     77       4.7723      0.00000
     78       4.8124      0.00000
     79       4.8124      0.00000
     80       4.9874      0.00000


--------------------------------------------------------------------------------------------------------


 soft charge-density along one line, spin component           1
         0         1         2         3         4         5         6         7         8         9
 total charge-density along one line
 
 pseudopotential strength for first ion, spin component:           1
 -9.071   0.000   0.000   0.000   0.000   0.931   0.000   0.000
  0.000  -9.046   0.000   0.000   0.000   0.000   0.919   0.000
  0.000   0.000  -9.029   0.000   0.000   0.000   0.000   0.912
  0.000   0.000   0.000  -9.046   0.000   0.000   0.000   0.000
  0.000   0.000   0.000   0.000  -9.048   0.000   0.000   0.000
  0.931   0.000   0.000   0.000   0.000   1.147   0.000   0.000
  0.000   0.919   0.000   0.000   0.000   0.000   1.152   0.000
  0.000   0.000   0.912   0.000   0.000   0.000   0.000   1.156
  0.000   0.000   0.000   0.919   0.000   0.000   0.000   0.000
  0.000   0.000   0.000   0.000   0.922   0.000   0.000   0.000
  0.000   0.000  -0.005   0.000   0.000   0.000   0.000   0.002
  0.000   0.000   0.000   0.000   0.000   0.000   0.000   0.000
  0.000  -0.013   0.000   0.000   0.000   0.000   0.008   0.000
  0.000   0.000  -0.015   0.000   0.000   0.000   0.000   0.008
  0.000   0.000   0.000  -0.013   0.000   0.000   0.000   0.000
  0.000   0.007   0.000   0.000   0.000   0.000  -0.004   0.000
  0.000   0.000   0.009   0.000   0.000   0.000   0.000  -0.004
  0.000   0.000   0.000   0.007   0.000   0.000   0.000   0.000
 total augmentation occupancy for first ion, spin component:           1
  1.916   0.000   0.000   0.000   0.000   0.003   0.000   0.000   0.000   0.000   0.000   0.000   0.000   0.000   0.000   0.000
  0.000   1.921   0.000   0.000   0.000   0.000  -0.034   0.000   0.000   0.000   0.000   0.000   0.015   0.000   0.000  -0.008
  0.000   0.000   1.932   0.000   0.000   0.000   0.000  -0.059   0.000   0.000   0.020   0.031   0.000   0.015   0.000   0.000
  0.000   0.000   0.000   1.921   0.000   0.000   0.000   0.000  -0.034   0.000   0.000   0.000   0.000   0.000   0.015   0.000
  0.000   0.000   0.000   0.000   1.920   0.000   0.000   0.000   0.000  -0.053   0.000   0.000   0.000   0.000   0.000   0.000
  0.003   0.000   0.000   0.000   0.000   0.060   0.000   0.000   0.000   0.000   0.000   0.000   0.000   0.000   0.000   0.000
  0.000  -0.034   0.000   0.000   0.000   0.000   0.046   0.000   0.000   0.000   0.000   0.000   0.044   0.000   0.000  -0.003
  0.000   0.000  -0.059   0.000   0.000   0.000   0.000   0.052   0.000   0.000  -0.061   0.009   0.000   0.038   0.000   0.000
  0.000   0.000   0.000  -0.034   0.000   0.000   0.000   0.000   0.046   0.000   0.000   0.000   0.000   0.000   0.044   0.000
  0.000   0.000   0.000   0.000  -0.053   0.000   0.000   0.000   0.000   0.055   0.000   0.000   0.000   0.000   0.000   0.000
  0.000   0.000   0.020   0.000   0.000   0.000   0.000  -0.061   0.000   0.000   1.226  -0.277   0.000   0.094   0.000   0.000
  0.000   0.000   0.031   0.000   0.000   0.000   0.000   0.009   0.000   0.000  -0.277   0.108   0.000  -0.054   0.000   0.000
  0.000   0.015   0.000   0.000   0.000   0.000   0.044   0.000   0.000   0.000   0.000   0.000   0.150   0.000   0.000  -0.010
  0.000   0.000   0.015   0.000   0.000   0.000   0.000   0.038   0.000   0.000   0.094  -0.054   0.000   0.088   0.000   0.000
  0.000   0.000   0.000   0.015   0.000   0.000   0.000   0.000   0.044   0.000   0.000   0.000   0.000   0.000   0.150   0.000
  0.000  -0.008   0.000   0.000   0.000   0.000  -0.003   0.000   0.000   0.000   0.000   0.000  -0.010   0.000   0.000   0.001
  0.000   0.000  -0.009   0.000   0.000   0.000   0.000  -0.002   0.000   0.000  -0.017   0.007   0.000  -0.007   0.000   0.000
  0.000   0.000   0.000  -0.008   0.000   0.000   0.000   0.000  -0.003   0.000   0.000   0.000   0.000   0.000  -0.010   0.000


------------------------ aborting loop because EDIFF is reached ----------------------------------------


    CHARGE:  cpu time    1.32: real time    1.32
    FORLOC:  cpu time    0.05: real time    0.05
    FORNL :  cpu time   23.44: real time   23.44
    STRESS:  cpu time   62.55: real time   62.57
    FORCOR:  cpu time    0.47: real time    0.47
    FORHAR:  cpu time    0.16: real time    0.15
    MIXING:  cpu time    0.02: real time    0.02

  FORCE on cell =-STRESS in cart. coord.  units (eV):
  Direction    XX          YY          ZZ          XY          YZ          ZX
  --------------------------------------------------------------------------------------
  Alpha Z   667.73723   667.73723   667.73723
  Ewald   45005.36392 45005.36392-53681.43079     0.00000     0.00000     0.00000
  Hartree 49576.76285 49576.76285-47041.48454     0.00000     0.00000     0.00000
  E(xc)    -750.76680  -750.76680  -751.73438     0.00000     0.00000     0.00000
  Local  -95671.93159-95671.93159 99631.55866     0.00000     0.00000     0.00000
  n-local  -438.77823  -451.20215  -445.98269     3.75766     0.00000     0.00000
  augment   674.84846   674.84841   676.20905    -0.00001     0.00002     0.00002
  Kinetic   954.68881   926.55037   944.30203    -3.73740     0.00000     0.00000
  Fock        0.00000     0.00000     0.00000     0.00000     0.00000     0.00000
  -------------------------------------------------------------------------------------
  Total      -2.35655    -2.35655    -0.82542     0.00000     0.00000     0.00000
  in kB     -13.70338   -13.70338    -4.79982     0.00000     0.00000     0.00000
  external pressure =      -10.74 kB  Pullay stress =        0.00 kB


 VOLUME and BASIS-vectors are now :
 -----------------------------------------------------------------------------
  energy-cutoff  :      415.00
  volume of cell :      275.52
      direct lattice vectors                 reciprocal lattice vectors
     3.631354857  0.000000000  0.000000000     0.275379311  0.000000000  0.000000000
     0.000000000  3.631354857  0.000000000     0.000000000  0.275379311  0.000000000
     0.000000000  0.000000000 20.894064570     0.000000000  0.000000000  0.047860482

  length of vectors
     3.631354857  3.631354857 20.894064570     0.275379311  0.275379311  0.047860482


 FORCES acting on ions
    electron-ion (+dipol)            ewald-force                    non-local-force                 convergence-correction
 -----------------------------------------------------------------------------------------------
   -.306E-13 0.354E-13 0.393E+04   0.224E-13 0.160E-13 -.393E+04   0.258E-25 0.000E+00 -.264E+01   -.235E-13 -.995E-14 0.377E-03
   -.612E-13 -.198E-13 0.793E+03   0.877E-14 0.896E-14 -.793E+03   -.414E-24 -.103E-24 0.270E-02   0.131E-13 0.540E-13 -.538E-03
   -.601E-13 -.311E-13 -.238E+04   -.137E-13 0.202E-13 0.238E+04   -.414E-24 0.000E+00 0.729E+00   0.441E-13 0.732E-13 0.789E-03
   0.611E-12 0.269E-13 0.393E+04   0.970E-14 -.158E-14 -.393E+04   0.000E+00 0.155E-24 -.264E+01   0.185E-13 -.205E-13 0.377E-03
   0.637E-12 -.916E-12 0.793E+03   -.280E-14 -.619E-14 -.793E+03   0.000E+00 0.000E+00 0.270E-02   0.256E-13 0.694E-13 -.538E-03
   0.586E-12 0.546E-12 -.238E+04   -.272E-13 0.695E-14 0.238E+04   0.000E+00 0.284E-24 0.729E+00   0.108E-12 0.664E-13 0.789E-03
   0.670E-12 -.447E-13 0.238E+04   -.481E-13 0.831E-14 -.238E+04   0.000E+00 -.414E-24 -.729E+00   0.545E-14 -.174E-13 -.862E-03
   0.619E-12 -.267E-13 -.793E+03   0.204E-13 -.959E-14 0.793E+03   0.000E+00 0.414E-24 -.270E-02   0.776E-13 0.153E-13 0.391E-03
   0.631E-12 -.332E-13 -.393E+04   -.220E-14 0.318E-14 0.393E+04   -.517E-25 -.207E-24 0.264E+01   0.537E-13 0.131E-12 -.337E-03
   -.134E-13 0.794E-12 0.238E+04   -.626E-13 -.661E-14 -.238E+04   0.517E-24 0.000E+00 -.729E+00   -.303E-13 0.117E-13 -.862E-03
   -.678E-13 0.996E-12 -.793E+03   0.433E-14 -.265E-13 0.793E+03   0.000E+00 0.000E+00 -.270E-02   0.421E-13 0.484E-13 0.391E-03
   -.267E-13 0.104E-11 -.393E+04   -.181E-13 -.145E-13 0.393E+04   -.388E-25 0.000E+00 0.264E+01   0.160E-13 0.108E-12 -.337E-03
 -----------------------------------------------------------------------------------------------
   0.349E-11 0.236E-11 -.349E-02   -.109E-12 -.129E-14 -.909E-12   -.375E-24 0.129E-24 -.133E-14   0.350E-12 0.530E-12 -.360E-03
 
 
 POSITION                                       TOTAL-FORCE (eV/Angst)
 -----------------------------------------------------------------------------------
      0.00000      0.00000      0.02938         0.000000      0.000000      0.012980
      0.00000      0.00000      3.63112         0.000000      0.000000      0.010694
      0.00000      0.00000      7.27424         0.000000      0.000000      0.001150
      1.81568      1.81568      0.02938         0.000000      0.000000      0.012980
      1.81568      1.81568      3.63112         0.000000      0.000000      0.010694
      1.81568      1.81568      7.27424         0.000000      0.000000      0.001150
      1.81568      0.00000      1.80415         0.000000      0.000000     -0.001150
      1.81568      0.00000      5.44727         0.000000      0.000000     -0.010694
      1.81568      0.00000      9.04901         0.000000      0.000000     -0.012980
      0.00000      1.81568      1.80415         0.000000      0.000000     -0.001150
      0.00000      1.81568      5.44727         0.000000      0.000000     -0.010694
      0.00000      1.81568      9.04901         0.000000      0.000000     -0.012980
 -----------------------------------------------------------------------------------
    total drift:                                0.000000      0.000000     -0.003848


--------------------------------------------------------------------------------------------------------



  FREE ENERGIE OF THE ION-ELECTRON SYSTEM (eV)
  ---------------------------------------------------
  free  energy   TOTEN  =       -42.223735 eV

  energy  without entropy=      -42.223735  energy(sigma->0) =      -42.223735
 
 d Force = 0.3337875E-03[ 0.255E-03, 0.412E-03]  d Energy = 0.7116832E-06 0.333E-03
 d Force =-0.1113682E+03[-0.111E+03,-0.111E+03]  d Ewald  =-0.1113682E+03 0.345E-05


--------------------------------------------------------------------------------------------------------


    POTLOK:  cpu time    0.51: real time    0.51


--------------------------------------------------------------------------------------------------------




--------------------------------------------------------------------------------------------------------


    WAVPRE:  cpu time    0.10: real time    0.10
    FEWALD:  cpu time    0.00: real time    0.00
    ORTHCH:  cpu time    7.74: real time    7.74
     LOOP+:  cpu time  594.38: real time  594.43


----------------------------------------- Iteration   12(   1)  ---------------------------------------


    POTLOK:  cpu time    0.44: real time    0.44
    SETDIJ:  cpu time    0.06: real time    0.06
     EDDAV:  cpu time   53.26: real time   53.27
 BZINTS: Fermi energy: -0.230363;132.000000 electrons
         Band energy:-395.659471;  BLOECHL correction: -0.139595
       DOS:  cpu time    0.04: real time    0.04
    CHARGE:  cpu time    1.35: real time    1.35
    MIXING:  cpu time    0.02: real time    0.01
    --------------------------------------------
      LOOP:  cpu time   55.18: real time   55.19

 eigenvalue-minimisations  :  1600
 total energy-change (2. order) : 0.8341434E-03  (-0.3169774E+00)
 number of electron     131.9999662 magnetization 
 augmentation part       86.4499769 magnetization 

 Broyden mixing:
  rms(total) = 0.11492E-01    rms(broyden)= 0.11482E-01
  rms(prec ) = 0.12351E-01
  weight for this iteration     100.00

 Free energy of the ion-electron system (eV)
  ---------------------------------------------------
  alpha Z        PSCENC =       667.73722884
  Ewald energy   TEWEN  =     36552.47505536
  -1/2 Hartree   DENC   =    -52334.90582363
  -exchange  EXHF       =         0.00000000
  -V(xc)+E(xc)   XCENC  =       512.18859949
  PAW double counting   =     13123.07937363   -14858.79487159
  entropy T*S    EENTRO =         0.00000000
  eigenvalues    EBANDS =      -395.65947063
  atomic energy  EATOM  =     16691.65700843
  ---------------------------------------------------
  free energy    TOTEN  =       -42.22290010 eV

  energy without entropy =      -42.22290010  energy(sigma->0) =      -42.22290010


--------------------------------------------------------------------------------------------------------




----------------------------------------- Iteration   12(   2)  ---------------------------------------


    POTLOK:  cpu time    0.44: real time    0.44
    SETDIJ:  cpu time    0.06: real time    0.06
     EDDAV:  cpu time   56.33: real time   56.33
 BZINTS: Fermi energy: -0.230690;132.000000 electrons
         Band energy:-395.892967;  BLOECHL correction: -0.140033
       DOS:  cpu time    0.04: real time    0.04
    CHARGE:  cpu time    1.32: real time    1.32
    MIXING:  cpu time    0.02: real time    0.02
    --------------------------------------------
      LOOP:  cpu time   58.20: real time   58.21

 eigenvalue-minimisations  :  1720
 total energy-change (2. order) :-0.6760584E-03  (-0.8871340E-03)
 number of electron     131.9999662 magnetization 
 augmentation part       86.4567427 magnetization 

 Broyden mixing:
  rms(total) = 0.12345E-01    rms(broyden)= 0.12343E-01
  rms(prec ) = 0.13560E-01
  weight for this iteration     100.00

 eigenvalues of (default mixing * dielectric matrix)
  average eigenvalue GAMMA=   0.4469
  0.4469

 Free energy of the ion-electron system (eV)
  ---------------------------------------------------
  alpha Z        PSCENC =       667.73722884
  Ewald energy   TEWEN  =     36552.47505536
  -1/2 Hartree   DENC   =    -52334.72344503
  -exchange  EXHF       =         0.00000000
  -V(xc)+E(xc)   XCENC  =       512.17056863
  PAW double counting   =     13123.64652704   -14859.29355275
  entropy T*S    EENTRO =         0.00000000
  eigenvalues    EBANDS =      -395.89296668
  atomic energy  EATOM  =     16691.65700843
  ---------------------------------------------------
  free energy    TOTEN  =       -42.22357616 eV

  energy without entropy =      -42.22357616  energy(sigma->0) =      -42.22357616


--------------------------------------------------------------------------------------------------------




----------------------------------------- Iteration   12(   3)  ---------------------------------------


    POTLOK:  cpu time    0.44: real time    0.44
    SETDIJ:  cpu time    0.06: real time    0.06
     EDDAV:  cpu time   54.72: real time   54.73
 BZINTS: Fermi energy: -0.232849;132.000000 electrons
         Band energy:-396.153204;  BLOECHL correction: -0.139663
       DOS:  cpu time    0.04: real time    0.04
    CHARGE:  cpu time    1.35: real time    1.35
    MIXING:  cpu time    0.02: real time    0.02
    --------------------------------------------
      LOOP:  cpu time   56.64: real time   56.65

 eigenvalue-minimisations  :  1656
 total energy-change (2. order) : 0.3595258E-03  (-0.1546523E-03)
 number of electron     131.9999662 magnetization 
 augmentation part       86.4590361 magnetization 

 Broyden mixing:
  rms(total) = 0.63353E-02    rms(broyden)= 0.63350E-02
  rms(prec ) = 0.68225E-02
  weight for this iteration     100.00

 eigenvalues of (default mixing * dielectric matrix)
  average eigenvalue GAMMA=   1.2851
  0.4306  2.1395

 Free energy of the ion-electron system (eV)
  ---------------------------------------------------
  alpha Z        PSCENC =       667.73722884
  Ewald energy   TEWEN  =     36552.47505536
  -1/2 Hartree   DENC   =    -52334.43765468
  -exchange  EXHF       =         0.00000000
  -V(xc)+E(xc)   XCENC  =       512.17157185
  PAW double counting   =     13124.01825126   -14859.69147404
  entropy T*S    EENTRO =         0.00000000
  eigenvalues    EBANDS =      -396.15320365
  atomic energy  EATOM  =     16691.65700843
  ---------------------------------------------------
  free energy    TOTEN  =       -42.22321664 eV

  energy without entropy =      -42.22321664  energy(sigma->0) =      -42.22321664


--------------------------------------------------------------------------------------------------------




----------------------------------------- Iteration   12(   4)  ---------------------------------------


    POTLOK:  cpu time    0.44: real time    0.44
    SETDIJ:  cpu time    0.06: real time    0.06
     EDDAV:  cpu time   60.98: real time   60.98
 BZINTS: Fermi energy: -0.228825;132.000000 electrons
         Band energy:-395.460870;  BLOECHL correction: -0.139935
       DOS:  cpu time    0.04: real time    0.04
    CHARGE:  cpu time    1.35: real time    1.35
    MIXING:  cpu time    0.02: real time    0.02
    --------------------------------------------
      LOOP:  cpu time   62.88: real time   62.88

 eigenvalue-minimisations  :  1904
 total energy-change (2. order) :-0.9924111E-04  (-0.4048557E-04)
 number of electron     131.9999662 magnetization 
 augmentation part       86.4517120 magnetization 

 Broyden mixing:
  rms(total) = 0.24279E-02    rms(broyden)= 0.24278E-02
  rms(prec ) = 0.28547E-02
  weight for this iteration     100.00

 eigenvalues of (default mixing * dielectric matrix)
  average eigenvalue GAMMA=   1.2385
  2.6742  0.6385  0.4029

 Free energy of the ion-electron system (eV)
  ---------------------------------------------------
  alpha Z        PSCENC =       667.73722884
  Ewald energy   TEWEN  =     36552.47505536
  -1/2 Hartree   DENC   =    -52334.95784186
  -exchange  EXHF       =         0.00000000
  -V(xc)+E(xc)   XCENC  =       512.18023807
  PAW double counting   =     13125.70231185   -14861.55644639
  entropy T*S    EENTRO =         0.00000000
  eigenvalues    EBANDS =      -395.46087018
  atomic energy  EATOM  =     16691.65700843
  ---------------------------------------------------
  free energy    TOTEN  =       -42.22331588 eV

  energy without entropy =      -42.22331588  energy(sigma->0) =      -42.22331588


--------------------------------------------------------------------------------------------------------




----------------------------------------- Iteration   12(   5)  ---------------------------------------


    POTLOK:  cpu time    0.44: real time    0.44
    SETDIJ:  cpu time    0.06: real time    0.06
     EDDAV:  cpu time   54.64: real time   54.65
 BZINTS: Fermi energy: -0.230847;132.000000 electrons
         Band energy:-395.797449;  BLOECHL correction: -0.139838
       DOS:  cpu time    0.04: real time    0.04
    CHARGE:  cpu time    1.33: real time    1.33
    MIXING:  cpu time    0.02: real time    0.02
    --------------------------------------------
      LOOP:  cpu time   56.53: real time   56.54

 eigenvalue-minimisations  :  1648
 total energy-change (2. order) : 0.8199019E-04  (-0.1970987E-04)
 number of electron     131.9999662 magnetization 
 augmentation part       86.4548822 magnetization 

 Broyden mixing:
  rms(total) = 0.18573E-02    rms(broyden)= 0.18572E-02
  rms(prec ) = 0.19987E-02
  weight for this iteration     100.00

 eigenvalues of (default mixing * dielectric matrix)
  average eigenvalue GAMMA=   1.0220
  2.6102  0.5527  0.5527  0.3724

 Free energy of the ion-electron system (eV)
  ---------------------------------------------------
  alpha Z        PSCENC =       667.73722884
  Ewald energy   TEWEN  =     36552.47505536
  -1/2 Hartree   DENC   =    -52334.65323159
  -exchange  EXHF       =         0.00000000
  -V(xc)+E(xc)   XCENC  =       512.17268158
  PAW double counting   =     13125.87601300   -14861.69054053
  entropy T*S    EENTRO =         0.00000000
  eigenvalues    EBANDS =      -395.79744898
  atomic energy  EATOM  =     16691.65700843
  ---------------------------------------------------
  free energy    TOTEN  =       -42.22323389 eV

  energy without entropy =      -42.22323389  energy(sigma->0) =      -42.22323389


--------------------------------------------------------------------------------------------------------




----------------------------------------- Iteration   12(   6)  ---------------------------------------


    POTLOK:  cpu time    0.44: real time    0.44
    SETDIJ:  cpu time    0.06: real time    0.06
     EDDAV:  cpu time   54.72: real time   54.73
 BZINTS: Fermi energy: -0.231087;132.000000 electrons
         Band energy:-395.850042;  BLOECHL correction: -0.139853
       DOS:  cpu time    0.04: real time    0.04
    CHARGE:  cpu time    1.34: real time    1.34
    MIXING:  cpu time    0.02: real time    0.02
    --------------------------------------------
      LOOP:  cpu time   56.62: real time   56.62

 eigenvalue-minimisations  :  1656
 total energy-change (2. order) : 0.8544401E-05  (-0.3577861E-05)
 number of electron     131.9999662 magnetization 
 augmentation part       86.4557565 magnetization 

 Broyden mixing:
  rms(total) = 0.11592E-02    rms(broyden)= 0.11592E-02
  rms(prec ) = 0.12382E-02
  weight for this iteration     100.00

 eigenvalues of (default mixing * dielectric matrix)
  average eigenvalue GAMMA=   0.9760
  2.3753  0.3801  0.3801  0.8722  0.8722

 Free energy of the ion-electron system (eV)
  ---------------------------------------------------
  alpha Z        PSCENC =       667.73722884
  Ewald energy   TEWEN  =     36552.47505536
  -1/2 Hartree   DENC   =    -52334.61285708
  -exchange  EXHF       =         0.00000000
  -V(xc)+E(xc)   XCENC  =       512.17170612
  PAW double counting   =     13125.79870423   -14861.60002898
  entropy T*S    EENTRO =         0.00000000
  eigenvalues    EBANDS =      -395.85004227
  atomic energy  EATOM  =     16691.65700843
  ---------------------------------------------------
  free energy    TOTEN  =       -42.22322534 eV

  energy without entropy =      -42.22322534  energy(sigma->0) =      -42.22322534


--------------------------------------------------------------------------------------------------------




----------------------------------------- Iteration   12(   7)  ---------------------------------------


    POTLOK:  cpu time    0.44: real time    0.44
    SETDIJ:  cpu time    0.06: real time    0.06
     EDDAV:  cpu time   53.27: real time   53.27
 BZINTS: Fermi energy: -0.231364;132.000000 electrons
         Band energy:-395.899133;  BLOECHL correction: -0.139844
       DOS:  cpu time    0.04: real time    0.04
    CHARGE:  cpu time    1.35: real time    1.35
    MIXING:  cpu time    0.02: real time    0.02
    --------------------------------------------
      LOOP:  cpu time   55.18: real time   55.18

 eigenvalue-minimisations  :  1600
 total energy-change (2. order) : 0.1326155E-04  (-0.6980366E-06)
 number of electron     131.9999662 magnetization 
 augmentation part       86.4563566 magnetization 

 Broyden mixing:
  rms(total) = 0.40796E-03    rms(broyden)= 0.40795E-03
  rms(prec ) = 0.44395E-03
  weight for this iteration     100.00

 eigenvalues of (default mixing * dielectric matrix)
  average eigenvalue GAMMA=   1.2810
  2.5546  2.5546  0.9102  0.9102  0.3846  0.3716

 Free energy of the ion-electron system (eV)
  ---------------------------------------------------
  alpha Z        PSCENC =       667.73722884
  Ewald energy   TEWEN  =     36552.47505536
  -1/2 Hartree   DENC   =    -52334.57362019
  -exchange  EXHF       =         0.00000000
  -V(xc)+E(xc)   XCENC  =       512.17109663
  PAW double counting   =     13125.71263413   -14861.50348236
  entropy T*S    EENTRO =         0.00000000
  eigenvalues    EBANDS =      -395.89913293
  atomic energy  EATOM  =     16691.65700843
  ---------------------------------------------------
  free energy    TOTEN  =       -42.22321208 eV

  energy without entropy =      -42.22321208  energy(sigma->0) =      -42.22321208


--------------------------------------------------------------------------------------------------------




----------------------------------------- Iteration   12(   8)  ---------------------------------------


    POTLOK:  cpu time    0.44: real time    0.44
    SETDIJ:  cpu time    0.06: real time    0.06
     EDDAV:  cpu time   37.28: real time   37.28
 BZINTS: Fermi energy: -0.231362;132.000000 electrons
         Band energy:-395.892029;  BLOECHL correction: -0.139847
       DOS:  cpu time    0.04: real time    0.04
    CHARGE:  cpu time    1.38: real time    1.38
    MIXING:  cpu time    0.02: real time    0.02
    --------------------------------------------
      LOOP:  cpu time   39.21: real time   39.22

 eigenvalue-minimisations  :   960
 total energy-change (2. order) :-0.4962691E-05  (-0.1659581E-06)
 number of electron     131.9999662 magnetization 
 augmentation part       86.4560324 magnetization 

 Broyden mixing:
  rms(total) = 0.16431E-03    rms(broyden)= 0.16429E-03
  rms(prec ) = 0.18668E-03
  weight for this iteration     100.00

 eigenvalues of (default mixing * dielectric matrix)
  average eigenvalue GAMMA=   1.1990
  2.6438  2.1056  1.2060  0.8411  0.8411  0.3917  0.3636

 Free energy of the ion-electron system (eV)
  ---------------------------------------------------
  alpha Z        PSCENC =       667.73722884
  Ewald energy   TEWEN  =     36552.47505536
  -1/2 Hartree   DENC   =    -52334.57229287
  -exchange  EXHF       =         0.00000000
  -V(xc)+E(xc)   XCENC  =       512.17166838
  PAW double counting   =     13125.73626727   -14861.53612391
  entropy T*S    EENTRO =         0.00000000
  eigenvalues    EBANDS =      -395.89202854
  atomic energy  EATOM  =     16691.65700843
  ---------------------------------------------------
  free energy    TOTEN  =       -42.22321704 eV

  energy without entropy =      -42.22321704  energy(sigma->0) =      -42.22321704


--------------------------------------------------------------------------------------------------------




----------------------------------------- Iteration   12(   9)  ---------------------------------------


    POTLOK:  cpu time    0.44: real time    0.44
    SETDIJ:  cpu time    0.06: real time    0.06
     EDDAV:  cpu time   37.33: real time   37.34
 BZINTS: Fermi energy: -0.231578;132.000000 electrons
         Band energy:-395.926209;  BLOECHL correction: -0.139845
       DOS:  cpu time    0.04: real time    0.04
    CHARGE:  cpu time    1.35: real time    1.35
    MIXING:  cpu time    0.02: real time    0.02
    --------------------------------------------
      LOOP:  cpu time   39.24: real time   39.25

 eigenvalue-minimisations  :   960
 total energy-change (2. order) : 0.2854133E-05  (-0.1397163E-06)
 number of electron     131.9999662 magnetization 
 augmentation part       86.4563873 magnetization 

 Broyden mixing:
  rms(total) = 0.70430E-04    rms(broyden)= 0.70419E-04
  rms(prec ) = 0.82069E-04
  weight for this iteration     100.00

 eigenvalues of (default mixing * dielectric matrix)
  average eigenvalue GAMMA=   1.1687
  2.6396  1.7342  1.7342  0.3916  0.3642  0.8253  0.8253  0.8352

 Free energy of the ion-electron system (eV)
  ---------------------------------------------------
  alpha Z        PSCENC =       667.73722884
  Ewald energy   TEWEN  =     36552.47505536
  -1/2 Hartree   DENC   =    -52334.54051596
  -exchange  EXHF       =         0.00000000
  -V(xc)+E(xc)   XCENC  =       512.17100785
  PAW double counting   =     13125.74813706   -14861.54492677
  entropy T*S    EENTRO =         0.00000000
  eigenvalues    EBANDS =      -395.92620900
  atomic energy  EATOM  =     16691.65700843
  ---------------------------------------------------
  free energy    TOTEN  =       -42.22321419 eV

  energy without entropy =      -42.22321419  energy(sigma->0) =      -42.22321419


--------------------------------------------------------------------------------------------------------




----------------------------------------- Iteration   12(  10)  ---------------------------------------


    POTLOK:  cpu time    0.44: real time    0.44
    SETDIJ:  cpu time    0.06: real time    0.06
     EDDAV:  cpu time   36.19: real time   36.20
 BZINTS: Fermi energy: -0.231568;132.000000 electrons
         Band energy:-395.921607;  BLOECHL correction: -0.139844
       DOS:  cpu time    0.04: real time    0.04
    CHARGE:  cpu time    1.34: real time    1.35
    MIXING:  cpu time    0.02: real time    0.03
    --------------------------------------------
      LOOP:  cpu time   38.11: real time   38.11

 eigenvalue-minimisations  :   920
 total energy-change (2. order) :-0.1811772E-05  (-0.2305008E-07)
 number of electron     131.9999662 magnetization 
 augmentation part       86.4561540 magnetization 

 Broyden mixing:
  rms(total) = 0.44825E-04    rms(broyden)= 0.44822E-04
  rms(prec ) = 0.57576E-04
  weight for this iteration     100.00

 eigenvalues of (default mixing * dielectric matrix)
  average eigenvalue GAMMA=   1.2785
  2.6677  2.3967  2.3967  0.3643  0.3915  0.8920  0.8920  0.9208  0.5851

 Free energy of the ion-electron system (eV)
  ---------------------------------------------------
  alpha Z        PSCENC =       667.73722884
  Ewald energy   TEWEN  =     36552.47505536
  -1/2 Hartree   DENC   =    -52334.54140531
  -exchange  EXHF       =         0.00000000
  -V(xc)+E(xc)   XCENC  =       512.17132104
  PAW double counting   =     13125.76038247   -14861.56119955
  entropy T*S    EENTRO =         0.00000000
  eigenvalues    EBANDS =      -395.92160729
  atomic energy  EATOM  =     16691.65700843
  ---------------------------------------------------
  free energy    TOTEN  =       -42.22321600 eV

  energy without entropy =      -42.22321600  energy(sigma->0) =      -42.22321600


--------------------------------------------------------------------------------------------------------




----------------------------------------- Iteration   12(  11)  ---------------------------------------


    POTLOK:  cpu time    0.44: real time    0.44
    SETDIJ:  cpu time    0.06: real time    0.06
     EDDAV:  cpu time   37.06: real time   37.06
 BZINTS: Fermi energy: -0.231725;132.000000 electrons
         Band energy:-395.943900;  BLOECHL correction: -0.139845
       DOS:  cpu time    0.04: real time    0.04
    --------------------------------------------
      LOOP:  cpu time   37.61: real time   37.61

 eigenvalue-minimisations  :   952
 total energy-change (2. order) :-0.6366354E-06  (-0.1051037E-07)
 number of electron     131.9999662 magnetization 
 augmentation part       86.4561540 magnetization 

 Free energy of the ion-electron system (eV)
  ---------------------------------------------------
  alpha Z        PSCENC =       667.73722884
  Ewald energy   TEWEN  =     36552.47505536
  -1/2 Hartree   DENC   =    -52334.51998250
  -exchange  EXHF       =         0.00000000
  -V(xc)+E(xc)   XCENC  =       512.17118118
  PAW double counting   =     13125.76024869   -14861.56005656
  entropy T*S    EENTRO =         0.00000000
  eigenvalues    EBANDS =      -395.94390008
  atomic energy  EATOM  =     16691.65700843
  ---------------------------------------------------
  free energy    TOTEN  =       -42.22321664 eV

  energy without entropy =      -42.22321664  energy(sigma->0) =      -42.22321664


--------------------------------------------------------------------------------------------------------




 average (electrostatic) potential at core
  the test charge radii are     1.0053
  (the norm of the test charge is              1.0000)
       1 -43.4852       2 -43.7980       3 -43.8547       4 -43.4852       5 -43.7980
       6 -43.8547       7 -43.8549       8 -43.7980       9 -43.4852      10 -43.8549
      11 -43.7980      12 -43.4852
 
 
 
 E-fermi :  -0.2317     XC(G=0):  -7.4916     alpha+bet : -4.9539


 k-point   1 :       0.0000    0.0000    0.0000
  band No.  band energies     occupation 
      1      -9.0995      2.00000
      2      -8.3122      2.00000
      3      -7.0267      2.00000
      4      -5.6134      2.00000
      5      -4.9035      2.00000
      6      -4.8728      2.00000
      7      -4.8190      2.00000
      8      -4.8190      2.00000
      9      -4.4948      2.00000
     10      -4.4947      2.00000
     11      -4.4203      2.00000
     12      -4.4074      2.00000
     13      -4.4074      2.00000
     14      -4.2206      2.00000
     15      -4.1442      2.00000
     16      -4.1442      2.00000
     17      -3.9539      2.00000
     18      -3.9538      2.00000
     19      -3.8676      2.00000
     20      -3.6699      2.00000
     21      -3.6699      2.00000
     22      -3.4769      2.00000
     23      -3.2229      2.00000
     24      -3.1248      2.00000
     25      -3.0601      2.00000
     26      -3.0601      2.00000
     27      -3.0115      2.00000
     28      -3.0115      2.00000
     29      -2.8484      2.00000
     30      -2.8484      2.00000
     31      -2.6198      2.00000
     32      -2.5846      2.00000
     33      -2.4941      2.00000
     34      -2.4941      2.00000
     35      -2.3580      2.00000
     36      -2.3192      2.00000
     37      -2.3124      2.00000
     38      -2.3124      2.00000
     39      -2.2866      2.00000
     40      -2.2054      2.00000
     41      -2.2009      2.00000
     42      -2.2009      2.00000
     43      -2.0749      2.00000
     44      -2.0749      2.00000
     45      -2.0384      2.00000
     46      -1.9345      2.00000
     47      -1.9345      2.00000
     48      -1.8508      2.00000
     49      -1.7894      2.00000
     50      -1.7894      2.00000
     51      -1.7678      2.00000
     52      -1.7677      2.00000
     53      -1.7552      2.00000
     54      -1.7552      2.00000
     55      -1.6798      2.00000
     56      -1.6797      2.00000
     57      -1.6520      2.00000
     58      -1.6469      2.00000
     59      -1.6304      2.00000
     60      -1.6304      2.00000
     61      -1.6079      2.00000
     62      -1.6079      2.00000
     63      -1.5971      2.00000
     64      -1.2993      2.00000
     65      -1.2993      2.00000
     66       0.0643      0.00000
     67       1.1486      0.00000
     68       1.9163      0.00000
     69       1.9163      0.00000
     70       3.1773      0.00000
     71       3.1773      0.00000
     72       4.0513      0.00000
     73       4.6234      0.00000
     74       4.9299      0.00000
     75       4.9299      0.00000
     76       6.6281      0.00000
     77       6.9951      0.00000
     78       6.9951      0.00000
     79       7.0311      0.00000
     80       7.0312      0.00000

 k-point   2 :       0.1429    0.0000    0.0000
  band No.  band energies     occupation 
      1      -8.8570      2.00000
      2      -8.0783      2.00000
      3      -6.8109      2.00000
      4      -5.4296      2.00000
      5      -4.8169      2.00000
      6      -4.7556      2.00000
      7      -4.7512      2.00000
      8      -4.7147      2.00000
      9      -4.4621      2.00000
     10      -4.4168      2.00000
     11      -4.3551      2.00000
     12      -4.3473      2.00000
     13      -4.3352      2.00000
     14      -4.1662      2.00000
     15      -4.1290      2.00000
     16      -4.0969      2.00000
     17      -3.9242      2.00000
     18      -3.8781      2.00000
     19      -3.8317      2.00000
     20      -3.6768      2.00000
     21      -3.6499      2.00000
     22      -3.4669      2.00000
     23      -3.2455      2.00000
     24      -3.0968      2.00000
     25      -3.0694      2.00000
     26      -3.0481      2.00000
     27      -3.0431      2.00000
     28      -3.0207      2.00000
     29      -2.9101      2.00000
     30      -2.8981      2.00000
     31      -2.8528      2.00000
     32      -2.5836      2.00000
     33      -2.5049      2.00000
     34      -2.4526      2.00000
     35      -2.4390      2.00000
     36      -2.4180      2.00000
     37      -2.4129      2.00000
     38      -2.3402      2.00000
     39      -2.3118      2.00000
     40      -2.2676      2.00000
     41      -2.2186      2.00000
     42      -2.1925      2.00000
     43      -2.0913      2.00000
     44      -2.0859      2.00000
     45      -2.0651      2.00000
     46      -2.0393      2.00000
     47      -1.9924      2.00000
     48      -1.9679      2.00000
     49      -1.8864      2.00000
     50      -1.8815      2.00000
     51      -1.8671      2.00000
     52      -1.8399      2.00000
     53      -1.8036      2.00000
     54      -1.7955      2.00000
     55      -1.7928      2.00000
     56      -1.7641      2.00000
     57      -1.7511      2.00000
     58      -1.7345      2.00000
     59      -1.7047      2.00000
     60      -1.7042      2.00000
     61      -1.6798      2.00000
     62      -1.6341      2.00000
     63      -1.4542      2.00000
     64      -1.4326      2.00000
     65      -1.0673      2.00000
     66       0.4895     -0.01151
     67       0.6124      0.00000
     68       1.6413      0.00000
     69       1.7134      0.00000
     70       2.4498      0.00000
     71       3.1773      0.00000
     72       3.6167      0.00000
     73       4.2961      0.00000
     74       4.8438      0.00000
     75       4.8920      0.00000
     76       5.3010      0.00000
     77       6.7494      0.00000
     78       6.8621      0.00000
     79       7.1321      0.00000
     80       7.3205      0.00000

 k-point   3 :       0.2857    0.0000    0.0000
  band No.  band energies     occupation 
      1      -8.1472      2.00000
      2      -7.3982      2.00000
      3      -6.1977      2.00000
      4      -4.9791      2.00000
      5      -4.9381      2.00000
      6      -4.5647      2.00000
      7      -4.4361      2.00000
      8      -4.4138      2.00000
      9      -4.3668      2.00000
     10      -4.2252      2.00000
     11      -4.1773      2.00000
     12      -4.1571      2.00000
     13      -4.1272      2.00000
     14      -4.0942      2.00000
     15      -4.0296      2.00000
     16      -4.0039      2.00000
     17      -3.9655      2.00000
     18      -3.7364      2.00000
     19      -3.6947      2.00000
     20      -3.6046      2.00000
     21      -3.5399      2.00000
     22      -3.4827      2.00000
     23      -3.3970      2.00000
     24      -3.2372      2.00000
     25      -3.1721      2.00000
     26      -3.1705      2.00000
     27      -3.0534      2.00000
     28      -2.9632      2.00000
     29      -2.9247      2.00000
     30      -2.9199      2.00000
     31      -2.9128      2.00000
     32      -2.8232      2.00000
     33      -2.8089      2.00000
     34      -2.7445      2.00000
     35      -2.5939      2.00000
     36      -2.5910      2.00000
     37      -2.5180      2.00000
     38      -2.4581      2.00000
     39      -2.4373      2.00000
     40      -2.3616      2.00000
     41      -2.3136      2.00000
     42      -2.2799      2.00000
     43      -2.1989      2.00000
     44      -2.1776      2.00000
     45      -2.1665      2.00000
     46      -2.1330      2.00000
     47      -2.1320      2.00000
     48      -2.1114      2.00000
     49      -2.0912      2.00000
     50      -2.0856      2.00000
     51      -2.0175      2.00000
     52      -1.9820      2.00000
     53      -1.9739      2.00000
     54      -1.9720      2.00000
     55      -1.9276      2.00000
     56      -1.9218      2.00000
     57      -1.8772      2.00000
     58      -1.8748      2.00000
     59      -1.7859      2.00000
     60      -1.7491      2.00000
     61      -1.6969      2.00000
     62      -1.6429      2.00000
     63      -1.6121      2.00000
     64      -1.3426      2.00000
     65      -1.1773      2.00000
     66      -0.2470      0.79660
     67      -0.2118      0.62342
     68       0.9597      0.00000
     69       1.4591      0.00000
     70       2.5005      0.00000
     71       2.7841      0.00000
     72       3.7267      0.00000
     73       4.3449      0.00000
     74       4.7573      0.00000
     75       5.0302      0.00000
     76       5.4988      0.00000
     77       6.3184      0.00000
     78       6.3503      0.00000
     79       7.4880      0.00000
     80       7.5645      0.00000

 k-point   4 :       0.4286    0.0000    0.0000
  band No.  band energies     occupation 
      1      -7.0431      2.00000
      2      -6.3596      2.00000
      3      -5.7832      2.00000
      4      -5.3251      2.00000
      5      -5.2241      2.00000
      6      -4.5152      2.00000
      7      -4.3754      2.00000
      8      -4.1500      2.00000
      9      -4.1189      2.00000
     10      -4.0952      2.00000
     11      -3.9399      2.00000
     12      -3.9290      2.00000
     13      -3.9253      2.00000
     14      -3.8530      2.00000
     15      -3.8235      2.00000
     16      -3.7821      2.00000
     17      -3.7471      2.00000
     18      -3.6571      2.00000
     19      -3.6188      2.00000
     20      -3.5952      2.00000
     21      -3.5792      2.00000
     22      -3.5187      2.00000
     23      -3.4830      2.00000
     24      -3.4332      2.00000
     25      -3.3600      2.00000
     26      -3.3469      2.00000
     27      -3.2936      2.00000
     28      -3.1945      2.00000
     29      -3.0821      2.00000
     30      -3.0225      2.00000
     31      -2.9759      2.00000
     32      -2.8807      2.00000
     33      -2.6914      2.00000
     34      -2.6901      2.00000
     35      -2.6311      2.00000
     36      -2.6096      2.00000
     37      -2.5678      2.00000
     38      -2.5012      2.00000
     39      -2.4686      2.00000
     40      -2.4663      2.00000
     41      -2.4494      2.00000
     42      -2.4293      2.00000
     43      -2.4219      2.00000
     44      -2.4201      2.00000
     45      -2.4101      2.00000
     46      -2.3275      2.00000
     47      -2.2971      2.00000
     48      -2.2797      2.00000
     49      -2.2662      2.00000
     50      -2.2597      2.00000
     51      -2.1733      2.00000
     52      -2.1703      2.00000
     53      -2.1446      2.00000
     54      -2.1247      2.00000
     55      -2.1215      2.00000
     56      -2.0648      2.00000
     57      -2.0541      2.00000
     58      -1.9148      2.00000
     59      -1.8374      2.00000
     60      -1.8071      2.00000
     61      -1.8010      2.00000
     62      -1.6517      2.00000
     63      -1.6515      2.00000
     64      -1.4142      2.00000
     65      -1.3997      2.00000
     66      -0.5972      2.10531
     67      -0.5766      2.07674
     68       0.6530      0.00000
     69       0.9033      0.00000
     70       2.3906      0.00000
     71       2.7561      0.00000
     72       4.2760      0.00000
     73       4.3772      0.00000
     74       5.4129      0.00000
     75       6.0557      0.00000
     76       6.2464      0.00000
     77       6.3529      0.00000
     78       6.5766      0.00000
     79       7.3856      0.00000
     80       7.8163      0.00000

 k-point   5 :       0.1429    0.1429    0.0000
  band No.  band energies     occupation 
      1      -8.6182      2.00000
      2      -7.8505      2.00000
      3      -6.6075      2.00000
      4      -5.2716      2.00000
      5      -4.7053      2.00000
      6      -4.7053      2.00000
      7      -4.6415      2.00000
      8      -4.6326      2.00000
      9      -4.3935      2.00000
     10      -4.3935      2.00000
     11      -4.2952      2.00000
     12      -4.2711      2.00000
     13      -4.2711      2.00000
     14      -4.1194      2.00000
     15      -4.1194      2.00000
     16      -4.1081      2.00000
     17      -3.8524      2.00000
     18      -3.8523      2.00000
     19      -3.7828      2.00000
     20      -3.6526      2.00000
     21      -3.6525      2.00000
     22      -3.4447      2.00000
     23      -3.2634      2.00000
     24      -3.0864      2.00000
     25      -3.0864      2.00000
     26      -3.0281      2.00000
     27      -3.0237      2.00000
     28      -3.0021      2.00000
     29      -2.9883      2.00000
     30      -2.9478      2.00000
     31      -2.8617      2.00000
     32      -2.7013      2.00000
     33      -2.6288      2.00000
     34      -2.5357      2.00000
     35      -2.5357      2.00000
     36      -2.4135      2.00000
     37      -2.3858      2.00000
     38      -2.3633      2.00000
     39      -2.2831      2.00000
     40      -2.2810      2.00000
     41      -2.2810      2.00000
     42      -2.2687      2.00000
     43      -2.2381      2.00000
     44      -2.2187      2.00000
     45      -2.0994      2.00000
     46      -2.0994      2.00000
     47      -2.0616      2.00000
     48      -2.0086      2.00000
     49      -1.9571      2.00000
     50      -1.9570      2.00000
     51      -1.9332      2.00000
     52      -1.9332      2.00000
     53      -1.8987      2.00000
     54      -1.8392      2.00000
     55      -1.8030      2.00000
     56      -1.8030      2.00000
     57      -1.7605      2.00000
     58      -1.7555      2.00000
     59      -1.7371      2.00000
     60      -1.7370      2.00000
     61      -1.6572      2.00000
     62      -1.6207      2.00000
     63      -1.5402      2.00000
     64      -1.5401      2.00000
     65      -0.7824      2.01723
     66       0.8366     -0.01320
     67       1.0956      0.00000
     68       1.0956      0.00000
     69       2.0641      0.00000
     70       2.0707      0.00000
     71       2.0707      0.00000
     72       3.4266      0.00000
     73       3.4266      0.00000
     74       4.5410      0.00000
     75       5.0622      0.00000
     76       5.2015      0.00000
     77       5.2016      0.00000
     78       7.0858      0.00000
     79       7.0858      0.00000
     80       7.0960      0.00000

 k-point   6 :       0.2857    0.1429    0.0000
  band No.  band energies     occupation 
      1      -7.9208      2.00000
      2      -7.1916      2.00000
      3      -6.0403      2.00000
      4      -4.8770      2.00000
      5      -4.8515      2.00000
      6      -4.5107      2.00000
      7      -4.4040      2.00000
      8      -4.3602      2.00000
      9      -4.3341      2.00000
     10      -4.2354      2.00000
     11      -4.2217      2.00000
     12      -4.1760      2.00000
     13      -4.1183      2.00000
     14      -4.0920      2.00000
     15      -4.0355      2.00000
     16      -3.9282      2.00000
     17      -3.8104      2.00000
     18      -3.7047      2.00000
     19      -3.6284      2.00000
     20      -3.5393      2.00000
     21      -3.4911      2.00000
     22      -3.4151      2.00000
     23      -3.3839      2.00000
     24      -3.1626      2.00000
     25      -3.1567      2.00000
     26      -3.1521      2.00000
     27      -3.0547      2.00000
     28      -2.9741      2.00000
     29      -2.9278      2.00000
     30      -2.9205      2.00000
     31      -2.9175      2.00000
     32      -2.9153      2.00000
     33      -2.8727      2.00000
     34      -2.8033      2.00000
     35      -2.7062      2.00000
     36      -2.5889      2.00000
     37      -2.5695      2.00000
     38      -2.5115      2.00000
     39      -2.4702      2.00000
     40      -2.4509      2.00000
     41      -2.3678      2.00000
     42      -2.3443      2.00000
     43      -2.3272      2.00000
     44      -2.2958      2.00000
     45      -2.2734      2.00000
     46      -2.2322      2.00000
     47      -2.2004      2.00000
     48      -2.1828      2.00000
     49      -2.1439      2.00000
     50      -2.1370      2.00000
     51      -2.0556      2.00000
     52      -2.0007      2.00000
     53      -1.9626      2.00000
     54      -1.9266      2.00000
     55      -1.8522      2.00000
     56      -1.8470      2.00000
     57      -1.8135      2.00000
     58      -1.8093      2.00000
     59      -1.7959      2.00000
     60      -1.6981      2.00000
     61      -1.6642      2.00000
     62      -1.6623      2.00000
     63      -1.6591      2.00000
     64      -1.3441      2.00000
     65      -0.7165      2.00923
     66      -0.0474      0.23672
     67       0.0226      0.10033
     68       1.1341      0.00000
     69       1.7112      0.00000
     70       2.1550      0.00000
     71       2.5646      0.00000
     72       2.9116      0.00000
     73       3.1115      0.00000
     74       4.4680      0.00000
     75       4.6330      0.00000
     76       5.2745      0.00000
     77       5.7061      0.00000
     78       6.1182      0.00000
     79       6.6085      0.00000
     80       7.1985      0.00000

 k-point   7 :       0.4286    0.1429    0.0000
  band No.  band energies     occupation 
      1      -6.8418      2.00000
      2      -6.2001      2.00000
      3      -5.6232      2.00000
      4      -5.2731      2.00000
      5      -5.1459      2.00000
      6      -4.6100      2.00000
      7      -4.4778      2.00000
      8      -4.2658      2.00000
      9      -4.0835      2.00000
     10      -4.0573      2.00000
     11      -4.0338      2.00000
     12      -4.0177      2.00000
     13      -3.8718      2.00000
     14      -3.8622      2.00000
     15      -3.7775      2.00000
     16      -3.7252      2.00000
     17      -3.6465      2.00000
     18      -3.6090      2.00000
     19      -3.5787      2.00000
     20      -3.4680      2.00000
     21      -3.4052      2.00000
     22      -3.4046      2.00000
     23      -3.3784      2.00000
     24      -3.3758      2.00000
     25      -3.3510      2.00000
     26      -3.2968      2.00000
     27      -3.2319      2.00000
     28      -3.1001      2.00000
     29      -3.0565      2.00000
     30      -3.0110      2.00000
     31      -3.0011      2.00000
     32      -2.9395      2.00000
     33      -2.7901      2.00000
     34      -2.7630      2.00000
     35      -2.6898      2.00000
     36      -2.6829      2.00000
     37      -2.6453      2.00000
     38      -2.6364      2.00000
     39      -2.6107      2.00000
     40      -2.5569      2.00000
     41      -2.5502      2.00000
     42      -2.5475      2.00000
     43      -2.4897      2.00000
     44      -2.4017      2.00000
     45      -2.4006      2.00000
     46      -2.3783      2.00000
     47      -2.3091      2.00000
     48      -2.1909      2.00000
     49      -2.1769      2.00000
     50      -2.1175      2.00000
     51      -2.1098      2.00000
     52      -2.1048      2.00000
     53      -2.0313      2.00000
     54      -2.0033      2.00000
     55      -1.9390      2.00000
     56      -1.9323      2.00000
     57      -1.9100      2.00000
     58      -1.9039      2.00000
     59      -1.8040      2.00000
     60      -1.7699      2.00000
     61      -1.7333      2.00000
     62      -1.7063      2.00000
     63      -1.6418      2.00000
     64      -1.4340      2.00000
     65      -1.3228      2.03545
     66      -0.5587      2.03294
     67      -0.5486      1.95033
     68       0.7155      0.00000
     69       1.0198      0.00000
     70       2.4275      0.00000
     71       2.9257      0.00000
     72       3.4524      0.00000
     73       4.4766      0.00000
     74       4.5130      0.00000
     75       4.6013      0.00000
     76       5.2339      0.00000
     77       5.8339      0.00000
     78       6.1145      0.00000
     79       6.3004      0.00000
     80       6.4882      0.00000

 k-point   8 :       0.2857    0.2857    0.0000
  band No.  band energies     occupation 
      1      -7.2657      2.00000
      2      -6.6084      2.00000
      3      -5.6358      2.00000
      4      -4.7580      2.00000
      5      -4.5731      2.00000
      6      -4.5731      2.00000
      7      -4.4996      2.00000
      8      -4.4995      2.00000
      9      -4.2811      2.00000
     10      -4.2521      2.00000
     11      -4.2519      2.00000
     12      -4.1933      2.00000
     13      -3.9791      2.00000
     14      -3.8602      2.00000
     15      -3.8602      2.00000
     16      -3.7099      2.00000
     17      -3.6439      2.00000
     18      -3.6439      2.00000
     19      -3.4054      2.00000
     20      -3.3393      2.00000
     21      -3.3393      2.00000
     22      -3.3219      2.00000
     23      -3.2367      2.00000
     24      -3.1382      2.00000
     25      -3.1382      2.00000
     26      -3.1263      2.00000
     27      -3.1090      2.00000
     28      -3.0672      2.00000
     29      -3.0672      2.00000
     30      -3.0035      2.00000
     31      -2.9471      2.00000
     32      -2.9425      2.00000
     33      -2.8584      2.00000
     34      -2.8503      2.00000
     35      -2.7925      2.00000
     36      -2.7129      2.00000
     37      -2.6628      2.00000
     38      -2.6628      2.00000
     39      -2.6412      2.00000
     40      -2.6397      2.00000
     41      -2.5546      2.00000
     42      -2.5545      2.00000
     43      -2.4621      2.00000
     44      -2.4179      2.00000
     45      -2.4178      2.00000
     46      -2.3722      2.00000
     47      -2.1089      2.00000
     48      -2.1054      2.00000
     49      -2.1053      2.00000
     50      -2.0872      2.00000
     51      -2.0589      2.00000
     52      -1.9964      2.00000
     53      -1.9833      2.00000
     54      -1.9393      2.00000
     55      -1.9393      2.00000
     56      -1.8310      2.00000
     57      -1.7695      2.00000
     58      -1.7695      2.00000
     59      -1.7538      2.00000
     60      -1.6990      2.00000
     61      -1.6838      2.00000
     62      -1.6837      2.00000
     63      -1.6624      2.00000
     64      -1.1673      2.00000
     65       0.1428      0.93066
     66       0.1428     -0.05265
     67       0.4644     -0.32036
     68       0.6707     -0.00235
     69       0.6708      0.00000
     70       1.4524      0.00000
     71       1.4524      0.00000
     72       2.3784      0.00000
     73       3.7634      0.00000
     74       3.7635      0.00000
     75       3.9569      0.00000
     76       4.8221      0.00000
     77       5.5105      0.00000
     78       5.5105      0.00000
     79       5.7354      0.00000
     80       6.0044      0.00000

 k-point   9 :       0.4286    0.2857    0.0000
  band No.  band energies     occupation 
      1      -6.2774      2.00000
      2      -5.7873      2.00000
      3      -5.2177      2.00000
      4      -5.1682      2.00000
      5      -5.0120      2.00000
      6      -4.7827      2.00000
      7      -4.6435      2.00000
      8      -4.5243      2.00000
      9      -4.2290      2.00000
     10      -4.2149      2.00000
     11      -4.0623      2.00000
     12      -4.0177      2.00000
     13      -3.8167      2.00000
     14      -3.7147      2.00000
     15      -3.5686      2.00000
     16      -3.5562      2.00000
     17      -3.5350      2.00000
     18      -3.5183      2.00000
     19      -3.4824      2.00000
     20      -3.2738      2.00000
     21      -3.2692      2.00000
     22      -3.2283      2.00000
     23      -3.2281      2.00000
     24      -3.2098      2.00000
     25      -3.1031      2.00000
     26      -3.0940      2.00000
     27      -3.0723      2.00000
     28      -3.0720      2.00000
     29      -3.0640      2.00000
     30      -3.0140      2.00000
     31      -2.9950      2.00000
     32      -2.9875      2.00000
     33      -2.8777      2.00000
     34      -2.8479      2.00000
     35      -2.8352      2.00000
     36      -2.7738      2.00000
     37      -2.7563      2.00000
     38      -2.7482      2.00000
     39      -2.7148      2.00000
     40      -2.6442      2.00000
     41      -2.5201      2.00000
     42      -2.5106      2.00000
     43      -2.4706      2.00000
     44      -2.4592      2.00000
     45      -2.4539      2.00000
     46      -2.3348      2.00000
     47      -2.3008      2.00000
     48      -2.1373      2.00000
     49      -2.0779      2.00000
     50      -2.0246      2.00000
     51      -1.9952      2.00000
     52      -1.9609      2.00000
     53      -1.8832      2.00000
     54      -1.8487      2.00000
     55      -1.8408      2.00000
     56      -1.8339      2.00000
     57      -1.8140      2.00000
     58      -1.8001      2.00000
     59      -1.7672      2.00000
     60      -1.7439      2.00000
     61      -1.7392      2.00000
     62      -1.6842      2.00000
     63      -1.5298      2.00000
     64      -1.1508      2.00000
     65      -0.9531      2.05249
     66      -0.4737      1.92046
     67      -0.3889      1.70113
     68       0.6926     -0.07831
     69       1.2438      0.00000
     70       1.2559      0.00000
     71       1.4487      0.00000
     72       2.5311      0.00000
     73       3.5386      0.00000
     74       3.5450      0.00000
     75       3.7677      0.00000
     76       3.8136      0.00000
     77       5.0874      0.00000
     78       5.1982      0.00000
     79       5.3811      0.00000
     80       5.3816      0.00000

 k-point  10 :       0.4286    0.4286    0.0000
  band No.  band energies     occupation 
      1      -5.5020      2.00000
      2      -5.3178      2.00000
      3      -5.0647      2.00000
      4      -4.9982      2.00000
      5      -4.9981      2.00000
      6      -4.8279      2.00000
      7      -4.8279      2.00000
      8      -4.7412      2.00000
      9      -4.3563      2.00000
     10      -4.3117      2.00000
     11      -4.3116      2.00000
     12      -4.1693      2.00000
     13      -3.5631      2.00000
     14      -3.4562      2.00000
     15      -3.4562      2.00000
     16      -3.3747      2.00000
     17      -3.3671      2.00000
     18      -3.3438      2.00000
     19      -3.3438      2.00000
     20      -3.2710      2.00000
     21      -3.2710      2.00000
     22      -3.2433      2.00000
     23      -3.1874      2.00000
     24      -3.1626      2.00000
     25      -3.1127      2.00000
     26      -3.1127      2.00000
     27      -3.0718      2.00000
     28      -3.0623      2.00000
     29      -2.9694      2.00000
     30      -2.9258      2.00000
     31      -2.9258      2.00000
     32      -2.9234      2.00000
     33      -2.8854      2.00000
     34      -2.8854      2.00000
     35      -2.8824      2.00000
     36      -2.8504      2.00000
     37      -2.7161      2.00000
     38      -2.7139      2.00000
     39      -2.6853      2.00000
     40      -2.6853      2.00000
     41      -2.5521      2.00000
     42      -2.5005      2.00000
     43      -2.4776      2.00000
     44      -2.4775      2.00000
     45      -2.1561      2.00000
     46      -2.1152      2.00000
     47      -2.1045      2.00000
     48      -2.1045      2.00000
     49      -2.0079      2.00000
     50      -2.0079      2.00000
     51      -2.0073      2.00000
     52      -1.8785      2.00000
     53      -1.8447      2.00000
     54      -1.7957      2.00000
     55      -1.7956      2.00000
     56      -1.7717      2.00000
     57      -1.7538      2.00000
     58      -1.7538      2.00000
     59      -1.7503      2.00000
     60      -1.6999      2.00000
     61      -1.4988      2.00000
     62      -1.3453      2.00000
     63      -1.2109      2.00000
     64      -0.4492      2.00000
     65      -0.4492      1.96403
     66      -0.3281      1.90742
     67      -0.3280      1.84927
     68      -0.2545      0.70785
     69      -0.0126      0.00000
     70      -0.0125      0.00000
     71       0.7690      0.00000
     72       0.8616      0.00000
     73       3.1343      0.00000
     74       3.1344      0.00000
     75       3.2063      0.00000
     76       3.2241      0.00000
     77       4.7837      0.00000
     78       4.8270      0.00000
     79       4.8270      0.00000
     80       5.0033      0.00000


--------------------------------------------------------------------------------------------------------


 soft charge-density along one line, spin component           1
         0         1         2         3         4         5         6         7         8         9
 total charge-density along one line
 
 pseudopotential strength for first ion, spin component:           1
 -9.071   0.000   0.000   0.000   0.000   0.931   0.000   0.000
  0.000  -9.046   0.000   0.000   0.000   0.000   0.919   0.000
  0.000   0.000  -9.029   0.000   0.000   0.000   0.000   0.912
  0.000   0.000   0.000  -9.046   0.000   0.000   0.000   0.000
  0.000   0.000   0.000   0.000  -9.048   0.000   0.000   0.000
  0.931   0.000   0.000   0.000   0.000   1.147   0.000   0.000
  0.000   0.919   0.000   0.000   0.000   0.000   1.152   0.000
  0.000   0.000   0.912   0.000   0.000   0.000   0.000   1.156
  0.000   0.000   0.000   0.919   0.000   0.000   0.000   0.000
  0.000   0.000   0.000   0.000   0.922   0.000   0.000   0.000
  0.000   0.000  -0.005   0.000   0.000   0.000   0.000   0.002
  0.000   0.000   0.000   0.000   0.000   0.000   0.000   0.000
  0.000  -0.013   0.000   0.000   0.000   0.000   0.008   0.000
  0.000   0.000  -0.015   0.000   0.000   0.000   0.000   0.008
  0.000   0.000   0.000  -0.013   0.000   0.000   0.000   0.000
  0.000   0.007   0.000   0.000   0.000   0.000  -0.004   0.000
  0.000   0.000   0.009   0.000   0.000   0.000   0.000  -0.004
  0.000   0.000   0.000   0.007   0.000   0.000   0.000   0.000
 total augmentation occupancy for first ion, spin component:           1
  1.916   0.000   0.000   0.000   0.000   0.003   0.000   0.000   0.000   0.000   0.000   0.000   0.000   0.000   0.000   0.000
  0.000   1.921   0.000   0.000   0.000   0.000  -0.034   0.000   0.000   0.000   0.000   0.000   0.015   0.000   0.000  -0.008
  0.000   0.000   1.932   0.000   0.000   0.000   0.000  -0.059   0.000   0.000   0.020   0.031   0.000   0.015   0.000   0.000
  0.000   0.000   0.000   1.921   0.000   0.000   0.000   0.000  -0.034   0.000   0.000   0.000   0.000   0.000   0.015   0.000
  0.000   0.000   0.000   0.000   1.920   0.000   0.000   0.000   0.000  -0.053   0.000   0.000   0.000   0.000   0.000   0.000
  0.003   0.000   0.000   0.000   0.000   0.059   0.000   0.000   0.000   0.000   0.000   0.000   0.000   0.000   0.000   0.000
  0.000  -0.034   0.000   0.000   0.000   0.000   0.046   0.000   0.000   0.000   0.000   0.000   0.044   0.000   0.000  -0.003
  0.000   0.000  -0.059   0.000   0.000   0.000   0.000   0.052   0.000   0.000  -0.061   0.009   0.000   0.038   0.000   0.000
  0.000   0.000   0.000  -0.034   0.000   0.000   0.000   0.000   0.046   0.000   0.000   0.000   0.000   0.000   0.044   0.000
  0.000   0.000   0.000   0.000  -0.053   0.000   0.000   0.000   0.000   0.055   0.000   0.000   0.000   0.000   0.000   0.000
  0.000   0.000   0.020   0.000   0.000   0.000   0.000  -0.061   0.000   0.000   1.226  -0.276   0.000   0.094   0.000   0.000
  0.000   0.000   0.031   0.000   0.000   0.000   0.000   0.009   0.000   0.000  -0.276   0.108   0.000  -0.054   0.000   0.000
  0.000   0.015   0.000   0.000   0.000   0.000   0.044   0.000   0.000   0.000   0.000   0.000   0.150   0.000   0.000  -0.010
  0.000   0.000   0.015   0.000   0.000   0.000   0.000   0.038   0.000   0.000   0.094  -0.054   0.000   0.088   0.000   0.000
  0.000   0.000   0.000   0.015   0.000   0.000   0.000   0.000   0.044   0.000   0.000   0.000   0.000   0.000   0.150   0.000
  0.000  -0.008   0.000   0.000   0.000   0.000  -0.003   0.000   0.000   0.000   0.000   0.000  -0.010   0.000   0.000   0.001
  0.000   0.000  -0.009   0.000   0.000   0.000   0.000  -0.002   0.000   0.000  -0.017   0.007   0.000  -0.007   0.000   0.000
  0.000   0.000   0.000  -0.008   0.000   0.000   0.000   0.000  -0.003   0.000   0.000   0.000   0.000   0.000  -0.010   0.000


------------------------ aborting loop because EDIFF is reached ----------------------------------------


    CHARGE:  cpu time    1.32: real time    1.33
    FORLOC:  cpu time    0.05: real time    0.05
    FORNL :  cpu time   23.23: real time   23.23
    STRESS:  cpu time   62.67: real time   62.67
    FORCOR:  cpu time    0.46: real time    0.47
    FORHAR:  cpu time    0.16: real time    0.15
    MIXING:  cpu time    0.03: real time    0.03

  FORCE on cell =-STRESS in cart. coord.  units (eV):
  Direction    XX          YY          ZZ          XY          YZ          ZX
  --------------------------------------------------------------------------------------
  Alpha Z   667.73723   667.73723   667.73723
  Ewald   45232.61913 45232.61913-53912.78721     0.00000     0.00000     0.00000
  Hartree 49801.52491 49801.52491-47268.54081     0.00000     0.00000     0.00000
  E(xc)    -750.80365  -750.80365  -751.77130     0.00000     0.00000     0.00000
  Local  -96124.06904-96124.06904100089.89896     0.00000     0.00000     0.00000
  n-local  -438.59501  -451.02033  -445.77401     3.73422     0.00000     0.00000
  augment   674.87386   674.87388   676.23222    -0.00010    -0.00009    -0.00007
  Kinetic   954.78707   926.69002   944.45403    -3.75615     0.00000     0.00000
  Fock        0.00000     0.00000     0.00000     0.00000     0.00000     0.00000
  -------------------------------------------------------------------------------------
  Total      -2.18667    -2.18667    -0.55089     0.00000     0.00000     0.00000
  in kB     -12.71553   -12.71553    -3.20344     0.00000     0.00000     0.00000
  external pressure =       -9.54 kB  Pullay stress =        0.00 kB


 VOLUME and BASIS-vectors are now :
 -----------------------------------------------------------------------------
  energy-cutoff  :      415.00
  volume of cell :      275.52
      direct lattice vectors                 reciprocal lattice vectors
     3.631354857  0.000000000  0.000000000     0.275379311  0.000000000  0.000000000
     0.000000000  3.631354857  0.000000000     0.000000000  0.275379311  0.000000000
     0.000000000  0.000000000 20.894064570     0.000000000  0.000000000  0.047860482

  length of vectors
     3.631354857  3.631354857 20.894064570     0.275379311  0.275379311  0.047860482


 FORCES acting on ions
    electron-ion (+dipol)            ewald-force                    non-local-force                 convergence-correction
 -----------------------------------------------------------------------------------------------
   -.385E-13 -.760E-13 0.394E+04   -.598E-14 0.541E-14 -.394E+04   -.265E-22 0.000E+00 -.263E+01   0.110E-12 0.861E-13 -.302E-02
   -.639E-13 -.789E-13 0.795E+03   0.107E-13 0.137E-13 -.795E+03   -.529E-22 -.106E-21 0.142E-01   0.723E-13 0.120E-12 -.150E-02
   -.746E-13 -.480E-13 -.239E+04   -.149E-13 0.349E-14 0.239E+04   -.106E-21 -.132E-21 0.725E+00   -.365E-13 0.151E-12 0.352E-02
   0.669E-12 0.113E-11 0.394E+04   -.208E-13 -.947E-14 -.394E+04   -.265E-22 0.000E+00 -.263E+01   0.770E-13 0.775E-13 -.302E-02
   0.660E-12 0.215E-11 0.795E+03   -.977E-14 0.745E-15 -.795E+03   -.265E-21 -.106E-21 0.142E-01   -.439E-13 0.936E-13 -.150E-02
   0.608E-12 0.512E-12 -.239E+04   -.351E-13 -.103E-13 0.239E+04   0.529E-22 -.132E-21 0.725E+00   -.463E-13 0.819E-13 0.352E-02
   0.662E-12 -.174E-13 0.239E+04   -.158E-13 0.444E-14 -.239E+04   -.794E-22 0.529E-22 -.725E+00   0.329E-13 0.631E-13 -.362E-02
   0.630E-12 -.831E-13 -.795E+03   -.144E-13 0.772E-14 0.795E+03   -.106E-21 -.529E-22 -.142E-01   -.127E-13 0.700E-13 0.132E-02
   0.599E-12 -.516E-15 -.394E+04   0.219E-13 0.740E-14 0.394E+04   -.265E-22 0.000E+00 0.263E+01   -.825E-13 0.707E-13 0.304E-02
   0.419E-14 0.732E-12 0.239E+04   -.229E-13 -.107E-13 -.239E+04   -.132E-21 0.529E-22 -.725E+00   0.830E-13 0.533E-13 -.362E-02
   -.461E-13 0.762E-12 -.795E+03   -.154E-13 -.645E-14 0.795E+03   0.000E+00 -.529E-22 -.142E-01   0.581E-13 0.893E-13 0.132E-02
   -.473E-13 0.814E-12 -.394E+04   0.135E-13 -.729E-14 0.394E+04   -.265E-22 0.000E+00 0.263E+01   -.422E-13 0.105E-12 0.304E-02
 -----------------------------------------------------------------------------------------------
   0.356E-11 0.579E-11 -.111E-02   -.109E-12 -.129E-14 0.909E-12   -.794E-21 -.476E-21 0.133E-14   0.169E-12 0.106E-11 -.523E-03
 
 
 POSITION                                       TOTAL-FORCE (eV/Angst)
 -----------------------------------------------------------------------------------
      0.00000      0.00000      0.03769         0.000000      0.000000      0.015331
      0.00000      0.00000      3.63390         0.000000      0.000000      0.011160
      0.00000      0.00000      7.26549         0.000000      0.000000      0.024175
      1.81568      1.81568      0.03769         0.000000      0.000000      0.015331
      1.81568      1.81568      3.63390         0.000000      0.000000      0.011160
      1.81568      1.81568      7.26549         0.000000      0.000000      0.024175
      1.81568      0.00000      1.81290         0.000000      0.000000     -0.024175
      1.81568      0.00000      5.44448         0.000000      0.000000     -0.011160
      1.81568      0.00000      9.04069         0.000000      0.000000     -0.015331
      0.00000      1.81568      1.81290         0.000000      0.000000     -0.024175
      0.00000      1.81568      5.44448         0.000000      0.000000     -0.011160
      0.00000      1.81568      9.04069         0.000000      0.000000     -0.015331
 -----------------------------------------------------------------------------------
    total drift:                                0.000000      0.000000     -0.001628


--------------------------------------------------------------------------------------------------------



  FREE ENERGIE OF THE ION-ELECTRON SYSTEM (eV)
  ---------------------------------------------------
  free  energy   TOTEN  =       -42.223217 eV

  energy  without entropy=      -42.223217  energy(sigma->0) =      -42.223217
 
 d Force = 0.1492305E-03[-0.212E-03, 0.510E-03]  d Energy =-0.5183969E-03 0.668E-03
 d Force =-0.2231540E+03[-0.223E+03,-0.223E+03]  d Ewald  =-0.2231540E+03 0.279E-04


--------------------------------------------------------------------------------------------------------


    POTLOK:  cpu time    0.51: real time    0.51


--------------------------------------------------------------------------------------------------------




--------------------------------------------------------------------------------------------------------


    WAVPRE:  cpu time    0.11: real time    0.11
    FEWALD:  cpu time    0.00: real time    0.00
    ORTHCH:  cpu time    7.73: real time    7.73
     LOOP+:  cpu time  651.75: real time  651.81


----------------------------------------- Iteration   13(   1)  ---------------------------------------


    POTLOK:  cpu time    0.44: real time    0.44
    SETDIJ:  cpu time    0.06: real time    0.06
     EDDAV:  cpu time   53.38: real time   53.38
 BZINTS: Fermi energy: -0.232269;132.000000 electrons
         Band energy:-395.836986;  BLOECHL correction: -0.140175
       DOS:  cpu time    0.04: real time    0.04
    CHARGE:  cpu time    1.32: real time    1.32
    MIXING:  cpu time    0.02: real time    0.01
    --------------------------------------------
      LOOP:  cpu time   55.25: real time   55.26

 eigenvalue-minimisations  :  1600
 total energy-change (2. order) :-0.2521248E-03  (-0.2728462E-01)
 number of electron     131.9999637 magnetization 
 augmentation part       86.4588899 magnetization 

 Broyden mixing:
  rms(total) = 0.33079E-02    rms(broyden)= 0.33047E-02
  rms(prec ) = 0.35514E-02
  weight for this iteration     100.00

 Free energy of the ion-electron system (eV)
  ---------------------------------------------------
  alpha Z        PSCENC =       667.73722884
  Ewald energy   TEWEN  =     36486.93484610
  -1/2 Hartree   DENC   =    -52269.07064985
  -exchange  EXHF       =         0.00000000
  -V(xc)+E(xc)   XCENC  =       512.15489137
  PAW double counting   =     13125.75720363   -14861.55701036
  entropy T*S    EENTRO =         0.00000000
  eigenvalues    EBANDS =      -395.83698629
  atomic energy  EATOM  =     16691.65700843
  ---------------------------------------------------
  free energy    TOTEN  =       -42.22346813 eV

  energy without entropy =      -42.22346813  energy(sigma->0) =      -42.22346813


--------------------------------------------------------------------------------------------------------




----------------------------------------- Iteration   13(   2)  ---------------------------------------


    POTLOK:  cpu time    0.44: real time    0.44
    SETDIJ:  cpu time    0.06: real time    0.06
     EDDAV:  cpu time   56.33: real time   56.33
 BZINTS: Fermi energy: -0.232299;132.000000 electrons
         Band energy:-395.798306;  BLOECHL correction: -0.140058
       DOS:  cpu time    0.04: real time    0.04
    CHARGE:  cpu time    1.34: real time    1.34
    MIXING:  cpu time    0.02: real time    0.02
    --------------------------------------------
      LOOP:  cpu time   58.23: real time   58.23

 eigenvalue-minimisations  :  1720
 total energy-change (2. order) : 0.1351394E-04  (-0.7027130E-04)
 number of electron     131.9999637 magnetization 
 augmentation part       86.4576729 magnetization 

 Broyden mixing:
  rms(total) = 0.34746E-02    rms(broyden)= 0.34742E-02
  rms(prec ) = 0.38006E-02
  weight for this iteration     100.00

 eigenvalues of (default mixing * dielectric matrix)
  average eigenvalue GAMMA=   0.4586
  0.4586

 Free energy of the ion-electron system (eV)
  ---------------------------------------------------
  alpha Z        PSCENC =       667.73722884
  Ewald energy   TEWEN  =     36486.93484610
  -1/2 Hartree   DENC   =    -52269.09910938
  -exchange  EXHF       =         0.00000000
  -V(xc)+E(xc)   XCENC  =       512.15904431
  PAW double counting   =     13125.53246416   -14861.34663068
  entropy T*S    EENTRO =         0.00000000
  eigenvalues    EBANDS =      -395.79830639
  atomic energy  EATOM  =     16691.65700843
  ---------------------------------------------------
  free energy    TOTEN  =       -42.22345461 eV

  energy without entropy =      -42.22345461  energy(sigma->0) =      -42.22345461


--------------------------------------------------------------------------------------------------------




----------------------------------------- Iteration   13(   3)  ---------------------------------------


    POTLOK:  cpu time    0.44: real time    0.44
    SETDIJ:  cpu time    0.06: real time    0.06
     EDDAV:  cpu time   54.48: real time   54.49
 BZINTS: Fermi energy: -0.231670;132.000000 electrons
         Band energy:-395.716385;  BLOECHL correction: -0.140155
       DOS:  cpu time    0.04: real time    0.04
    CHARGE:  cpu time    1.33: real time    1.33
    MIXING:  cpu time    0.02: real time    0.02
    --------------------------------------------
      LOOP:  cpu time   56.38: real time   56.38

 eigenvalue-minimisations  :  1648
 total energy-change (2. order) :-0.4386213E-04  (-0.1307427E-04)
 number of electron     131.9999637 magnetization 
 augmentation part       86.4569065 magnetization 

 Broyden mixing:
  rms(total) = 0.18254E-02    rms(broyden)= 0.18253E-02
  rms(prec ) = 0.19692E-02
  weight for this iteration     100.00

 eigenvalues of (default mixing * dielectric matrix)
  average eigenvalue GAMMA=   1.4024
  0.4169  2.3880

 Free energy of the ion-electron system (eV)
  ---------------------------------------------------
  alpha Z        PSCENC =       667.73722884
  Ewald energy   TEWEN  =     36486.93484610
  -1/2 Hartree   DENC   =    -52269.18519294
  -exchange  EXHF       =         0.00000000
  -V(xc)+E(xc)   XCENC  =       512.15909514
  PAW double counting   =     13125.43669798   -14861.24679682
  entropy T*S    EENTRO =         0.00000000
  eigenvalues    EBANDS =      -395.71638521
  atomic energy  EATOM  =     16691.65700843
  ---------------------------------------------------
  free energy    TOTEN  =       -42.22349848 eV

  energy without entropy =      -42.22349848  energy(sigma->0) =      -42.22349848


--------------------------------------------------------------------------------------------------------




----------------------------------------- Iteration   13(   4)  ---------------------------------------


    POTLOK:  cpu time    0.44: real time    0.44
    SETDIJ:  cpu time    0.06: real time    0.06
     EDDAV:  cpu time   64.00: real time   64.05
 BZINTS: Fermi energy: -0.232724;132.000000 electrons
         Band energy:-395.894236;  BLOECHL correction: -0.140077
       DOS:  cpu time    0.04: real time    0.04
    CHARGE:  cpu time    1.34: real time    1.35
    MIXING:  cpu time    0.02: real time    0.02
    --------------------------------------------
      LOOP:  cpu time   65.92: real time   65.96

 eigenvalue-minimisations  :  2024
 total energy-change (2. order) : 0.7911898E-04  (-0.3447166E-05)
 number of electron     131.9999637 magnetization 
 augmentation part       86.4586049 magnetization 

 Broyden mixing:
  rms(total) = 0.52164E-03    rms(broyden)= 0.52160E-03
  rms(prec ) = 0.63516E-03
  weight for this iteration     100.00

 eigenvalues of (default mixing * dielectric matrix)
  average eigenvalue GAMMA=   1.2384
  2.6483  0.6689  0.3979

 Free energy of the ion-electron system (eV)
  ---------------------------------------------------
  alpha Z        PSCENC =       667.73722884
  Ewald energy   TEWEN  =     36486.93484610
  -1/2 Hartree   DENC   =    -52269.05341605
  -exchange  EXHF       =         0.00000000
  -V(xc)+E(xc)   XCENC  =       512.15740502
  PAW double counting   =     13124.93563163   -14860.69788706
  entropy T*S    EENTRO =         0.00000000
  eigenvalues    EBANDS =      -395.89423627
  atomic energy  EATOM  =     16691.65700843
  ---------------------------------------------------
  free energy    TOTEN  =       -42.22341936 eV

  energy without entropy =      -42.22341936  energy(sigma->0) =      -42.22341936


--------------------------------------------------------------------------------------------------------




----------------------------------------- Iteration   13(   5)  ---------------------------------------


    POTLOK:  cpu time    0.44: real time    0.44
    SETDIJ:  cpu time    0.07: real time    0.07
     EDDAV:  cpu time   54.08: real time   54.08
 BZINTS: Fermi energy: -0.232180;132.000000 electrons
         Band energy:-395.802982;  BLOECHL correction: -0.140107
       DOS:  cpu time    0.04: real time    0.04
    CHARGE:  cpu time    1.35: real time    1.35
    MIXING:  cpu time    0.02: real time    0.02
    --------------------------------------------
      LOOP:  cpu time   55.99: real time   56.00

 eigenvalue-minimisations  :  1632
 total energy-change (2. order) :-0.2436501E-04  (-0.1221247E-05)
 number of electron     131.9999637 magnetization 
 augmentation part       86.4577452 magnetization 

 Broyden mixing:
  rms(total) = 0.46115E-03    rms(broyden)= 0.46111E-03
  rms(prec ) = 0.49910E-03
  weight for this iteration     100.00

 eigenvalues of (default mixing * dielectric matrix)
  average eigenvalue GAMMA=   1.0109
  2.5858  0.5855  0.5091  0.3631

 Free energy of the ion-electron system (eV)
  ---------------------------------------------------
  alpha Z        PSCENC =       667.73722884
  Ewald energy   TEWEN  =     36486.93484610
  -1/2 Hartree   DENC   =    -52269.13409316
  -exchange  EXHF       =         0.00000000
  -V(xc)+E(xc)   XCENC  =       512.15931584
  PAW double counting   =     13124.94055768   -14860.71532547
  entropy T*S    EENTRO =         0.00000000
  eigenvalues    EBANDS =      -395.80298198
  atomic energy  EATOM  =     16691.65700843
  ---------------------------------------------------
  free energy    TOTEN  =       -42.22344372 eV

  energy without entropy =      -42.22344372  energy(sigma->0) =      -42.22344372


--------------------------------------------------------------------------------------------------------




----------------------------------------- Iteration   13(   6)  ---------------------------------------


    POTLOK:  cpu time    0.44: real time    0.44
    SETDIJ:  cpu time    0.06: real time    0.06
     EDDAV:  cpu time   39.84: real time   39.84
 BZINTS: Fermi energy: -0.232149;132.000000 electrons
         Band energy:-395.794608;  BLOECHL correction: -0.140101
       DOS:  cpu time    0.04: real time    0.04
    --------------------------------------------
      LOOP:  cpu time   40.39: real time   40.39

 eigenvalue-minimisations  :  1064
 total energy-change (2. order) : 0.7591370E-07  (-0.2521417E-06)
 number of electron     131.9999637 magnetization 
 augmentation part       86.4577452 magnetization 

 Free energy of the ion-electron system (eV)
  ---------------------------------------------------
  alpha Z        PSCENC =       667.73722884
  Ewald energy   TEWEN  =     36486.93484610
  -1/2 Hartree   DENC   =    -52269.14023154
  -exchange  EXHF       =         0.00000000
  -V(xc)+E(xc)   XCENC  =       512.15949158
  PAW double counting   =     13124.95815646   -14860.73533508
  entropy T*S    EENTRO =         0.00000000
  eigenvalues    EBANDS =      -395.79460843
  atomic energy  EATOM  =     16691.65700843
  ---------------------------------------------------
  free energy    TOTEN  =       -42.22344365 eV

  energy without entropy =      -42.22344365  energy(sigma->0) =      -42.22344365


--------------------------------------------------------------------------------------------------------




 average (electrostatic) potential at core
  the test charge radii are     1.0053
  (the norm of the test charge is              1.0000)
       1 -43.4858       2 -43.7959       3 -43.8538       4 -43.4858       5 -43.7959
       6 -43.8538       7 -43.8540       8 -43.7958       9 -43.4857      10 -43.8540
      11 -43.7958      12 -43.4857
 
 
 
 E-fermi :  -0.2321     XC(G=0):  -7.5031     alpha+bet : -4.9539


 k-point   1 :       0.0000    0.0000    0.0000
  band No.  band energies     occupation 
      1      -9.0945      2.00000
      2      -8.3105      2.00000
      3      -7.0262      2.00000
      4      -5.6125      2.00000
      5      -4.9026      2.00000
      6      -4.8702      2.00000
      7      -4.8151      2.00000
      8      -4.8151      2.00000
      9      -4.4923      2.00000
     10      -4.4923      2.00000
     11      -4.4167      2.00000
     12      -4.4038      2.00000
     13      -4.4038      2.00000
     14      -4.2191      2.00000
     15      -4.1423      2.00000
     16      -4.1423      2.00000
     17      -3.9540      2.00000
     18      -3.9539      2.00000
     19      -3.8668      2.00000
     20      -3.6686      2.00000
     21      -3.6686      2.00000
     22      -3.4764      2.00000
     23      -3.2229      2.00000
     24      -3.1250      2.00000
     25      -3.0568      2.00000
     26      -3.0568      2.00000
     27      -3.0100      2.00000
     28      -3.0100      2.00000
     29      -2.8468      2.00000
     30      -2.8468      2.00000
     31      -2.6214      2.00000
     32      -2.5848      2.00000
     33      -2.4931      2.00000
     34      -2.4931      2.00000
     35      -2.3581      2.00000
     36      -2.3197      2.00000
     37      -2.3116      2.00000
     38      -2.3116      2.00000
     39      -2.2837      2.00000
     40      -2.2039      2.00000
     41      -2.2002      2.00000
     42      -2.2002      2.00000
     43      -2.0741      2.00000
     44      -2.0741      2.00000
     45      -2.0372      2.00000
     46      -1.9344      2.00000
     47      -1.9343      2.00000
     48      -1.8497      2.00000
     49      -1.7899      2.00000
     50      -1.7899      2.00000
     51      -1.7678      2.00000
     52      -1.7677      2.00000
     53      -1.7552      2.00000
     54      -1.7552      2.00000
     55      -1.6788      2.00000
     56      -1.6787      2.00000
     57      -1.6524      2.00000
     58      -1.6472      2.00000
     59      -1.6304      2.00000
     60      -1.6304      2.00000
     61      -1.6057      2.00000
     62      -1.6056      2.00000
     63      -1.5999      2.00000
     64      -1.2999      2.00000
     65      -1.2999      2.00000
     66       0.0624      0.00000
     67       1.1438      0.00000
     68       1.9204      0.00000
     69       1.9204      0.00000
     70       3.1773      0.00000
     71       3.1773      0.00000
     72       4.0206      0.00000
     73       4.6194      0.00000
     74       4.9285      0.00000
     75       4.9285      0.00000
     76       6.5971      0.00000
     77       6.9939      0.00000
     78       6.9939      0.00000
     79       7.0322      0.00000
     80       7.0322      0.00000

 k-point   2 :       0.1429    0.0000    0.0000
  band No.  band energies     occupation 
      1      -8.8521      2.00000
      2      -8.0766      2.00000
      3      -6.8103      2.00000
      4      -5.4285      2.00000
      5      -4.8128      2.00000
      6      -4.7547      2.00000
      7      -4.7486      2.00000
      8      -4.7109      2.00000
      9      -4.4597      2.00000
     10      -4.4141      2.00000
     11      -4.3515      2.00000
     12      -4.3437      2.00000
     13      -4.3322      2.00000
     14      -4.1646      2.00000
     15      -4.1270      2.00000
     16      -4.0950      2.00000
     17      -3.9241      2.00000
     18      -3.8780      2.00000
     19      -3.8308      2.00000
     20      -3.6756      2.00000
     21      -3.6485      2.00000
     22      -3.4662      2.00000
     23      -3.2440      2.00000
     24      -3.0954      2.00000
     25      -3.0696      2.00000
     26      -3.0464      2.00000
     27      -3.0415      2.00000
     28      -3.0176      2.00000
     29      -2.9086      2.00000
     30      -2.8981      2.00000
     31      -2.8514      2.00000
     32      -2.5837      2.00000
     33      -2.5040      2.00000
     34      -2.4519      2.00000
     35      -2.4384      2.00000
     36      -2.4165      2.00000
     37      -2.4125      2.00000
     38      -2.3391      2.00000
     39      -2.3116      2.00000
     40      -2.2666      2.00000
     41      -2.2177      2.00000
     42      -2.1915      2.00000
     43      -2.0912      2.00000
     44      -2.0852      2.00000
     45      -2.0646      2.00000
     46      -2.0384      2.00000
     47      -1.9923      2.00000
     48      -1.9678      2.00000
     49      -1.8864      2.00000
     50      -1.8813      2.00000
     51      -1.8669      2.00000
     52      -1.8390      2.00000
     53      -1.8039      2.00000
     54      -1.7954      2.00000
     55      -1.7923      2.00000
     56      -1.7641      2.00000
     57      -1.7508      2.00000
     58      -1.7329      2.00000
     59      -1.7047      2.00000
     60      -1.7028      2.00000
     61      -1.6801      2.00000
     62      -1.6341      2.00000
     63      -1.4546      2.00000
     64      -1.4332      2.00000
     65      -1.0691      2.00000
     66       0.4875     -0.01169
     67       0.6155      0.00000
     68       1.6366      0.00000
     69       1.7132      0.00000
     70       2.4537      0.00000
     71       3.1761      0.00000
     72       3.6168      0.00000
     73       4.2653      0.00000
     74       4.8397      0.00000
     75       4.8907      0.00000
     76       5.2997      0.00000
     77       6.7471      0.00000
     78       6.8313      0.00000
     79       7.1333      0.00000
     80       7.3194      0.00000

 k-point   3 :       0.2857    0.0000    0.0000
  band No.  band energies     occupation 
      1      -8.1423      2.00000
      2      -7.3964      2.00000
      3      -6.1969      2.00000
      4      -4.9746      2.00000
      5      -4.9367      2.00000
      6      -4.5629      2.00000
      7      -4.4335      2.00000
      8      -4.4099      2.00000
      9      -4.3657      2.00000
     10      -4.2224      2.00000
     11      -4.1737      2.00000
     12      -4.1535      2.00000
     13      -4.1246      2.00000
     14      -4.0921      2.00000
     15      -4.0290      2.00000
     16      -4.0022      2.00000
     17      -3.9634      2.00000
     18      -3.7352      2.00000
     19      -3.6940      2.00000
     20      -3.6030      2.00000
     21      -3.5390      2.00000
     22      -3.4813      2.00000
     23      -3.3940      2.00000
     24      -3.2361      2.00000
     25      -3.1702      2.00000
     26      -3.1699      2.00000
     27      -3.0520      2.00000
     28      -2.9624      2.00000
     29      -2.9219      2.00000
     30      -2.9198      2.00000
     31      -2.9129      2.00000
     32      -2.8204      2.00000
     33      -2.8083      2.00000
     34      -2.7434      2.00000
     35      -2.5926      2.00000
     36      -2.5910      2.00000
     37      -2.5174      2.00000
     38      -2.4576      2.00000
     39      -2.4366      2.00000
     40      -2.3613      2.00000
     41      -2.3125      2.00000
     42      -2.2786      2.00000
     43      -2.1979      2.00000
     44      -2.1777      2.00000
     45      -2.1660      2.00000
     46      -2.1331      2.00000
     47      -2.1321      2.00000
     48      -2.1107      2.00000
     49      -2.0910      2.00000
     50      -2.0848      2.00000
     51      -2.0173      2.00000
     52      -1.9820      2.00000
     53      -1.9732      2.00000
     54      -1.9708      2.00000
     55      -1.9278      2.00000
     56      -1.9220      2.00000
     57      -1.8770      2.00000
     58      -1.8746      2.00000
     59      -1.7858      2.00000
     60      -1.7492      2.00000
     61      -1.6969      2.00000
     62      -1.6430      2.00000
     63      -1.6125      2.00000
     64      -1.3430      2.00000
     65      -1.1758      2.00000
     66      -0.2476      0.79829
     67      -0.2138      0.62884
     68       0.9585      0.00000
     69       1.4566      0.00000
     70       2.4992      0.00000
     71       2.7793      0.00000
     72       3.7303      0.00000
     73       4.3423      0.00000
     74       4.7575      0.00000
     75       4.9990      0.00000
     76       5.4947      0.00000
     77       6.3173      0.00000
     78       6.3468      0.00000
     79       7.4892      0.00000
     80       7.5342      0.00000

 k-point   4 :       0.4286    0.0000    0.0000
  band No.  band energies     occupation 
      1      -7.0382      2.00000
      2      -6.3577      2.00000
      3      -5.7783      2.00000
      4      -5.3240      2.00000
      5      -5.2221      2.00000
      6      -4.5139      2.00000
      7      -4.3733      2.00000
      8      -4.1462      2.00000
      9      -4.1163      2.00000
     10      -4.0934      2.00000
     11      -3.9387      2.00000
     12      -3.9253      2.00000
     13      -3.9228      2.00000
     14      -3.8515      2.00000
     15      -3.8200      2.00000
     16      -3.7798      2.00000
     17      -3.7448      2.00000
     18      -3.6530      2.00000
     19      -3.6180      2.00000
     20      -3.5935      2.00000
     21      -3.5776      2.00000
     22      -3.5170      2.00000
     23      -3.4815      2.00000
     24      -3.4313      2.00000
     25      -3.3567      2.00000
     26      -3.3456      2.00000
     27      -3.2923      2.00000
     28      -3.1938      2.00000
     29      -3.0804      2.00000
     30      -3.0211      2.00000
     31      -2.9744      2.00000
     32      -2.8797      2.00000
     33      -2.6918      2.00000
     34      -2.6904      2.00000
     35      -2.6307      2.00000
     36      -2.6092      2.00000
     37      -2.5668      2.00000
     38      -2.5002      2.00000
     39      -2.4674      2.00000
     40      -2.4660      2.00000
     41      -2.4482      2.00000
     42      -2.4292      2.00000
     43      -2.4224      2.00000
     44      -2.4207      2.00000
     45      -2.4100      2.00000
     46      -2.3269      2.00000
     47      -2.2964      2.00000
     48      -2.2789      2.00000
     49      -2.2658      2.00000
     50      -2.2594      2.00000
     51      -2.1733      2.00000
     52      -2.1706      2.00000
     53      -2.1448      2.00000
     54      -2.1241      2.00000
     55      -2.1217      2.00000
     56      -2.0643      2.00000
     57      -2.0539      2.00000
     58      -1.9146      2.00000
     59      -1.8373      2.00000
     60      -1.8070      2.00000
     61      -1.8009      2.00000
     62      -1.6520      2.00000
     63      -1.6516      2.00000
     64      -1.4145      2.00000
     65      -1.3999      2.00000
     66      -0.5981      2.10586
     67      -0.5775      2.07707
     68       0.6518      0.00000
     69       0.9009      0.00000
     70       2.3880      0.00000
     71       2.7530      0.00000
     72       4.2711      0.00000
     73       4.3736      0.00000
     74       5.4163      0.00000
     75       6.0507      0.00000
     76       6.2147      0.00000
     77       6.3532      0.00000
     78       6.5722      0.00000
     79       7.3890      0.00000
     80       7.8154      0.00000

 k-point   5 :       0.1429    0.1429    0.0000
  band No.  band energies     occupation 
      1      -8.6133      2.00000
      2      -7.8488      2.00000
      3      -6.6068      2.00000
      4      -5.2704      2.00000
      5      -4.7013      2.00000
      6      -4.7012      2.00000
      7      -4.6389      2.00000
      8      -4.6316      2.00000
      9      -4.3908      2.00000
     10      -4.3908      2.00000
     11      -4.2915      2.00000
     12      -4.2682      2.00000
     13      -4.2682      2.00000
     14      -4.1172      2.00000
     15      -4.1172      2.00000
     16      -4.1064      2.00000
     17      -3.8521      2.00000
     18      -3.8520      2.00000
     19      -3.7819      2.00000
     20      -3.6517      2.00000
     21      -3.6516      2.00000
     22      -3.4437      2.00000
     23      -3.2613      2.00000
     24      -3.0847      2.00000
     25      -3.0847      2.00000
     26      -3.0283      2.00000
     27      -3.0229      2.00000
     28      -2.9988      2.00000
     29      -2.9884      2.00000
     30      -2.9471      2.00000
     31      -2.8596      2.00000
     32      -2.7017      2.00000
     33      -2.6271      2.00000
     34      -2.5343      2.00000
     35      -2.5343      2.00000
     36      -2.4120      2.00000
     37      -2.3856      2.00000
     38      -2.3632      2.00000
     39      -2.2831      2.00000
     40      -2.2798      2.00000
     41      -2.2798      2.00000
     42      -2.2665      2.00000
     43      -2.2387      2.00000
     44      -2.2181      2.00000
     45      -2.0989      2.00000
     46      -2.0988      2.00000
     47      -2.0619      2.00000
     48      -2.0073      2.00000
     49      -1.9573      2.00000
     50      -1.9572      2.00000
     51      -1.9332      2.00000
     52      -1.9332      2.00000
     53      -1.8983      2.00000
     54      -1.8392      2.00000
     55      -1.8026      2.00000
     56      -1.8025      2.00000
     57      -1.7606      2.00000
     58      -1.7557      2.00000
     59      -1.7360      2.00000
     60      -1.7360      2.00000
     61      -1.6573      2.00000
     62      -1.6208      2.00000
     63      -1.5405      2.00000
     64      -1.5405      2.00000
     65      -0.7843      2.01731
     66       0.8344     -0.01339
     67       1.0986      0.00000
     68       1.0986      0.00000
     69       2.0593      0.00000
     70       2.0706      0.00000
     71       2.0707      0.00000
     72       3.4256      0.00000
     73       3.4256      0.00000
     74       4.5100      0.00000
     75       5.0582      0.00000
     76       5.2003      0.00000
     77       5.2003      0.00000
     78       7.0654      0.00000
     79       7.0827      0.00000
     80       7.0827      0.00000

 k-point   6 :       0.2857    0.1429    0.0000
  band No.  band energies     occupation 
      1      -7.9159      2.00000
      2      -7.1897      2.00000
      3      -6.0393      2.00000
      4      -4.8754      2.00000
      5      -4.8471      2.00000
      6      -4.5083      2.00000
      7      -4.4001      2.00000
      8      -4.3577      2.00000
      9      -4.3331      2.00000
     10      -4.2319      2.00000
     11      -4.2200      2.00000
     12      -4.1739      2.00000
     13      -4.1146      2.00000
     14      -4.0888      2.00000
     15      -4.0335      2.00000
     16      -3.9265      2.00000
     17      -3.8097      2.00000
     18      -3.7039      2.00000
     19      -3.6271      2.00000
     20      -3.5385      2.00000
     21      -3.4905      2.00000
     22      -3.4136      2.00000
     23      -3.3812      2.00000
     24      -3.1601      2.00000
     25      -3.1564      2.00000
     26      -3.1500      2.00000
     27      -3.0539      2.00000
     28      -2.9736      2.00000
     29      -2.9247      2.00000
     30      -2.9204      2.00000
     31      -2.9153      2.00000
     32      -2.9150      2.00000
     33      -2.8710      2.00000
     34      -2.8017      2.00000
     35      -2.7050      2.00000
     36      -2.5884      2.00000
     37      -2.5696      2.00000
     38      -2.5108      2.00000
     39      -2.4694      2.00000
     40      -2.4498      2.00000
     41      -2.3667      2.00000
     42      -2.3439      2.00000
     43      -2.3268      2.00000
     44      -2.2960      2.00000
     45      -2.2738      2.00000
     46      -2.2318      2.00000
     47      -2.1997      2.00000
     48      -2.1824      2.00000
     49      -2.1436      2.00000
     50      -2.1370      2.00000
     51      -2.0550      2.00000
     52      -2.0008      2.00000
     53      -1.9624      2.00000
     54      -1.9269      2.00000
     55      -1.8524      2.00000
     56      -1.8467      2.00000
     57      -1.8127      2.00000
     58      -1.8090      2.00000
     59      -1.7951      2.00000
     60      -1.6982      2.00000
     61      -1.6644      2.00000
     62      -1.6624      2.00000
     63      -1.6591      2.00000
     64      -1.3446      2.00000
     65      -0.7148      2.00857
     66      -0.0494      0.24017
     67       0.0223      0.10030
     68       1.1331      0.00000
     69       1.7087      0.00000
     70       2.1578      0.00000
     71       2.5637      0.00000
     72       2.9118      0.00000
     73       3.1067      0.00000
     74       4.4669      0.00000
     75       4.6308      0.00000
     76       5.2432      0.00000
     77       5.7020      0.00000
     78       6.1159      0.00000
     79       6.6041      0.00000
     80       7.2014      0.00000

 k-point   7 :       0.4286    0.1429    0.0000
  band No.  band energies     occupation 
      1      -6.8369      2.00000
      2      -6.1980      2.00000
      3      -5.6183      2.00000
      4      -5.2717      2.00000
      5      -5.1436      2.00000
      6      -4.6080      2.00000
      7      -4.4758      2.00000
      8      -4.2637      2.00000
      9      -4.0798      2.00000
     10      -4.0543      2.00000
     11      -4.0327      2.00000
     12      -4.0157      2.00000
     13      -3.8689      2.00000
     14      -3.8591      2.00000
     15      -3.7759      2.00000
     16      -3.7236      2.00000
     17      -3.6456      2.00000
     18      -3.6056      2.00000
     19      -3.5776      2.00000
     20      -3.4656      2.00000
     21      -3.4034      2.00000
     22      -3.4033      2.00000
     23      -3.3764      2.00000
     24      -3.3748      2.00000
     25      -3.3480      2.00000
     26      -3.2956      2.00000
     27      -3.2297      2.00000
     28      -3.0988      2.00000
     29      -3.0543      2.00000
     30      -3.0091      2.00000
     31      -2.9996      2.00000
     32      -2.9384      2.00000
     33      -2.7899      2.00000
     34      -2.7627      2.00000
     35      -2.6898      2.00000
     36      -2.6828      2.00000
     37      -2.6449      2.00000
     38      -2.6359      2.00000
     39      -2.6104      2.00000
     40      -2.5573      2.00000
     41      -2.5506      2.00000
     42      -2.5472      2.00000
     43      -2.4893      2.00000
     44      -2.4007      2.00000
     45      -2.4002      2.00000
     46      -2.3774      2.00000
     47      -2.3083      2.00000
     48      -2.1909      2.00000
     49      -2.1765      2.00000
     50      -2.1174      2.00000
     51      -2.1100      2.00000
     52      -2.1051      2.00000
     53      -2.0311      2.00000
     54      -2.0026      2.00000
     55      -1.9388      2.00000
     56      -1.9319      2.00000
     57      -1.9094      2.00000
     58      -1.9037      2.00000
     59      -1.8037      2.00000
     60      -1.7699      2.00000
     61      -1.7333      2.00000
     62      -1.7063      2.00000
     63      -1.6417      2.00000
     64      -1.4342      2.00000
     65      -1.3231      2.03556
     66      -0.5595      2.03326
     67      -0.5494      1.95091
     68       0.7144      0.00000
     69       1.0175      0.00000
     70       2.4255      0.00000
     71       2.9229      0.00000
     72       3.4549      0.00000
     73       4.4765      0.00000
     74       4.5084      0.00000
     75       4.5986      0.00000
     76       5.2365      0.00000
     77       5.8320      0.00000
     78       6.1139      0.00000
     79       6.2952      0.00000
     80       6.4568      0.00000

 k-point   8 :       0.2857    0.2857    0.0000
  band No.  band energies     occupation 
      1      -7.2607      2.00000
      2      -6.6063      2.00000
      3      -5.6343      2.00000
      4      -4.7561      2.00000
      5      -4.5686      2.00000
      6      -4.5686      2.00000
      7      -4.4966      2.00000
      8      -4.4965      2.00000
      9      -4.2801      2.00000
     10      -4.2506      2.00000
     11      -4.2505      2.00000
     12      -4.1913      2.00000
     13      -3.9752      2.00000
     14      -3.8584      2.00000
     15      -3.8584      2.00000
     16      -3.7083      2.00000
     17      -3.6427      2.00000
     18      -3.6427      2.00000
     19      -3.4026      2.00000
     20      -3.3381      2.00000
     21      -3.3381      2.00000
     22      -3.3213      2.00000
     23      -3.2354      2.00000
     24      -3.1361      2.00000
     25      -3.1361      2.00000
     26      -3.1262      2.00000
     27      -3.1090      2.00000
     28      -3.0651      2.00000
     29      -3.0650      2.00000
     30      -3.0032      2.00000
     31      -2.9433      2.00000
     32      -2.9390      2.00000
     33      -2.8584      2.00000
     34      -2.8502      2.00000
     35      -2.7909      2.00000
     36      -2.7115      2.00000
     37      -2.6623      2.00000
     38      -2.6623      2.00000
     39      -2.6416      2.00000
     40      -2.6400      2.00000
     41      -2.5549      2.00000
     42      -2.5548      2.00000
     43      -2.4611      2.00000
     44      -2.4171      2.00000
     45      -2.4171      2.00000
     46      -2.3712      2.00000
     47      -2.1085      2.00000
     48      -2.1054      2.00000
     49      -2.1053      2.00000
     50      -2.0871      2.00000
     51      -2.0584      2.00000
     52      -1.9961      2.00000
     53      -1.9831      2.00000
     54      -1.9392      2.00000
     55      -1.9391      2.00000
     56      -1.8311      2.00000
     57      -1.7689      2.00000
     58      -1.7689      2.00000
     59      -1.7537      2.00000
     60      -1.6991      2.00000
     61      -1.6836      2.00000
     62      -1.6835      2.00000
     63      -1.6626      2.00000
     64      -1.1677      2.00000
     65       0.1448      0.92332
     66       0.1448     -0.05621
     67       0.4624     -0.31994
     68       0.6709     -0.00228
     69       0.6709      0.00000
     70       1.4519      0.00000
     71       1.4520      0.00000
     72       2.3759      0.00000
     73       3.7624      0.00000
     74       3.7624      0.00000
     75       3.9524      0.00000
     76       4.8246      0.00000
     77       5.5065      0.00000
     78       5.5065      0.00000
     79       5.7345      0.00000
     80       5.9733      0.00000

 k-point   9 :       0.4286    0.2857    0.0000
  band No.  band energies     occupation 
      1      -6.2725      2.00000
      2      -5.7849      2.00000
      3      -5.2128      2.00000
      4      -5.1660      2.00000
      5      -5.0090      2.00000
      6      -4.7800      2.00000
      7      -4.6414      2.00000
      8      -4.5219      2.00000
      9      -4.2282      2.00000
     10      -4.2138      2.00000
     11      -4.0597      2.00000
     12      -4.0159      2.00000
     13      -3.8132      2.00000
     14      -3.7128      2.00000
     15      -3.5660      2.00000
     16      -3.5547      2.00000
     17      -3.5338      2.00000
     18      -3.5174      2.00000
     19      -3.4799      2.00000
     20      -3.2719      2.00000
     21      -3.2689      2.00000
     22      -3.2270      2.00000
     23      -3.2255      2.00000
     24      -3.2092      2.00000
     25      -3.1011      2.00000
     26      -3.0917      2.00000
     27      -3.0715      2.00000
     28      -3.0702      2.00000
     29      -3.0619      2.00000
     30      -3.0122      2.00000
     31      -2.9928      2.00000
     32      -2.9860      2.00000
     33      -2.8771      2.00000
     34      -2.8474      2.00000
     35      -2.8351      2.00000
     36      -2.7736      2.00000
     37      -2.7556      2.00000
     38      -2.7471      2.00000
     39      -2.7142      2.00000
     40      -2.6437      2.00000
     41      -2.5195      2.00000
     42      -2.5101      2.00000
     43      -2.4703      2.00000
     44      -2.4582      2.00000
     45      -2.4538      2.00000
     46      -2.3345      2.00000
     47      -2.3007      2.00000
     48      -2.1373      2.00000
     49      -2.0778      2.00000
     50      -2.0241      2.00000
     51      -1.9952      2.00000
     52      -1.9608      2.00000
     53      -1.8833      2.00000
     54      -1.8485      2.00000
     55      -1.8404      2.00000
     56      -1.8337      2.00000
     57      -1.8139      2.00000
     58      -1.7999      2.00000
     59      -1.7668      2.00000
     60      -1.7432      2.00000
     61      -1.7390      2.00000
     62      -1.6842      2.00000
     63      -1.5299      2.00000
     64      -1.1497      2.00000
     65      -0.9530      2.05248
     66      -0.4742      1.91988
     67      -0.3894      1.70145
     68       0.6925     -0.07822
     69       1.2424      0.00000
     70       1.2579      0.00000
     71       1.4490      0.00000
     72       2.5329      0.00000
     73       3.5378      0.00000
     74       3.5435      0.00000
     75       3.7660      0.00000
     76       3.8133      0.00000
     77       5.0841      0.00000
     78       5.1958      0.00000
     79       5.3760      0.00000
     80       5.3762      0.00000

 k-point  10 :       0.4286    0.4286    0.0000
  band No.  band energies     occupation 
      1      -5.4971      2.00000
      2      -5.3148      2.00000
      3      -5.0620      2.00000
      4      -4.9943      2.00000
      5      -4.9943      2.00000
      6      -4.8246      2.00000
      7      -4.8246      2.00000
      8      -4.7387      2.00000
      9      -4.3557      2.00000
     10      -4.3109      2.00000
     11      -4.3108      2.00000
     12      -4.1677      2.00000
     13      -3.5603      2.00000
     14      -3.4547      2.00000
     15      -3.4547      2.00000
     16      -3.3744      2.00000
     17      -3.3657      2.00000
     18      -3.3422      2.00000
     19      -3.3421      2.00000
     20      -3.2697      2.00000
     21      -3.2697      2.00000
     22      -3.2423      2.00000
     23      -3.1871      2.00000
     24      -3.1614      2.00000
     25      -3.1103      2.00000
     26      -3.1103      2.00000
     27      -3.0682      2.00000
     28      -3.0585      2.00000
     29      -2.9694      2.00000
     30      -2.9254      2.00000
     31      -2.9254      2.00000
     32      -2.9234      2.00000
     33      -2.8845      2.00000
     34      -2.8844      2.00000
     35      -2.8808      2.00000
     36      -2.8486      2.00000
     37      -2.7153      2.00000
     38      -2.7131      2.00000
     39      -2.6841      2.00000
     40      -2.6841      2.00000
     41      -2.5513      2.00000
     42      -2.5001      2.00000
     43      -2.4769      2.00000
     44      -2.4769      2.00000
     45      -2.1555      2.00000
     46      -2.1148      2.00000
     47      -2.1044      2.00000
     48      -2.1043      2.00000
     49      -2.0074      2.00000
     50      -2.0074      2.00000
     51      -2.0066      2.00000
     52      -1.8784      2.00000
     53      -1.8442      2.00000
     54      -1.7959      2.00000
     55      -1.7959      2.00000
     56      -1.7718      2.00000
     57      -1.7533      2.00000
     58      -1.7533      2.00000
     59      -1.7505      2.00000
     60      -1.7002      2.00000
     61      -1.4980      2.00000
     62      -1.3450      2.00000
     63      -1.2105      2.00000
     64      -0.4477      2.00000
     65      -0.4476      1.96323
     66      -0.3273      1.90608
     67      -0.3272      1.84870
     68      -0.2542      0.70611
     69      -0.0127      0.00000
     70      -0.0126      0.00000
     71       0.7693      0.00000
     72       0.8636      0.00000
     73       3.1335      0.00000
     74       3.1336      0.00000
     75       3.2050      0.00000
     76       3.2233      0.00000
     77       4.7800      0.00000
     78       4.8223      0.00000
     79       4.8224      0.00000
     80       4.9983      0.00000


--------------------------------------------------------------------------------------------------------


 soft charge-density along one line, spin component           1
         0         1         2         3         4         5         6         7         8         9
 total charge-density along one line
 
 pseudopotential strength for first ion, spin component:           1
 -9.071   0.000   0.000   0.000   0.000   0.932   0.000   0.000
  0.000  -9.046   0.000   0.000   0.000   0.000   0.920   0.000
  0.000   0.000  -9.030   0.000   0.000   0.000   0.000   0.912
  0.000   0.000   0.000  -9.046   0.000   0.000   0.000   0.000
  0.000   0.000   0.000   0.000  -9.048   0.000   0.000   0.000
  0.932   0.000   0.000   0.000   0.000   1.147   0.000   0.000
  0.000   0.920   0.000   0.000   0.000   0.000   1.152   0.000
  0.000   0.000   0.912   0.000   0.000   0.000   0.000   1.156
  0.000   0.000   0.000   0.920   0.000   0.000   0.000   0.000
  0.000   0.000   0.000   0.000   0.922   0.000   0.000   0.000
  0.000   0.000  -0.005   0.000   0.000   0.000   0.000   0.002
  0.000   0.000   0.000   0.000   0.000   0.000   0.000   0.000
  0.000  -0.013   0.000   0.000   0.000   0.000   0.008   0.000
  0.000   0.000  -0.015   0.000   0.000   0.000   0.000   0.008
  0.000   0.000   0.000  -0.013   0.000   0.000   0.000   0.000
  0.000   0.007   0.000   0.000   0.000   0.000  -0.004   0.000
  0.000   0.000   0.009   0.000   0.000   0.000   0.000  -0.004
  0.000   0.000   0.000   0.007   0.000   0.000   0.000   0.000
 total augmentation occupancy for first ion, spin component:           1
  1.916   0.000   0.000   0.000   0.000   0.003   0.000   0.000   0.000   0.000   0.000   0.000   0.000   0.000   0.000   0.000
  0.000   1.921   0.000   0.000   0.000   0.000  -0.034   0.000   0.000   0.000   0.000   0.000   0.015   0.000   0.000  -0.008
  0.000   0.000   1.932   0.000   0.000   0.000   0.000  -0.059   0.000   0.000   0.020   0.031   0.000   0.015   0.000   0.000
  0.000   0.000   0.000   1.921   0.000   0.000   0.000   0.000  -0.034   0.000   0.000   0.000   0.000   0.000   0.015   0.000
  0.000   0.000   0.000   0.000   1.920   0.000   0.000   0.000   0.000  -0.053   0.000   0.000   0.000   0.000   0.000   0.000
  0.003   0.000   0.000   0.000   0.000   0.060   0.000   0.000   0.000   0.000   0.000   0.000   0.000   0.000   0.000   0.000
  0.000  -0.034   0.000   0.000   0.000   0.000   0.046   0.000   0.000   0.000   0.000   0.000   0.044   0.000   0.000  -0.003
  0.000   0.000  -0.059   0.000   0.000   0.000   0.000   0.052   0.000   0.000  -0.061   0.009   0.000   0.038   0.000   0.000
  0.000   0.000   0.000  -0.034   0.000   0.000   0.000   0.000   0.046   0.000   0.000   0.000   0.000   0.000   0.044   0.000
  0.000   0.000   0.000   0.000  -0.053   0.000   0.000   0.000   0.000   0.055   0.000   0.000   0.000   0.000   0.000   0.000
  0.000   0.000   0.020   0.000   0.000   0.000   0.000  -0.061   0.000   0.000   1.226  -0.276   0.000   0.094   0.000   0.000
  0.000   0.000   0.031   0.000   0.000   0.000   0.000   0.009   0.000   0.000  -0.276   0.108   0.000  -0.054   0.000   0.000
  0.000   0.015   0.000   0.000   0.000   0.000   0.044   0.000   0.000   0.000   0.000   0.000   0.150   0.000   0.000  -0.010
  0.000   0.000   0.015   0.000   0.000   0.000   0.000   0.038   0.000   0.000   0.094  -0.054   0.000   0.088   0.000   0.000
  0.000   0.000   0.000   0.015   0.000   0.000   0.000   0.000   0.044   0.000   0.000   0.000   0.000   0.000   0.150   0.000
  0.000  -0.008   0.000   0.000   0.000   0.000  -0.003   0.000   0.000   0.000   0.000   0.000  -0.010   0.000   0.000   0.001
  0.000   0.000  -0.009   0.000   0.000   0.000   0.000  -0.002   0.000   0.000  -0.017   0.007   0.000  -0.007   0.000   0.000
  0.000   0.000   0.000  -0.008   0.000   0.000   0.000   0.000  -0.003   0.000   0.000   0.000   0.000   0.000  -0.010   0.000


------------------------ aborting loop because EDIFF is reached ----------------------------------------


    CHARGE:  cpu time    1.34: real time    1.34
    FORLOC:  cpu time    0.04: real time    0.05
    FORNL :  cpu time   23.16: real time   23.16
    STRESS:  cpu time   62.56: real time   62.55
    FORCOR:  cpu time    0.47: real time    0.47
    FORHAR:  cpu time    0.15: real time    0.15
    MIXING:  cpu time    0.02: real time    0.02

  FORCE on cell =-STRESS in cart. coord.  units (eV):
  Direction    XX          YY          ZZ          XY          YZ          ZX
  --------------------------------------------------------------------------------------
  Alpha Z   667.73723   667.73723   667.73723
  Ewald   45165.87158 45165.87158-53844.83232     0.00000     0.00000     0.00000
  Hartree 49735.44162 49735.44162-47201.77699     0.00000     0.00000     0.00000
  E(xc)    -750.79261  -750.79261  -751.76037     0.00000     0.00000     0.00000
  Local  -95991.19962-95991.19962 99955.20471     0.00000     0.00000     0.00000
  n-local  -438.64286  -451.06743  -445.82909     3.74090     0.00000     0.00000
  augment   674.86691   674.86693   676.22514     0.00000     0.00000     0.00000
  Kinetic   954.75775   926.64837   944.40861    -3.75059     0.00000     0.00000
  Fock        0.00000     0.00000     0.00000     0.00000     0.00000     0.00000
  -------------------------------------------------------------------------------------
  Total      -2.22697    -2.22697    -0.62307     0.00000     0.00000     0.00000
  in kB     -12.94984   -12.94984    -3.62317     0.00000     0.00000     0.00000
  external pressure =       -9.84 kB  Pullay stress =        0.00 kB


 VOLUME and BASIS-vectors are now :
 -----------------------------------------------------------------------------
  energy-cutoff  :      415.00
  volume of cell :      275.52
      direct lattice vectors                 reciprocal lattice vectors
     3.631354857  0.000000000  0.000000000     0.275379311  0.000000000  0.000000000
     0.000000000  3.631354857  0.000000000     0.000000000  0.275379311  0.000000000
     0.000000000  0.000000000 20.894064570     0.000000000  0.000000000  0.047860482

  length of vectors
     3.631354857  3.631354857 20.894064570     0.275379311  0.275379311  0.047860482


 FORCES acting on ions
    electron-ion (+dipol)            ewald-force                    non-local-force                 convergence-correction
 -----------------------------------------------------------------------------------------------
   -.417E-13 0.530E-13 0.394E+04   0.347E-14 0.128E-13 -.394E+04   -.207E-24 0.000E+00 -.264E+01   -.232E-13 0.676E-13 0.930E-02
   -.818E-13 -.488E-13 0.795E+03   -.960E-14 -.256E-14 -.795E+03   0.000E+00 0.414E-24 0.825E-02   -.103E-13 0.835E-13 0.368E-02
   -.797E-13 -.558E-13 -.239E+04   -.188E-13 0.243E-13 0.239E+04   0.165E-23 0.331E-23 0.733E+00   0.330E-13 0.801E-13 -.114E-01
   0.662E-12 0.653E-12 0.394E+04   -.127E-13 -.243E-14 -.394E+04   -.207E-24 0.000E+00 -.264E+01   0.893E-14 0.140E-13 0.930E-02
   0.620E-12 0.610E-12 0.795E+03   -.306E-13 -.153E-13 -.795E+03   0.000E+00 0.000E+00 0.825E-02   0.195E-13 0.279E-13 0.368E-02
   0.616E-12 0.350E-12 -.239E+04   -.380E-13 0.111E-13 0.239E+04   0.165E-23 0.331E-23 0.733E+00   0.276E-15 0.718E-13 -.114E-01
   0.613E-12 0.498E-14 0.239E+04   0.947E-14 0.827E-14 -.239E+04   -.165E-23 -.248E-23 -.733E+00   0.451E-13 0.282E-13 0.114E-01
   0.599E-12 -.264E-13 -.795E+03   -.368E-14 0.192E-14 0.795E+03   0.000E+00 0.000E+00 -.825E-02   0.226E-14 0.246E-13 -.366E-02
   0.584E-12 -.182E-13 -.394E+04   0.894E-14 -.163E-14 0.394E+04   -.414E-24 0.000E+00 0.264E+01   0.500E-13 0.693E-13 -.930E-02
   -.520E-13 0.656E-12 0.239E+04   -.818E-14 -.882E-14 -.239E+04   -.165E-23 -.248E-23 -.733E+00   -.482E-16 0.252E-13 0.114E-01
   -.313E-13 0.432E-12 -.795E+03   -.125E-13 -.133E-13 0.795E+03   0.000E+00 -.207E-24 -.825E-02   0.175E-13 0.836E-13 -.366E-02
   -.527E-13 0.192E-12 -.394E+04   0.317E-14 -.155E-13 0.394E+04   -.414E-24 0.000E+00 0.264E+01   0.510E-13 0.110E-12 -.930E-02
 -----------------------------------------------------------------------------------------------
   0.335E-11 0.280E-11 -.186E-02   -.109E-12 -.129E-14 0.227E-11   -.124E-23 0.186E-23 0.444E-15   0.194E-12 0.686E-12 0.137E-03
 
 
 POSITION                                       TOTAL-FORCE (eV/Angst)
 -----------------------------------------------------------------------------------
      0.00000      0.00000      0.03525         0.000000      0.000000      0.014874
      0.00000      0.00000      3.63309         0.000000      0.000000      0.011251
      0.00000      0.00000      7.26806         0.000000      0.000000      0.016584
      1.81568      1.81568      0.03525         0.000000      0.000000      0.014874
      1.81568      1.81568      3.63309         0.000000      0.000000      0.011251
      1.81568      1.81568      7.26806         0.000000      0.000000      0.016584
      1.81568      0.00000      1.81033         0.000000      0.000000     -0.016584
      1.81568      0.00000      5.44530         0.000000      0.000000     -0.011251
      1.81568      0.00000      9.04313         0.000000      0.000000     -0.014874
      0.00000      1.81568      1.81033         0.000000      0.000000     -0.016584
      0.00000      1.81568      5.44530         0.000000      0.000000     -0.011251
      0.00000      1.81568      9.04313         0.000000      0.000000     -0.014874
 -----------------------------------------------------------------------------------
    total drift:                                0.000000      0.000000     -0.001721


--------------------------------------------------------------------------------------------------------



  FREE ENERGIE OF THE ION-ELECTRON SYSTEM (eV)
  ---------------------------------------------------
  free  energy   TOTEN  =       -42.223444 eV

  energy  without entropy=      -42.223444  energy(sigma->0) =      -42.223444
 
 d Force = 0.2530767E-04[-0.116E-04, 0.622E-04]  d Energy = 0.2270064E-03-0.202E-03
 d Force = 0.6554021E+02[ 0.655E+02, 0.656E+02]  d Ewald  = 0.6554021E+02-0.706E-06


--------------------------------------------------------------------------------------------------------


    POTLOK:  cpu time    0.51: real time    0.51


--------------------------------------------------------------------------------------------------------




--------------------------------------------------------------------------------------------------------


    WAVPRE:  cpu time    0.10: real time    0.11
    FEWALD:  cpu time    0.00: real time    0.00
    ORTHCH:  cpu time    7.73: real time    7.73
     LOOP+:  cpu time  428.31: real time  428.38


----------------------------------------- Iteration   14(   1)  ---------------------------------------


    POTLOK:  cpu time    0.44: real time    0.44
    SETDIJ:  cpu time    0.06: real time    0.06
     EDDAV:  cpu time   53.43: real time   53.44
 BZINTS: Fermi energy: -0.231644;132.000000 electrons
         Band energy:-395.917332;  BLOECHL correction: -0.139966
       DOS:  cpu time    0.04: real time    0.04
    CHARGE:  cpu time    1.37: real time    1.37
    MIXING:  cpu time    0.01: real time    0.01
    --------------------------------------------
      LOOP:  cpu time   55.36: real time   55.36

 eigenvalue-minimisations  :  1600
 total energy-change (2. order) : 0.5180667E-05  (-0.1697711E-01)
 number of electron     131.9999641 magnetization 
 augmentation part       86.4544015 magnetization 

 Broyden mixing:
  rms(total) = 0.27716E-02    rms(broyden)= 0.27686E-02
  rms(prec ) = 0.29587E-02
  weight for this iteration     100.00

 Free energy of the ion-electron system (eV)
  ---------------------------------------------------
  alpha Z        PSCENC =       667.73722884
  Ewald energy   TEWEN  =     36533.04364812
  -1/2 Hartree   DENC   =    -52315.14231139
  -exchange  EXHF       =         0.00000000
  -V(xc)+E(xc)   XCENC  =       512.17665113
  PAW double counting   =     13124.97819164   -14860.75652359
  entropy T*S    EENTRO =         0.00000000
  eigenvalues    EBANDS =      -395.91733171
  atomic energy  EATOM  =     16691.65700843
  ---------------------------------------------------
  free energy    TOTEN  =       -42.22343854 eV

  energy without entropy =      -42.22343854  energy(sigma->0) =      -42.22343854


--------------------------------------------------------------------------------------------------------




----------------------------------------- Iteration   14(   2)  ---------------------------------------


    POTLOK:  cpu time    0.44: real time    0.44
    SETDIJ:  cpu time    0.06: real time    0.06
     EDDAV:  cpu time   57.37: real time   57.38
 BZINTS: Fermi energy: -0.231621;132.000000 electrons
         Band energy:-395.957276;  BLOECHL correction: -0.140062
       DOS:  cpu time    0.04: real time    0.04
    CHARGE:  cpu time    1.35: real time    1.35
    MIXING:  cpu time    0.02: real time    0.02
    --------------------------------------------
      LOOP:  cpu time   59.28: real time   59.28

 eigenvalue-minimisations  :  1760
 total energy-change (2. order) :-0.6933215E-04  (-0.4621550E-04)
 number of electron     131.9999641 magnetization 
 augmentation part       86.4563643 magnetization 

 Broyden mixing:
  rms(total) = 0.26374E-02    rms(broyden)= 0.26370E-02
  rms(prec ) = 0.28930E-02
  weight for this iteration     100.00

 eigenvalues of (default mixing * dielectric matrix)
  average eigenvalue GAMMA=   0.5368
  0.5368

 Free energy of the ion-electron system (eV)
  ---------------------------------------------------
  alpha Z        PSCENC =       667.73722884
  Ewald energy   TEWEN  =     36533.04364812
  -1/2 Hartree   DENC   =    -52315.11713261
  -exchange  EXHF       =         0.00000000
  -V(xc)+E(xc)   XCENC  =       512.17175832
  PAW double counting   =     13125.21145223   -14860.97019567
  entropy T*S    EENTRO =         0.00000000
  eigenvalues    EBANDS =      -395.95727552
  atomic energy  EATOM  =     16691.65700843
  ---------------------------------------------------
  free energy    TOTEN  =       -42.22350787 eV

  energy without entropy =      -42.22350787  energy(sigma->0) =      -42.22350787


--------------------------------------------------------------------------------------------------------




----------------------------------------- Iteration   14(   3)  ---------------------------------------


    POTLOK:  cpu time    0.44: real time    0.44
    SETDIJ:  cpu time    0.06: real time    0.06
     EDDAV:  cpu time   55.04: real time   55.04
 BZINTS: Fermi energy: -0.232103;132.000000 electrons
         Band energy:-396.014986;  BLOECHL correction: -0.139972
       DOS:  cpu time    0.04: real time    0.04
    CHARGE:  cpu time    1.35: real time    1.35
    MIXING:  cpu time    0.02: real time    0.02
    --------------------------------------------
      LOOP:  cpu time   56.94: real time   56.95

 eigenvalue-minimisations  :  1664
 total energy-change (2. order) : 0.5302882E-04  (-0.1225555E-04)
 number of electron     131.9999641 magnetization 
 augmentation part       86.4567432 magnetization 

 Broyden mixing:
  rms(total) = 0.14602E-02    rms(broyden)= 0.14601E-02
  rms(prec ) = 0.15992E-02
  weight for this iteration     100.00

 eigenvalues of (default mixing * dielectric matrix)
  average eigenvalue GAMMA=   1.2560
  0.4030  2.1091

 Free energy of the ion-electron system (eV)
  ---------------------------------------------------
  alpha Z        PSCENC =       667.73722884
  Ewald energy   TEWEN  =     36533.04364812
  -1/2 Hartree   DENC   =    -52315.04917765
  -exchange  EXHF       =         0.00000000
  -V(xc)+E(xc)   XCENC  =       512.17212036
  PAW double counting   =     13125.34700644   -14861.11630365
  entropy T*S    EENTRO =         0.00000000
  eigenvalues    EBANDS =      -396.01498574
  atomic energy  EATOM  =     16691.65700843
  ---------------------------------------------------
  free energy    TOTEN  =       -42.22345484 eV

  energy without entropy =      -42.22345484  energy(sigma->0) =      -42.22345484


--------------------------------------------------------------------------------------------------------




----------------------------------------- Iteration   14(   4)  ---------------------------------------


    POTLOK:  cpu time    0.44: real time    0.44
    SETDIJ:  cpu time    0.06: real time    0.06
     EDDAV:  cpu time   63.31: real time   63.31
 BZINTS: Fermi energy: -0.231148;132.000000 electrons
         Band energy:-395.858971;  BLOECHL correction: -0.140029
       DOS:  cpu time    0.04: real time    0.04
    CHARGE:  cpu time    1.35: real time    1.35
    MIXING:  cpu time    0.02: real time    0.02
    --------------------------------------------
      LOOP:  cpu time   65.22: real time   65.23

 eigenvalue-minimisations  :  1992
 total energy-change (2. order) :-0.4518382E-04  (-0.1891654E-05)
 number of electron     131.9999641 magnetization 
 augmentation part       86.4551197 magnetization 

 Broyden mixing:
  rms(total) = 0.53724E-03    rms(broyden)= 0.53721E-03
  rms(prec ) = 0.60466E-03
  weight for this iteration     100.00

 eigenvalues of (default mixing * dielectric matrix)
  average eigenvalue GAMMA=   1.2407
  2.6818  0.6526  0.3877

 Free energy of the ion-electron system (eV)
  ---------------------------------------------------
  alpha Z        PSCENC =       667.73722884
  Ewald energy   TEWEN  =     36533.04364812
  -1/2 Hartree   DENC   =    -52315.16111527
  -exchange  EXHF       =         0.00000000
  -V(xc)+E(xc)   XCENC  =       512.17372580
  PAW double counting   =     13125.81258485   -14861.62760996
  entropy T*S    EENTRO =         0.00000000
  eigenvalues    EBANDS =      -395.85897083
  atomic energy  EATOM  =     16691.65700843
  ---------------------------------------------------
  free energy    TOTEN  =       -42.22350003 eV

  energy without entropy =      -42.22350003  energy(sigma->0) =      -42.22350003


--------------------------------------------------------------------------------------------------------




----------------------------------------- Iteration   14(   5)  ---------------------------------------


    POTLOK:  cpu time    0.44: real time    0.44
    SETDIJ:  cpu time    0.06: real time    0.06
     EDDAV:  cpu time   53.39: real time   53.39
 BZINTS: Fermi energy: -0.231481;132.000000 electrons
         Band energy:-395.916550;  BLOECHL correction: -0.140008
       DOS:  cpu time    0.04: real time    0.04
    CHARGE:  cpu time    1.34: real time    1.34
    MIXING:  cpu time    0.02: real time    0.02
    --------------------------------------------
      LOOP:  cpu time   55.29: real time   55.29

 eigenvalue-minimisations  :  1600
 total energy-change (2. order) : 0.1595415E-04  (-0.9201444E-06)
 number of electron     131.9999641 magnetization 
 augmentation part       86.4557089 magnetization 

 Broyden mixing:
  rms(total) = 0.33915E-03    rms(broyden)= 0.33912E-03
  rms(prec ) = 0.37189E-03
  weight for this iteration     100.00

 eigenvalues of (default mixing * dielectric matrix)
  average eigenvalue GAMMA=   1.0070
  2.6454  0.5984  0.4364  0.3478

 Free energy of the ion-electron system (eV)
  ---------------------------------------------------
  alpha Z        PSCENC =       667.73722884
  Ewald energy   TEWEN  =     36533.04364812
  -1/2 Hartree   DENC   =    -52315.10851216
  -exchange  EXHF       =         0.00000000
  -V(xc)+E(xc)   XCENC  =       512.17200523
  PAW double counting   =     13125.87523363   -14861.68354618
  entropy T*S    EENTRO =         0.00000000
  eigenvalues    EBANDS =      -395.91654999
  atomic energy  EATOM  =     16691.65700843
  ---------------------------------------------------
  free energy    TOTEN  =       -42.22348407 eV

  energy without entropy =      -42.22348407  energy(sigma->0) =      -42.22348407


--------------------------------------------------------------------------------------------------------




----------------------------------------- Iteration   14(   6)  ---------------------------------------


    POTLOK:  cpu time    0.44: real time    0.44
    SETDIJ:  cpu time    0.06: real time    0.06
     EDDAV:  cpu time   36.43: real time   36.43
 BZINTS: Fermi energy: -0.231500;132.000000 electrons
         Band energy:-395.922659;  BLOECHL correction: -0.140014
       DOS:  cpu time    0.04: real time    0.04
    --------------------------------------------
      LOOP:  cpu time   36.97: real time   36.97

 eigenvalue-minimisations  :   928
 total energy-change (2. order) :-0.6133887E-06  (-0.2047873E-06)
 number of electron     131.9999641 magnetization 
 augmentation part       86.4557089 magnetization 

 Free energy of the ion-electron system (eV)
  ---------------------------------------------------
  alpha Z        PSCENC =       667.73722884
  Ewald energy   TEWEN  =     36533.04364812
  -1/2 Hartree   DENC   =    -52315.10536683
  -exchange  EXHF       =         0.00000000
  -V(xc)+E(xc)   XCENC  =       512.17175637
  PAW double counting   =     13125.85813735   -14861.66323837
  entropy T*S    EENTRO =         0.00000000
  eigenvalues    EBANDS =      -395.92265859
  atomic energy  EATOM  =     16691.65700843
  ---------------------------------------------------
  free energy    TOTEN  =       -42.22348469 eV

  energy without entropy =      -42.22348469  energy(sigma->0) =      -42.22348469


--------------------------------------------------------------------------------------------------------




 average (electrostatic) potential at core
  the test charge radii are     1.0053
  (the norm of the test charge is              1.0000)
       1 -43.4865       2 -43.7965       3 -43.8545       4 -43.4865       5 -43.7965
       6 -43.8545       7 -43.8546       8 -43.7964       9 -43.4864      10 -43.8546
      11 -43.7964      12 -43.4864
 
 
 
 E-fermi :  -0.2315     XC(G=0):  -7.5000     alpha+bet : -4.9539


 k-point   1 :       0.0000    0.0000    0.0000
  band No.  band energies     occupation 
      1      -9.0969      2.00000
      2      -8.3124      2.00000
      3      -7.0299      2.00000
      4      -5.6121      2.00000
      5      -4.9036      2.00000
      6      -4.8717      2.00000
      7      -4.8171      2.00000
      8      -4.8170      2.00000
      9      -4.4939      2.00000
     10      -4.4939      2.00000
     11      -4.4184      2.00000
     12      -4.4055      2.00000
     13      -4.4055      2.00000
     14      -4.2206      2.00000
     15      -4.1438      2.00000
     16      -4.1438      2.00000
     17      -3.9567      2.00000
     18      -3.9566      2.00000
     19      -3.8703      2.00000
     20      -3.6728      2.00000
     21      -3.6728      2.00000
     22      -3.4760      2.00000
     23      -3.2224      2.00000
     24      -3.1244      2.00000
     25      -3.0583      2.00000
     26      -3.0583      2.00000
     27      -3.0106      2.00000
     28      -3.0106      2.00000
     29      -2.8480      2.00000
     30      -2.8480      2.00000
     31      -2.6240      2.00000
     32      -2.5825      2.00000
     33      -2.4960      2.00000
     34      -2.4960      2.00000
     35      -2.3564      2.00000
     36      -2.3190      2.00000
     37      -2.3118      2.00000
     38      -2.3118      2.00000
     39      -2.2849      2.00000
     40      -2.2048      2.00000
     41      -2.2002      2.00000
     42      -2.2002      2.00000
     43      -2.0744      2.00000
     44      -2.0744      2.00000
     45      -2.0393      2.00000
     46      -1.9343      2.00000
     47      -1.9343      2.00000
     48      -1.8500      2.00000
     49      -1.7894      2.00000
     50      -1.7894      2.00000
     51      -1.7676      2.00000
     52      -1.7676      2.00000
     53      -1.7552      2.00000
     54      -1.7552      2.00000
     55      -1.6796      2.00000
     56      -1.6794      2.00000
     57      -1.6526      2.00000
     58      -1.6474      2.00000
     59      -1.6302      2.00000
     60      -1.6302      2.00000
     61      -1.6063      2.00000
     62      -1.6062      2.00000
     63      -1.5976      2.00000
     64      -1.3007      2.00000
     65      -1.3006      2.00000
     66       0.0664      0.00000
     67       1.1487      0.00000
     68       1.9183      0.00000
     69       1.9183      0.00000
     70       3.1761      0.00000
     71       3.1761      0.00000
     72       4.0253      0.00000
     73       4.6207      0.00000
     74       4.9259      0.00000
     75       4.9259      0.00000
     76       6.5997      0.00000
     77       7.0003      0.00000
     78       7.0003      0.00000
     79       7.0319      0.00000
     80       7.0319      0.00000

 k-point   2 :       0.1429    0.0000    0.0000
  band No.  band energies     occupation 
      1      -8.8545      2.00000
      2      -8.0785      2.00000
      3      -6.8140      2.00000
      4      -5.4283      2.00000
      5      -4.8148      2.00000
      6      -4.7558      2.00000
      7      -4.7501      2.00000
      8      -4.7128      2.00000
      9      -4.4613      2.00000
     10      -4.4158      2.00000
     11      -4.3532      2.00000
     12      -4.3453      2.00000
     13      -4.3337      2.00000
     14      -4.1660      2.00000
     15      -4.1284      2.00000
     16      -4.0965      2.00000
     17      -3.9270      2.00000
     18      -3.8807      2.00000
     19      -3.8343      2.00000
     20      -3.6793      2.00000
     21      -3.6526      2.00000
     22      -3.4661      2.00000
     23      -3.2444      2.00000
     24      -3.0962      2.00000
     25      -3.0691      2.00000
     26      -3.0470      2.00000
     27      -3.0422      2.00000
     28      -3.0189      2.00000
     29      -2.9090      2.00000
     30      -2.9009      2.00000
     31      -2.8524      2.00000
     32      -2.5826      2.00000
     33      -2.5069      2.00000
     34      -2.4523      2.00000
     35      -2.4393      2.00000
     36      -2.4172      2.00000
     37      -2.4131      2.00000
     38      -2.3393      2.00000
     39      -2.3112      2.00000
     40      -2.2665      2.00000
     41      -2.2179      2.00000
     42      -2.1915      2.00000
     43      -2.0931      2.00000
     44      -2.0853      2.00000
     45      -2.0658      2.00000
     46      -2.0381      2.00000
     47      -1.9926      2.00000
     48      -1.9680      2.00000
     49      -1.8863      2.00000
     50      -1.8803      2.00000
     51      -1.8669      2.00000
     52      -1.8394      2.00000
     53      -1.8043      2.00000
     54      -1.7953      2.00000
     55      -1.7923      2.00000
     56      -1.7640      2.00000
     57      -1.7516      2.00000
     58      -1.7338      2.00000
     59      -1.7048      2.00000
     60      -1.7029      2.00000
     61      -1.6802      2.00000
     62      -1.6339      2.00000
     63      -1.4552      2.00000
     64      -1.4336      2.00000
     65      -1.0672      2.00000
     66       0.4911     -0.01213
     67       0.6140      0.00000
     68       1.6411      0.00000
     69       1.7125      0.00000
     70       2.4518      0.00000
     71       3.1746      0.00000
     72       3.6156      0.00000
     73       4.2700      0.00000
     74       4.8411      0.00000
     75       4.8948      0.00000
     76       5.2971      0.00000
     77       6.7502      0.00000
     78       6.8339      0.00000
     79       7.1329      0.00000
     80       7.3254      0.00000

 k-point   3 :       0.2857    0.0000    0.0000
  band No.  band energies     occupation 
      1      -8.1447      2.00000
      2      -7.3983      2.00000
      3      -6.2005      2.00000
      4      -4.9767      2.00000
      5      -4.9370      2.00000
      6      -4.5645      2.00000
      7      -4.4351      2.00000
      8      -4.4118      2.00000
      9      -4.3671      2.00000
     10      -4.2238      2.00000
     11      -4.1753      2.00000
     12      -4.1552      2.00000
     13      -4.1265      2.00000
     14      -4.0931      2.00000
     15      -4.0318      2.00000
     16      -4.0036      2.00000
     17      -3.9649      2.00000
     18      -3.7388      2.00000
     19      -3.6966      2.00000
     20      -3.6072      2.00000
     21      -3.5419      2.00000
     22      -3.4821      2.00000
     23      -3.3954      2.00000
     24      -3.2378      2.00000
     25      -3.1723      2.00000
     26      -3.1715      2.00000
     27      -3.0513      2.00000
     28      -2.9637      2.00000
     29      -2.9229      2.00000
     30      -2.9197      2.00000
     31      -2.9127      2.00000
     32      -2.8218      2.00000
     33      -2.8088      2.00000
     34      -2.7447      2.00000
     35      -2.5947      2.00000
     36      -2.5933      2.00000
     37      -2.5200      2.00000
     38      -2.4582      2.00000
     39      -2.4357      2.00000
     40      -2.3600      2.00000
     41      -2.3131      2.00000
     42      -2.2785      2.00000
     43      -2.1974      2.00000
     44      -2.1788      2.00000
     45      -2.1663      2.00000
     46      -2.1336      2.00000
     47      -2.1327      2.00000
     48      -2.1105      2.00000
     49      -2.0914      2.00000
     50      -2.0836      2.00000
     51      -2.0178      2.00000
     52      -1.9824      2.00000
     53      -1.9745      2.00000
     54      -1.9713      2.00000
     55      -1.9283      2.00000
     56      -1.9224      2.00000
     57      -1.8767      2.00000
     58      -1.8746      2.00000
     59      -1.7856      2.00000
     60      -1.7490      2.00000
     61      -1.6965      2.00000
     62      -1.6427      2.00000
     63      -1.6118      2.00000
     64      -1.3426      2.00000
     65      -1.1766      2.00000
     66      -0.2477      0.80066
     67      -0.2116      0.62388
     68       0.9579      0.00000
     69       1.4601      0.00000
     70       2.5031      0.00000
     71       2.7835      0.00000
     72       3.7286      0.00000
     73       4.3454      0.00000
     74       4.7564      0.00000
     75       5.0039      0.00000
     76       5.4963      0.00000
     77       6.3150      0.00000
     78       6.3503      0.00000
     79       7.4889      0.00000
     80       7.5370      0.00000

 k-point   4 :       0.4286    0.0000    0.0000
  band No.  band energies     occupation 
      1      -7.0406      2.00000
      2      -6.3596      2.00000
      3      -5.7807      2.00000
      4      -5.3276      2.00000
      5      -5.2239      2.00000
      6      -4.5173      2.00000
      7      -4.3741      2.00000
      8      -4.1479      2.00000
      9      -4.1179      2.00000
     10      -4.0942      2.00000
     11      -3.9400      2.00000
     12      -3.9269      2.00000
     13      -3.9237      2.00000
     14      -3.8528      2.00000
     15      -3.8214      2.00000
     16      -3.7812      2.00000
     17      -3.7459      2.00000
     18      -3.6555      2.00000
     19      -3.6212      2.00000
     20      -3.5953      2.00000
     21      -3.5818      2.00000
     22      -3.5176      2.00000
     23      -3.4837      2.00000
     24      -3.4330      2.00000
     25      -3.3584      2.00000
     26      -3.3479      2.00000
     27      -3.2947      2.00000
     28      -3.1962      2.00000
     29      -3.0815      2.00000
     30      -3.0229      2.00000
     31      -2.9767      2.00000
     32      -2.8823      2.00000
     33      -2.6922      2.00000
     34      -2.6908      2.00000
     35      -2.6328      2.00000
     36      -2.6093      2.00000
     37      -2.5670      2.00000
     38      -2.4999      2.00000
     39      -2.4683      2.00000
     40      -2.4679      2.00000
     41      -2.4483      2.00000
     42      -2.4305      2.00000
     43      -2.4233      2.00000
     44      -2.4215      2.00000
     45      -2.4095      2.00000
     46      -2.3267      2.00000
     47      -2.2966      2.00000
     48      -2.2781      2.00000
     49      -2.2653      2.00000
     50      -2.2606      2.00000
     51      -2.1733      2.00000
     52      -2.1711      2.00000
     53      -2.1458      2.00000
     54      -2.1233      2.00000
     55      -2.1219      2.00000
     56      -2.0632      2.00000
     57      -2.0538      2.00000
     58      -1.9145      2.00000
     59      -1.8373      2.00000
     60      -1.8064      2.00000
     61      -1.8001      2.00000
     62      -1.6513      2.00000
     63      -1.6512      2.00000
     64      -1.4143      2.00000
     65      -1.3995      2.00000
     66      -0.5980      2.10518
     67      -0.5755      2.07663
     68       0.6551      0.00000
     69       0.9036      0.00000
     70       2.3910      0.00000
     71       2.7565      0.00000
     72       4.2750      0.00000
     73       4.3772      0.00000
     74       5.4147      0.00000
     75       6.0545      0.00000
     76       6.2198      0.00000
     77       6.3522      0.00000
     78       6.5742      0.00000
     79       7.3874      0.00000
     80       7.8134      0.00000

 k-point   5 :       0.1429    0.1429    0.0000
  band No.  band energies     occupation 
      1      -8.6157      2.00000
      2      -7.8507      2.00000
      3      -6.6105      2.00000
      4      -5.2705      2.00000
      5      -4.7033      2.00000
      6      -4.7032      2.00000
      7      -4.6405      2.00000
      8      -4.6329      2.00000
      9      -4.3925      2.00000
     10      -4.3925      2.00000
     11      -4.2933      2.00000
     12      -4.2697      2.00000
     13      -4.2697      2.00000
     14      -4.1187      2.00000
     15      -4.1187      2.00000
     16      -4.1079      2.00000
     17      -3.8551      2.00000
     18      -3.8550      2.00000
     19      -3.7854      2.00000
     20      -3.6552      2.00000
     21      -3.6552      2.00000
     22      -3.4439      2.00000
     23      -3.2622      2.00000
     24      -3.0857      2.00000
     25      -3.0857      2.00000
     26      -3.0278      2.00000
     27      -3.0230      2.00000
     28      -3.0002      2.00000
     29      -2.9910      2.00000
     30      -2.9470      2.00000
     31      -2.8608      2.00000
     32      -2.7011      2.00000
     33      -2.6294      2.00000
     34      -2.5352      2.00000
     35      -2.5352      2.00000
     36      -2.4130      2.00000
     37      -2.3857      2.00000
     38      -2.3617      2.00000
     39      -2.2815      2.00000
     40      -2.2800      2.00000
     41      -2.2800      2.00000
     42      -2.2688      2.00000
     43      -2.2397      2.00000
     44      -2.2204      2.00000
     45      -2.0990      2.00000
     46      -2.0989      2.00000
     47      -2.0616      2.00000
     48      -2.0072      2.00000
     49      -1.9580      2.00000
     50      -1.9580      2.00000
     51      -1.9327      2.00000
     52      -1.9327      2.00000
     53      -1.8989      2.00000
     54      -1.8397      2.00000
     55      -1.8027      2.00000
     56      -1.8026      2.00000
     57      -1.7605      2.00000
     58      -1.7558      2.00000
     59      -1.7362      2.00000
     60      -1.7362      2.00000
     61      -1.6571      2.00000
     62      -1.6206      2.00000
     63      -1.5409      2.00000
     64      -1.5408      2.00000
     65      -0.7823      2.01722
     66       0.8380     -0.01391
     67       1.0972      0.00000
     68       1.0972      0.00000
     69       2.0637      0.00000
     70       2.0699      0.00000
     71       2.0700      0.00000
     72       3.4242      0.00000
     73       3.4242      0.00000
     74       4.5148      0.00000
     75       5.0596      0.00000
     76       5.2041      0.00000
     77       5.2042      0.00000
     78       7.0681      0.00000
     79       7.0860      0.00000
     80       7.0860      0.00000

 k-point   6 :       0.2857    0.1429    0.0000
  band No.  band energies     occupation 
      1      -7.9183      2.00000
      2      -7.1917      2.00000
      3      -6.0429      2.00000
      4      -4.8761      2.00000
      5      -4.8492      2.00000
      6      -4.5099      2.00000
      7      -4.4021      2.00000
      8      -4.3594      2.00000
      9      -4.3347      2.00000
     10      -4.2337      2.00000
     11      -4.2220      2.00000
     12      -4.1751      2.00000
     13      -4.1164      2.00000
     14      -4.0906      2.00000
     15      -4.0349      2.00000
     16      -3.9278      2.00000
     17      -3.8125      2.00000
     18      -3.7069      2.00000
     19      -3.6305      2.00000
     20      -3.5417      2.00000
     21      -3.4933      2.00000
     22      -3.4144      2.00000
     23      -3.3826      2.00000
     24      -3.1614      2.00000
     25      -3.1586      2.00000
     26      -3.1517      2.00000
     27      -3.0534      2.00000
     28      -2.9745      2.00000
     29      -2.9260      2.00000
     30      -2.9202      2.00000
     31      -2.9165      2.00000
     32      -2.9150      2.00000
     33      -2.8718      2.00000
     34      -2.8032      2.00000
     35      -2.7068      2.00000
     36      -2.5898      2.00000
     37      -2.5703      2.00000
     38      -2.5109      2.00000
     39      -2.4698      2.00000
     40      -2.4498      2.00000
     41      -2.3671      2.00000
     42      -2.3445      2.00000
     43      -2.3266      2.00000
     44      -2.2970      2.00000
     45      -2.2747      2.00000
     46      -2.2316      2.00000
     47      -2.2005      2.00000
     48      -2.1831      2.00000
     49      -2.1435      2.00000
     50      -2.1367      2.00000
     51      -2.0551      2.00000
     52      -2.0008      2.00000
     53      -1.9627      2.00000
     54      -1.9271      2.00000
     55      -1.8521      2.00000
     56      -1.8464      2.00000
     57      -1.8133      2.00000
     58      -1.8089      2.00000
     59      -1.7948      2.00000
     60      -1.6979      2.00000
     61      -1.6646      2.00000
     62      -1.6623      2.00000
     63      -1.6588      2.00000
     64      -1.3441      2.00000
     65      -0.7155      2.00898
     66      -0.0471      0.23697
     67       0.0220      0.10189
     68       1.1323      0.00000
     69       1.7121      0.00000
     70       2.1566      0.00000
     71       2.5665      0.00000
     72       2.9113      0.00000
     73       3.1108      0.00000
     74       4.4666      0.00000
     75       4.6336      0.00000
     76       5.2481      0.00000
     77       5.7036      0.00000
     78       6.1195      0.00000
     79       6.6074      0.00000
     80       7.2001      0.00000

 k-point   7 :       0.4286    0.1429    0.0000
  band No.  band energies     occupation 
      1      -6.8393      2.00000
      2      -6.1999      2.00000
      3      -5.6207      2.00000
      4      -5.2751      2.00000
      5      -5.1454      2.00000
      6      -4.6108      2.00000
      7      -4.4773      2.00000
      8      -4.2653      2.00000
      9      -4.0816      2.00000
     10      -4.0561      2.00000
     11      -4.0347      2.00000
     12      -4.0172      2.00000
     13      -3.8709      2.00000
     14      -3.8610      2.00000
     15      -3.7773      2.00000
     16      -3.7248      2.00000
     17      -3.6480      2.00000
     18      -3.6071      2.00000
     19      -3.5800      2.00000
     20      -3.4660      2.00000
     21      -3.4061      2.00000
     22      -3.4059      2.00000
     23      -3.3770      2.00000
     24      -3.3761      2.00000
     25      -3.3500      2.00000
     26      -3.2977      2.00000
     27      -3.2320      2.00000
     28      -3.1011      2.00000
     29      -3.0555      2.00000
     30      -3.0111      2.00000
     31      -3.0014      2.00000
     32      -2.9399      2.00000
     33      -2.7903      2.00000
     34      -2.7623      2.00000
     35      -2.6900      2.00000
     36      -2.6839      2.00000
     37      -2.6454      2.00000
     38      -2.6359      2.00000
     39      -2.6120      2.00000
     40      -2.5578      2.00000
     41      -2.5512      2.00000
     42      -2.5474      2.00000
     43      -2.4890      2.00000
     44      -2.4023      2.00000
     45      -2.4012      2.00000
     46      -2.3766      2.00000
     47      -2.3090      2.00000
     48      -2.1912      2.00000
     49      -2.1771      2.00000
     50      -2.1178      2.00000
     51      -2.1101      2.00000
     52      -2.1059      2.00000
     53      -2.0310      2.00000
     54      -2.0022      2.00000
     55      -1.9381      2.00000
     56      -1.9326      2.00000
     57      -1.9089      2.00000
     58      -1.9038      2.00000
     59      -1.8045      2.00000
     60      -1.7695      2.00000
     61      -1.7327      2.00000
     62      -1.7059      2.00000
     63      -1.6409      2.00000
     64      -1.4338      2.00000
     65      -1.3228      2.03549
     66      -0.5575      2.03207
     67      -0.5495      1.95145
     68       0.7175      0.00000
     69       1.0201      0.00000
     70       2.4280      0.00000
     71       2.9261      0.00000
     72       3.4540      0.00000
     73       4.4762      0.00000
     74       4.5121      0.00000
     75       4.6012      0.00000
     76       5.2354      0.00000
     77       5.8318      0.00000
     78       6.1136      0.00000
     79       6.2990      0.00000
     80       6.4619      0.00000

 k-point   8 :       0.2857    0.2857    0.0000
  band No.  band energies     occupation 
      1      -7.2631      2.00000
      2      -6.6083      2.00000
      3      -5.6377      2.00000
      4      -4.7577      2.00000
      5      -4.5705      2.00000
      6      -4.5705      2.00000
      7      -4.4983      2.00000
      8      -4.4981      2.00000
      9      -4.2823      2.00000
     10      -4.2528      2.00000
     11      -4.2527      2.00000
     12      -4.1932      2.00000
     13      -3.9770      2.00000
     14      -3.8601      2.00000
     15      -3.8601      2.00000
     16      -3.7096      2.00000
     17      -3.6455      2.00000
     18      -3.6454      2.00000
     19      -3.4041      2.00000
     20      -3.3410      2.00000
     21      -3.3409      2.00000
     22      -3.3237      2.00000
     23      -3.2357      2.00000
     24      -3.1373      2.00000
     25      -3.1372      2.00000
     26      -3.1281      2.00000
     27      -3.1096      2.00000
     28      -3.0662      2.00000
     29      -3.0661      2.00000
     30      -3.0027      2.00000
     31      -2.9451      2.00000
     32      -2.9405      2.00000
     33      -2.8576      2.00000
     34      -2.8492      2.00000
     35      -2.7923      2.00000
     36      -2.7131      2.00000
     37      -2.6624      2.00000
     38      -2.6624      2.00000
     39      -2.6417      2.00000
     40      -2.6402      2.00000
     41      -2.5555      2.00000
     42      -2.5554      2.00000
     43      -2.4640      2.00000
     44      -2.4171      2.00000
     45      -2.4170      2.00000
     46      -2.3740      2.00000
     47      -2.1089      2.00000
     48      -2.1058      2.00000
     49      -2.1058      2.00000
     50      -2.0871      2.00000
     51      -2.0583      2.00000
     52      -1.9960      2.00000
     53      -1.9827      2.00000
     54      -1.9391      2.00000
     55      -1.9391      2.00000
     56      -1.8309      2.00000
     57      -1.7690      2.00000
     58      -1.7690      2.00000
     59      -1.7534      2.00000
     60      -1.6986      2.00000
     61      -1.6839      2.00000
     62      -1.6838      2.00000
     63      -1.6621      2.00000
     64      -1.1668      2.00000
     65       0.1440      0.92788
     66       0.1440     -0.05551
     67       0.4647     -0.31968
     68       0.6705     -0.00226
     69       0.6706      0.00000
     70       1.4512      0.00000
     71       1.4512      0.00000
     72       2.3790      0.00000
     73       3.7651      0.00000
     74       3.7652      0.00000
     75       3.9561      0.00000
     76       4.8234      0.00000
     77       5.5095      0.00000
     78       5.5095      0.00000
     79       5.7343      0.00000
     80       5.9783      0.00000

 k-point   9 :       0.4286    0.2857    0.0000
  band No.  band energies     occupation 
      1      -6.2749      2.00000
      2      -5.7868      2.00000
      3      -5.2151      2.00000
      4      -5.1688      2.00000
      5      -5.0107      2.00000
      6      -4.7822      2.00000
      7      -4.6435      2.00000
      8      -4.5241      2.00000
      9      -4.2308      2.00000
     10      -4.2164      2.00000
     11      -4.0625      2.00000
     12      -4.0186      2.00000
     13      -3.8148      2.00000
     14      -3.7159      2.00000
     15      -3.5655      2.00000
     16      -3.5561      2.00000
     17      -3.5347      2.00000
     18      -3.5202      2.00000
     19      -3.4805      2.00000
     20      -3.2738      2.00000
     21      -3.2707      2.00000
     22      -3.2295      2.00000
     23      -3.2263      2.00000
     24      -3.2108      2.00000
     25      -3.1012      2.00000
     26      -3.0932      2.00000
     27      -3.0723      2.00000
     28      -3.0720      2.00000
     29      -3.0621      2.00000
     30      -3.0131      2.00000
     31      -2.9946      2.00000
     32      -2.9868      2.00000
     33      -2.8771      2.00000
     34      -2.8469      2.00000
     35      -2.8349      2.00000
     36      -2.7739      2.00000
     37      -2.7563      2.00000
     38      -2.7477      2.00000
     39      -2.7147      2.00000
     40      -2.6444      2.00000
     41      -2.5226      2.00000
     42      -2.5105      2.00000
     43      -2.4714      2.00000
     44      -2.4592      2.00000
     45      -2.4553      2.00000
     46      -2.3364      2.00000
     47      -2.3019      2.00000
     48      -2.1388      2.00000
     49      -2.0780      2.00000
     50      -2.0237      2.00000
     51      -1.9952      2.00000
     52      -1.9602      2.00000
     53      -1.8831      2.00000
     54      -1.8488      2.00000
     55      -1.8403      2.00000
     56      -1.8337      2.00000
     57      -1.8139      2.00000
     58      -1.7995      2.00000
     59      -1.7673      2.00000
     60      -1.7432      2.00000
     61      -1.7389      2.00000
     62      -1.6836      2.00000
     63      -1.5298      2.00000
     64      -1.1500      2.00000
     65      -0.9531      2.05252
     66      -0.4723      1.91903
     67      -0.3901      1.70305
     68       0.6940     -0.07819
     69       1.2442      0.00000
     70       1.2571      0.00000
     71       1.4489      0.00000
     72       2.5325      0.00000
     73       3.5383      0.00000
     74       3.5453      0.00000
     75       3.7677      0.00000
     76       3.8133      0.00000
     77       5.0876      0.00000
     78       5.1962      0.00000
     79       5.3791      0.00000
     80       5.3798      0.00000

 k-point  10 :       0.4286    0.4286    0.0000
  band No.  band energies     occupation 
      1      -5.4993      2.00000
      2      -5.3166      2.00000
      3      -5.0642      2.00000
      4      -4.9961      2.00000
      5      -4.9961      2.00000
      6      -4.8265      2.00000
      7      -4.8265      2.00000
      8      -4.7410      2.00000
      9      -4.3590      2.00000
     10      -4.3146      2.00000
     11      -4.3145      2.00000
     12      -4.1711      2.00000
     13      -3.5617      2.00000
     14      -3.4574      2.00000
     15      -3.4573      2.00000
     16      -3.3754      2.00000
     17      -3.3657      2.00000
     18      -3.3412      2.00000
     19      -3.3412      2.00000
     20      -3.2706      2.00000
     21      -3.2706      2.00000
     22      -3.2434      2.00000
     23      -3.1880      2.00000
     24      -3.1606      2.00000
     25      -3.1118      2.00000
     26      -3.1118      2.00000
     27      -3.0700      2.00000
     28      -3.0602      2.00000
     29      -2.9690      2.00000
     30      -2.9254      2.00000
     31      -2.9254      2.00000
     32      -2.9227      2.00000
     33      -2.8860      2.00000
     34      -2.8860      2.00000
     35      -2.8823      2.00000
     36      -2.8498      2.00000
     37      -2.7158      2.00000
     38      -2.7143      2.00000
     39      -2.6844      2.00000
     40      -2.6844      2.00000
     41      -2.5548      2.00000
     42      -2.5033      2.00000
     43      -2.4796      2.00000
     44      -2.4796      2.00000
     45      -2.1554      2.00000
     46      -2.1167      2.00000
     47      -2.1050      2.00000
     48      -2.1049      2.00000
     49      -2.0073      2.00000
     50      -2.0073      2.00000
     51      -2.0064      2.00000
     52      -1.8780      2.00000
     53      -1.8447      2.00000
     54      -1.7957      2.00000
     55      -1.7956      2.00000
     56      -1.7714      2.00000
     57      -1.7535      2.00000
     58      -1.7535      2.00000
     59      -1.7501      2.00000
     60      -1.6997      2.00000
     61      -1.4991      2.00000
     62      -1.3451      2.00000
     63      -1.2109      2.00000
     64      -0.4481      2.00000
     65      -0.4481      1.96368
     66      -0.3277      1.90701
     67      -0.3275      1.84927
     68      -0.2533      0.70556
     69      -0.0136      0.00000
     70      -0.0135      0.00000
     71       0.7692      0.00000
     72       0.8627      0.00000
     73       3.1356      0.00000
     74       3.1357      0.00000
     75       3.2065      0.00000
     76       3.2239      0.00000
     77       4.7836      0.00000
     78       4.8253      0.00000
     79       4.8253      0.00000
     80       5.0010      0.00000


--------------------------------------------------------------------------------------------------------


 soft charge-density along one line, spin component           1
         0         1         2         3         4         5         6         7         8         9
 total charge-density along one line
 
 pseudopotential strength for first ion, spin component:           1
 -9.072   0.000   0.000   0.000   0.000   0.932   0.000   0.000
  0.000  -9.047   0.000   0.000   0.000   0.000   0.920   0.000
  0.000   0.000  -9.030   0.000   0.000   0.000   0.000   0.912
  0.000   0.000   0.000  -9.047   0.000   0.000   0.000   0.000
  0.000   0.000   0.000   0.000  -9.049   0.000   0.000   0.000
  0.932   0.000   0.000   0.000   0.000   1.147   0.000   0.000
  0.000   0.920   0.000   0.000   0.000   0.000   1.152   0.000
  0.000   0.000   0.912   0.000   0.000   0.000   0.000   1.156
  0.000   0.000   0.000   0.920   0.000   0.000   0.000   0.000
  0.000   0.000   0.000   0.000   0.922   0.000   0.000   0.000
  0.000   0.000  -0.005   0.000   0.000   0.000   0.000   0.002
  0.000   0.000   0.000   0.000   0.000   0.000   0.000   0.000
  0.000  -0.013   0.000   0.000   0.000   0.000   0.008   0.000
  0.000   0.000  -0.015   0.000   0.000   0.000   0.000   0.008
  0.000   0.000   0.000  -0.013   0.000   0.000   0.000   0.000
  0.000   0.007   0.000   0.000   0.000   0.000  -0.004   0.000
  0.000   0.000   0.009   0.000   0.000   0.000   0.000  -0.004
  0.000   0.000   0.000   0.007   0.000   0.000   0.000   0.000
 total augmentation occupancy for first ion, spin component:           1
  1.916   0.000   0.000   0.000   0.000   0.003   0.000   0.000   0.000   0.000   0.000   0.000   0.000   0.000   0.000   0.000
  0.000   1.921   0.000   0.000   0.000   0.000  -0.034   0.000   0.000   0.000   0.000   0.000   0.015   0.000   0.000  -0.008
  0.000   0.000   1.932   0.000   0.000   0.000   0.000  -0.059   0.000   0.000   0.020   0.031   0.000   0.015   0.000   0.000
  0.000   0.000   0.000   1.921   0.000   0.000   0.000   0.000  -0.034   0.000   0.000   0.000   0.000   0.000   0.015   0.000
  0.000   0.000   0.000   0.000   1.920   0.000   0.000   0.000   0.000  -0.052   0.000   0.000   0.000   0.000   0.000   0.000
  0.003   0.000   0.000   0.000   0.000   0.060   0.000   0.000   0.000   0.000   0.000   0.000   0.000   0.000   0.000   0.000
  0.000  -0.034   0.000   0.000   0.000   0.000   0.046   0.000   0.000   0.000   0.000   0.000   0.045   0.000   0.000  -0.003
  0.000   0.000  -0.059   0.000   0.000   0.000   0.000   0.052   0.000   0.000  -0.061   0.009   0.000   0.039   0.000   0.000
  0.000   0.000   0.000  -0.034   0.000   0.000   0.000   0.000   0.046   0.000   0.000   0.000   0.000   0.000   0.045   0.000
  0.000   0.000   0.000   0.000  -0.052   0.000   0.000   0.000   0.000   0.055   0.000   0.000   0.000   0.000   0.000   0.000
  0.000   0.000   0.020   0.000   0.000   0.000   0.000  -0.061   0.000   0.000   1.227  -0.277   0.000   0.094   0.000   0.000
  0.000   0.000   0.031   0.000   0.000   0.000   0.000   0.009   0.000   0.000  -0.277   0.108   0.000  -0.054   0.000   0.000
  0.000   0.015   0.000   0.000   0.000   0.000   0.045   0.000   0.000   0.000   0.000   0.000   0.150   0.000   0.000  -0.010
  0.000   0.000   0.015   0.000   0.000   0.000   0.000   0.039   0.000   0.000   0.094  -0.054   0.000   0.088   0.000   0.000
  0.000   0.000   0.000   0.015   0.000   0.000   0.000   0.000   0.045   0.000   0.000   0.000   0.000   0.000   0.150   0.000
  0.000  -0.008   0.000   0.000   0.000   0.000  -0.003   0.000   0.000   0.000   0.000   0.000  -0.010   0.000   0.000   0.001
  0.000   0.000  -0.009   0.000   0.000   0.000   0.000  -0.002   0.000   0.000  -0.017   0.007   0.000  -0.007   0.000   0.000
  0.000   0.000   0.000  -0.008   0.000   0.000   0.000   0.000  -0.003   0.000   0.000   0.000   0.000   0.000  -0.010   0.000


------------------------ aborting loop because EDIFF is reached ----------------------------------------


    CHARGE:  cpu time    1.34: real time    1.34
    FORLOC:  cpu time    0.05: real time    0.05
    FORNL :  cpu time   23.32: real time   23.32
    STRESS:  cpu time   62.69: real time   62.70
    FORCOR:  cpu time    0.47: real time    0.47
    FORHAR:  cpu time    0.15: real time    0.15
    MIXING:  cpu time    0.02: real time    0.02

  FORCE on cell =-STRESS in cart. coord.  units (eV):
  Direction    XX          YY          ZZ          XY          YZ          ZX
  --------------------------------------------------------------------------------------
  Alpha Z   667.73723   667.73723   667.73723
  Ewald   45213.37139 45213.37139-53893.72313     0.00000     0.00000     0.00000
  Hartree 49782.29696 49782.29696-47249.43619     0.00000     0.00000     0.00000
  E(xc)    -750.80425  -750.80425  -751.77230     0.00000     0.00000     0.00000
  Local  -96085.60751-96085.60751100051.71679     0.00000     0.00000     0.00000
  n-local  -438.60682  -451.03902  -445.79087     3.73304     0.00000     0.00000
  augment   674.87205   674.87204   676.22825    -0.00002    -0.00002    -0.00001
  Kinetic   954.79374   926.68810   944.45540    -3.75762     0.00000     0.00000
  Fock        0.00000     0.00000     0.00000     0.00000     0.00000     0.00000
  -------------------------------------------------------------------------------------
  Total      -2.21612    -2.21612    -0.58483     0.00000     0.00000     0.00000
  in kB     -12.88673   -12.88673    -3.40080     0.00000     0.00000     0.00000
  external pressure =       -9.72 kB  Pullay stress =        0.00 kB


 VOLUME and BASIS-vectors are now :
 -----------------------------------------------------------------------------
  energy-cutoff  :      415.00
  volume of cell :      275.52
      direct lattice vectors                 reciprocal lattice vectors
     3.631354857  0.000000000  0.000000000     0.275379311  0.000000000  0.000000000
     0.000000000  3.631354857  0.000000000     0.000000000  0.275379311  0.000000000
     0.000000000  0.000000000 20.894064570     0.000000000  0.000000000  0.047860482

  length of vectors
     3.631354857  3.631354857 20.894064570     0.275379311  0.275379311  0.047860482


 FORCES acting on ions
    electron-ion (+dipol)            ewald-force                    non-local-force                 convergence-correction
 -----------------------------------------------------------------------------------------------
   -.557E-13 0.300E-13 0.394E+04   -.190E-13 -.672E-15 -.394E+04   0.000E+00 0.827E-24 -.263E+01   0.490E-13 0.123E-12 -.125E-01
   -.731E-13 -.697E-13 0.795E+03   -.445E-13 0.778E-14 -.795E+03   0.000E+00 0.000E+00 0.111E-01   -.569E-13 0.350E-13 -.598E-02
   -.688E-13 -.212E-14 -.239E+04   -.383E-14 0.239E-14 0.239E+04   -.103E-24 -.207E-24 0.719E+00   -.380E-13 -.313E-13 0.626E-02
   0.622E-12 0.410E-12 0.394E+04   -.281E-13 -.179E-13 -.394E+04   0.000E+00 0.000E+00 -.263E+01   0.155E-13 0.565E-13 -.125E-01
   0.659E-12 0.892E-12 0.795E+03   -.571E-13 -.738E-14 -.795E+03   0.000E+00 0.000E+00 0.111E-01   0.128E-13 -.184E-13 -.598E-02
   0.630E-12 0.734E-12 -.239E+04   -.216E-13 -.111E-13 0.239E+04   0.155E-24 0.000E+00 0.719E+00   0.405E-14 0.368E-13 0.626E-02
   0.616E-12 -.221E-13 0.239E+04   0.423E-13 0.196E-13 -.239E+04   -.207E-24 0.000E+00 -.719E+00   0.621E-13 0.967E-13 -.631E-02
   0.607E-12 0.894E-14 -.795E+03   -.443E-14 0.202E-14 0.795E+03   0.000E+00 0.000E+00 -.111E-01   0.452E-13 0.169E-13 0.586E-02
   0.681E-12 -.577E-13 -.394E+04   0.133E-13 0.165E-13 0.394E+04   0.207E-24 0.000E+00 0.263E+01   0.536E-13 0.124E-13 0.125E-01
   -.503E-13 0.762E-12 0.239E+04   0.310E-13 0.365E-14 -.239E+04   0.000E+00 0.000E+00 -.719E+00   0.555E-13 0.167E-13 -.631E-02
   -.488E-13 0.108E-11 -.795E+03   -.160E-13 -.155E-13 0.795E+03   0.000E+00 0.000E+00 -.111E-01   -.128E-13 0.484E-13 0.586E-02
   0.175E-13 0.980E-12 -.394E+04   -.124E-14 -.665E-15 0.394E+04   0.207E-24 -.827E-24 0.263E+01   -.668E-14 -.150E-13 0.125E-01
 -----------------------------------------------------------------------------------------------
   0.353E-11 0.475E-11 -.126E-02   -.109E-12 -.129E-14 0.136E-11   0.258E-24 -.207E-24 -.311E-14   0.183E-12 0.377E-12 -.274E-03
 
 
 POSITION                                       TOTAL-FORCE (eV/Angst)
 -----------------------------------------------------------------------------------
      0.00000      0.00000      0.03777         0.000000      0.000000      0.006600
      0.00000      0.00000      3.63439         0.000000      0.000000     -0.001319
      0.00000      0.00000      7.26781         0.000000      0.000000      0.005882
      1.81568      1.81568      0.03777         0.000000      0.000000      0.006600
      1.81568      1.81568      3.63439         0.000000      0.000000     -0.001319
      1.81568      1.81568      7.26781         0.000000      0.000000      0.005882
      1.81568      0.00000      1.81058         0.000000      0.000000     -0.005882
      1.81568      0.00000      5.44399         0.000000      0.000000      0.001319
      1.81568      0.00000      9.04062         0.000000      0.000000     -0.006600
      0.00000      1.81568      1.81058         0.000000      0.000000     -0.005882
      0.00000      1.81568      5.44399         0.000000      0.000000      0.001319
      0.00000      1.81568      9.04062         0.000000      0.000000     -0.006600
 -----------------------------------------------------------------------------------
    total drift:                                0.000000      0.000000     -0.001532


--------------------------------------------------------------------------------------------------------



  FREE ENERGIE OF THE ION-ELECTRON SYSTEM (eV)
  ---------------------------------------------------
  free  energy   TOTEN  =       -42.223485 eV

  energy  without entropy=      -42.223485  energy(sigma->0) =      -42.223485
 
 d Force = 0.1229426E-03[ 0.537E-04, 0.192E-03]  d Energy = 0.4104163E-04 0.819E-04
 d Force =-0.4610880E+02[-0.461E+02,-0.461E+02]  d Ewald  =-0.4610880E+02 0.215E-05


--------------------------------------------------------------------------------------------------------


    POTLOK:  cpu time    0.50: real time    0.51


--------------------------------------------------------------------------------------------------------


 Conjugate gradient step on ions:
 trial-energy change:   -0.000041  1 .order   -0.000123   -0.000192   -0.000054
  (g-gl).g = 0.117E-04      g.g   = 0.120E-04  gl.gl    = 0.977E-05
 g(Force)  = 0.120E-04   g(Stress)= 0.000E+00 ortho     = 0.361E-06
 gamma     =   1.20132
 trial     =  15.43509
 opt step  =  21.41686  (harmonic =  21.41686) maximal distance =0.00348868
 next E    =   -42.223577   (d E  =  -0.00013)


--------------------------------------------------------------------------------------------------------


  
 reached required accuracy - stopping structural energy minimisation
 writing wavefunctions
     LOOP+:  cpu time  418.64: real time  418.67
    4ORBIT:  cpu time    0.00: real time    0.00
 BZINTS: Fermi energy: -0.231500;132.000000 electrons
         Band energy:-395.922659;  BLOECHL correction: -0.140014

 total amount of memory used by VASP on root node    87417. kBytes
========================================================================

   base      :      30000. kBytes
   nonl-proj :       8698. kBytes
   fftplans  :       4875. kBytes
   grid      :       8164. kBytes
   one-center:        186. kBytes
   wavefun   :      35494. kBytes
 
  
  
 General timing and accounting informations for this job:
 ========================================================
  
                  Total CPU time used (sec):     7699.261
                            User time (sec):     7673.208
                          System time (sec):       26.054
                         Elapsed time (sec):     7700.475
  
                   Maximum memory used (kb):           0.
                   Average memory used (kb):           0.
  
                          Minor page faults:       986057
                          Major page faults:           49
                 Voluntary context switches:        38135
