 vasp.5.2.12 11Nov11 complex                                                    
  
 executed on             LinuxIFC date 2016.03.02  00:37:32
 running on    2 nodes
 distr:  one band on    1 nodes,    2 groups


--------------------------------------------------------------------------------------------------------


 INCAR:
 POTCAR:   PAW_PBE Cu 05Jan2001                   
 POTCAR:   PAW_PBE Cu 05Jan2001                   
   VRHFIN =Cu: d10 p1                                                           
   LEXCH  = PE                                                                  
   EATOM  =  1390.9800 eV,  102.2341 Ry                                         
                                                                                
   TITEL  = PAW_PBE Cu 05Jan2001                                                
   LULTRA =        F    use ultrasoft PP ?                                      
   IUNSCR =        1    unscreen: 0-lin 1-nonlin 2-no                           
   RPACOR =    2.000    partial core radius                                     
   POMASS =   63.546; ZVAL   =   11.000    mass and valenz                      
   RCORE  =    2.300    outmost cutoff radius                                   
   RWIGS  =    2.480; RWIGS  =    1.312    wigner-seitz radius (au A)           
   ENMAX  =  273.214; ENMIN  =  204.910 eV                                      
   RCLOC  =    1.712    cutoff for local pot                                    
   LCOR   =        T    correct aug charges                                     
   LPAW   =        T    paw PP                                                  
   EAUG   =  516.456                                                            
   DEXC   =    -.008                                                            
   RMAX   =    2.789    core radius for proj-oper                               
   RAUG   =    1.300    factor for augmentation sphere                          
   RDEP   =    2.302    radius for radial grids                                 
   QCUT   =   -4.481; QGAM   =    8.962    optimization parameters              
                                                                                
   Description                                                                  
     l     E      TYP  RCUT    TYP  RCUT                                        
     2   .000     23  2.300                                                     
     2   .000     23  2.300                                                     
     0   .000     23  2.300                                                     
     0   .000     23  2.300                                                     
     1  -.200     23  2.300                                                     
     1   .000     23  2.300                                                     
     3   .000      7   .000                                                     
  local pseudopotential read in
  partial core-charges read in
  atomic valenz-charges read in
  non local Contribution for L=           2  read in
    real space projection operators read in
  non local Contribution for L=           2  read in
    real space projection operators read in
  non local Contribution for L=           0  read in
    real space projection operators read in
  non local Contribution for L=           0  read in
    real space projection operators read in
  non local Contribution for L=           1  read in
    real space projection operators read in
  non local Contribution for L=           1  read in
    real space projection operators read in
    PAW grid and wavefunctions read in
 
   number of l-projection  operators is LMAX  =           6
   number of lm-projection operators is LMMAX =          18
 
 PAW_PBE Cu 05Jan2001                   :
 energy of atom  1       EATOM=-1390.9800
 kinetic energy error for atom=    0.0086 (will be added to EATOM!!)
 
 
 POSCAR: Cu Bulk                                 
  positions in direct lattice
  No initial velocities read in
 exchange correlation table for  LEXCH =        8
   RHO(1)=    0.500       N(1)  =     2000
   RHO(2)=  100.500       N(2)  =     4000
 


--------------------------------------------------------------------------------------------------------


 ion  position               nearest neighbor table
   1  0.000  0.000  0.000-   2 2.56   3 2.56   4 2.56   3 2.56   4 2.56   2 2.56   4 2.56   4 2.56
                             2 2.56   3 2.56   3 2.56   2 2.56
   2  0.500  0.500  0.000-   1 2.56   3 2.56   4 2.56   3 2.56   4 2.56   1 2.56   3 2.56   3 2.56
                             1 2.56   4 2.56   4 2.56   1 2.56
   3  0.500  0.000  0.500-   1 2.56   2 2.56   4 2.56   1 2.56   2 2.56   2 2.56   4 2.56   2 2.56
                             1 2.56   4 2.56   1 2.56   4 2.56
   4  0.000  0.500  0.500-   1 2.56   2 2.56   3 2.56   1 2.56   2 2.56   1 2.56   3 2.56   1 2.56
                             2 2.56   3 2.56   2 2.56   3 2.56
 
  LATTYP: Found a simple cubic cell.
 ALAT       =     3.6147298650
  
  Lattice vectors:
  
 A1 = (   3.6147298650,   0.0000000000,   0.0000000000)
 A2 = (   0.0000000000,   3.6147298650,   0.0000000000)
 A3 = (   0.0000000000,   0.0000000000,   3.6147298650)
 Subroutine PRICEL returns following result:
 
  LATTYP: Found a face centered cubic cell.
 ALAT       =     3.6147298650
  
  Lattice vectors:
  
 A1 = (   1.8073649325,   1.8073649325,   0.0000000000)
 A2 = (   1.8073649325,   0.0000000000,  -1.8073649325)
 A3 = (   0.0000000000,   1.8073649325,  -1.8073649325)
 
   4 primitive cells build up your supercell.
 

Analysis of symmetry for initial positions (statically):

 Routine SETGRP: Setting up the symmetry group for a 
 simple cubic supercell.


 Subroutine GETGRP returns: Found 48 space group operations
 (whereof 48 operations were pure point group operations)
 out of a pool of 48 trial point group operations.


The static configuration has the point symmetry O_h .

Analysis of symmetry for dynamics (positions and initial velocities):

 Subroutine DYNSYM returns: Found 48 space group operations
 (whereof 48 operations were pure point group operations)
 out of a pool of 48 trial space group operations
 (whereof 48 operations were pure point group operations)
 and found also     4 'primitive' translations


The dynamic configuration has the point symmetry O_h .

Analysis of constrained symmetry for selective dynamics:

 Subroutine DYNSYM returns: Found 48 space group operations
 (whereof 48 operations were pure point group operations)
 out of a pool of 48 trial space group operations
 (whereof 48 operations were pure point group operations)
 and found also     4 'primitive' translations


The constrained configuration has the point symmetry O_h .
 
 
 KPOINTS: K-Points                                

Automatic generation of k-mesh.
 
 Subroutine IBZKPT returns following result:
 ===========================================
 
 Found     20 irreducible k-points:
 
 Following reciprocal coordinates:
            Coordinates               Weight
  0.000000  0.000000  0.000000      1.000000
  0.142857  0.000000  0.000000      6.000000
  0.285714  0.000000  0.000000      6.000000
  0.428571  0.000000  0.000000      6.000000
  0.142857  0.142857  0.000000     12.000000
  0.285714  0.142857  0.000000     24.000000
  0.428571  0.142857  0.000000     24.000000
  0.285714  0.285714  0.000000     12.000000
  0.428571  0.285714  0.000000     24.000000
  0.428571  0.428571  0.000000     12.000000
  0.142857  0.142857  0.142857      8.000000
  0.285714  0.142857  0.142857     24.000000
  0.428571  0.142857  0.142857     24.000000
  0.285714  0.285714  0.142857     24.000000
  0.428571  0.285714  0.142857     48.000000
  0.428571  0.428571  0.142857     24.000000
  0.285714  0.285714  0.285714      8.000000
  0.428571  0.285714  0.285714     24.000000
  0.428571  0.428571  0.285714     24.000000
  0.428571  0.428571  0.428571      8.000000
 
 Following cartesian coordinates:
            Coordinates               Weight
  0.000000  0.000000  0.000000      1.000000
  0.142857  0.000000  0.000000      6.000000
  0.285714  0.000000  0.000000      6.000000
  0.428571  0.000000  0.000000      6.000000
  0.142857  0.142857  0.000000     12.000000
  0.285714  0.142857  0.000000     24.000000
  0.428571  0.142857  0.000000     24.000000
  0.285714  0.285714  0.000000     12.000000
  0.428571  0.285714  0.000000     24.000000
  0.428571  0.428571  0.000000     12.000000
  0.142857  0.142857  0.142857      8.000000
  0.285714  0.142857  0.142857     24.000000
  0.428571  0.142857  0.142857     24.000000
  0.285714  0.285714  0.142857     24.000000
  0.428571  0.285714  0.142857     48.000000
  0.428571  0.428571  0.142857     24.000000
  0.285714  0.285714  0.285714      8.000000
  0.428571  0.285714  0.285714     24.000000
  0.428571  0.428571  0.285714     24.000000
  0.428571  0.428571  0.428571      8.000000
 


--------------------------------------------------------------------------------------------------------




 Dimension of arrays:
   k-points           NKPTS =     20   k-points in BZ     NKDIM =     20   number of bands    NBANDS=     26
   number of dos      NEDOS =    301   number of ions     NIONS =      4
   non local maximal  LDIM  =      6   non local SUM 2l+1 LMDIM =     18
   total plane-waves  NPLWV =   5832
   max r-space proj   IRMAX =      1   max aug-charges    IRDMAX=   4533
   dimension x,y,z NGX =    18 NGY =   18 NGZ =   18
   dimension x,y,z NGXF=    36 NGYF=   36 NGZF=   36
   support grid    NGXF=    36 NGYF=   36 NGZF=   36
   ions per type =               4
 NGX,Y,Z   is equivalent  to a cutoff of   8.28,  8.28,  8.28 a.u.
 NGXF,Y,Z  is equivalent  to a cutoff of  16.56, 16.56, 16.56 a.u.


 I would recommend the setting:
   dimension x,y,z NGX =    18 NGY =   18 NGZ =   18
 SYSTEM =  unknown system                          
 POSCAR =  Cu Bulk                                 

 Startparameter for this run:
   NWRITE =      2    write-flag & timer
   PREC   = normal    normal or accurate (medium, high low for compatibility)
   ISTART =      0    job   : 0-new  1-cont  2-samecut
   ICHARG =      2    charge: 1-file 2-atom 10-const
   ISPIN  =      1    spin polarized calculation?
   LNONCOLLINEAR =      F non collinear calculations
   LSORBIT =      F    spin-orbit coupling
   INIWAV =      1    electr: 0-lowe 1-rand  2-diag
   LASPH  =      F    aspherical Exc in radial PAW
   METAGGA=      F    non-selfconsistent MetaGGA calc.

 Electronic Relaxation 1
   ENCUT  =  415.0 eV  30.50 Ry    5.52 a.u.   6.00  6.00  6.00*2*pi/ulx,y,z
   ENINI  =  415.0     initial cutoff
   ENAUG  =  516.5 eV  augmentation charge cutoff
   NELM   =    101;   NELMIN=  2; NELMDL=-12     # of ELM steps 
   EDIFF  = 0.1E-05   stopping-criterion for ELM
   LREAL  =      F    real-space projection
   NLSPLINE    = F    spline interpolate recip. space projectors
   LCOMPAT=      F    compatible to vasp.4.4
   GGA_COMPAT  = T    GGA compatible to vasp.4.4-vasp.4.6
   LMAXPAW     = -100 max onsite density
   LMAXMIX     =    2 max onsite mixed and CHGCAR
   VOSKOWN=      0    Vosko Wilk Nusair interpolation
   ROPT   =    0.00000
 Ionic relaxation
   EDIFFG = 0.1E-03   stopping-criterion for IOM
   NSW    =    101    number of steps for IOM
   NBLOCK =      1;   KBLOCK =    101    inner block; outer block 
   IBRION =      2    ionic relax: 0-MD 1-quasi-New 2-CG
   NFREE  =      1    steps in history (QN), initial steepest desc. (CG)
   ISIF   =      7    stress and relaxation
   IWAVPR =     11    prediction:  0-non 1-charg 2-wave 3-comb
   ISYM   =      2    0-nonsym 1-usesym 2-fastsym
   LCORR  =      T    Harris-Foulkes like correction to forces

   POTIM  = 0.0500    time-step for ionic-motion
   TEIN   =    0.0    initial temperature
   TEBEG  =    0.0;   TEEND  =   0.0 temperature during run
   SMASS  =  -3.00    Nose mass-parameter (am)
   estimated Nose-frequenzy (Omega)   =  0.10E-29 period in steps =****** mass=  -0.299E-27a.u.
   SCALEE = 1.0000    scale energy and forces
   NPACO  =    256;   APACO  = 16.0  distance and # of slots for P.C.
   PSTRESS=    0.0 pullay stress

  Mass of Ions in am
   POMASS =  63.55
  Ionic Valenz
   ZVAL   =  11.00
  Atomic Wigner-Seitz radii
   RWIGS  =  -1.00
  virtual crystal weights 
   VCA    =   1.00
   NELECT =      44.0000    total number of electrons
   NUPDOWN=      -1.0000    fix difference up-down

 DOS related values:
   EMIN   =  10.00;   EMAX   =-10.00  energy-range for DOS
   EFERMI =   0.00
   ISMEAR =     0;   SIGMA  =   0.30  broadening in eV -4-tet -1-fermi 0-gaus

 Electronic relaxation 2 (details)
   IALGO  =     48    algorithm
   LDIAG  =      T    sub-space diagonalisation (order eigenvalues)
   LSUBROT=      T    optimize rotation matrix (better conditioning)
   TURBO    =      0    0=normal 1=particle mesh
   IRESTART =      0    0=no restart 2=restart with 2 vectors
   NREBOOT  =      0    no. of reboots
   NMIN     =      0    reboot dimension
   EREF     =   0.00    reference energy to select bands
   IMIX   =      4    mixing-type and parameters
     AMIX     =   0.40;   BMIX     =  1.00
     AMIX_MAG =   1.60;   BMIX_MAG =  1.00
     AMIN     =   0.10
     WC   =   100.;   INIMIX=   1;  MIXPRE=   1

 Intra band minimization:
   WEIMIN = 0.0010     energy-eigenvalue tresh-hold
   EBREAK =  0.96E-08  absolut break condition
   DEPER  =   0.30     relativ break condition  

   TIME   =   0.40     timestep for ELM

  volume/ion in A,a.u.               =      11.81        79.68
  Fermi-wavevector in a.u.,A,eV,Ry     =   1.598882  3.021450 34.782276  2.556425
  Thomas-Fermi vector in A             =   2.696262
 
 Write flags
   LWAVE  =      T    write WAVECAR
   LCHARG =      T    write CHGCAR
   LVTOT  =      F    write LOCPOT, total local potential
   LVHAR  =      F    write LOCPOT, Hartree potential only
   LELF   =      F    write electronic localiz. function (ELF)
   LORBIT =      0    0 simple, 1 ext, 2 COOP (PROOUT)


 Dipole corrections
   LMONO  =      F    monopole corrections only (constant potential shift)
   LDIPOL =      F    correct potential (dipole corrections)
   IDIPOL =      0    1-x, 2-y, 3-z, 4-all directions 
   EPSILON=  1.0000000 bulk dielectric constant

 Exchange correlation treatment:
   GGA     =    PE    GGA type
   LEXCH   =     8    internal setting for exchange type
   VOSKOWN=      0    Vosko Wilk Nusair interpolation
   LHFCALC =     F    Hartree Fock is set to
   LHFONE  =     F    Hartree Fock one center treatment
   AEXX    =    0.0000 exact exchange contribution

 Linear response parameters
   LEPSILON=     F    determine dielectric tensor
   LRPA    =     F    only Hartree local field effects (RPA)
   LNABLA  =     F    use nabla operator in PAW spheres
   LVEL    =     F    velocity operator in full k-point grid
   LINTERFAST=   F  fast interpolation
   KINTER  =     0    interpolate to denser k-point grid
   CSHIFT  =0.1000    complex shift for real part using Kramers Kronig
   OMEGAMAX=  -1.0    maximum frequency
   RTIME   =    0.100 relaxation time in fs

 Orbital magnetization related:
   ORBITALMAG=     F  switch on orbital magnetization
   LCHIMAG   =     F  perturbation theory with respect to B field
   DQ        =  0.001000  dq finite difference perturbation B field



--------------------------------------------------------------------------------------------------------


 conjugate gradient relaxation of ions
   using selective dynamics as specified on POSCAR
 charge density and potential will be updated during run
 non-spin polarized calculation
 RMM-DIIS sequential band-by-band
 perform sub-space diagonalisation
    before iterative eigenvector-optimisation
 modified Broyden-mixing scheme, WC =      100.0
 initial mixing is a Kerker type mixing with AMIX =  0.4000 and BMIX =      1.0000
 Hartree-type preconditioning will be used
 using additional bands            4
 reciprocal scheme for non local part
 use partial core corrections
 calculate Harris-corrections to forces 
   (improved forces if not selfconsistent)
 use gradient corrections 
 use of overlap-Matrix (Vanderbilt PP)
 Gauss-broadening in eV      SIGMA  =   0.30


--------------------------------------------------------------------------------------------------------


  energy-cutoff  :      415.00
  volume of cell :       47.23
      direct lattice vectors                 reciprocal lattice vectors
     3.614729865  0.000000000  0.000000000     0.276645846  0.000000000  0.000000000
     0.000000000  3.614729865  0.000000000     0.000000000  0.276645846  0.000000000
     0.000000000  0.000000000  3.614729865     0.000000000  0.000000000  0.276645846

  length of vectors
     3.614729865  3.614729865  3.614729865     0.276645846  0.276645846  0.276645846


 
 k-points in units of 2pi/SCALE and weight: K-Points                                
   0.00000000  0.00000000  0.00000000       0.003
   0.14285714  0.00000000  0.00000000       0.017
   0.28571429  0.00000000  0.00000000       0.017
   0.42857143  0.00000000  0.00000000       0.017
   0.14285714  0.14285714  0.00000000       0.035
   0.28571429  0.14285714  0.00000000       0.070
   0.42857143  0.14285714  0.00000000       0.070
   0.28571429  0.28571429  0.00000000       0.035
   0.42857143  0.28571429  0.00000000       0.070
   0.42857143  0.42857143  0.00000000       0.035
   0.14285714  0.14285714  0.14285714       0.023
   0.28571429  0.14285714  0.14285714       0.070
   0.42857143  0.14285714  0.14285714       0.070
   0.28571429  0.28571429  0.14285714       0.070
   0.42857143  0.28571429  0.14285714       0.140
   0.42857143  0.42857143  0.14285714       0.070
   0.28571429  0.28571429  0.28571429       0.023
   0.42857143  0.28571429  0.28571429       0.070
   0.42857143  0.42857143  0.28571429       0.070
   0.42857143  0.42857143  0.42857143       0.023
 
 k-points in reciprocal lattice and weights: K-Points                                
   0.00000000  0.00000000  0.00000000       0.003
   0.14285714  0.00000000  0.00000000       0.017
   0.28571429  0.00000000  0.00000000       0.017
   0.42857143  0.00000000  0.00000000       0.017
   0.14285714  0.14285714  0.00000000       0.035
   0.28571429  0.14285714  0.00000000       0.070
   0.42857143  0.14285714  0.00000000       0.070
   0.28571429  0.28571429  0.00000000       0.035
   0.42857143  0.28571429  0.00000000       0.070
   0.42857143  0.42857143  0.00000000       0.035
   0.14285714  0.14285714  0.14285714       0.023
   0.28571429  0.14285714  0.14285714       0.070
   0.42857143  0.14285714  0.14285714       0.070
   0.28571429  0.28571429  0.14285714       0.070
   0.42857143  0.28571429  0.14285714       0.140
   0.42857143  0.42857143  0.14285714       0.070
   0.28571429  0.28571429  0.28571429       0.023
   0.42857143  0.28571429  0.28571429       0.070
   0.42857143  0.42857143  0.28571429       0.070
   0.42857143  0.42857143  0.42857143       0.023
 
 position of ions in fractional coordinates (direct lattice) 
   0.00000000  0.00000000  0.00000000
   0.50000000  0.50000000  0.00000000
   0.50000000  0.00000000  0.50000000
   0.00000000  0.50000000  0.50000000
 
 position of ions in cartesian coordinates  (Angst):
   0.00000000  0.00000000  0.00000000
   1.80736493  1.80736493  0.00000000
   1.80736493  0.00000000  1.80736493
   0.00000000  1.80736493  1.80736493
 


--------------------------------------------------------------------------------------------------------


 k-point  1 :  0.00000.00000.0000  plane waves:     925
 k-point  2 :  0.14290.00000.0000  plane waves:     908
 k-point  3 :  0.28570.00000.0000  plane waves:     900
 k-point  4 :  0.42860.00000.0000  plane waves:     896
 k-point  5 :  0.14290.14290.0000  plane waves:     915
 k-point  6 :  0.28570.14290.0000  plane waves:     900
 k-point  7 :  0.42860.14290.0000  plane waves:     899
 k-point  8 :  0.28570.28570.0000  plane waves:     896
 k-point  9 :  0.42860.28570.0000  plane waves:     903
 k-point 10 :  0.42860.42860.0000  plane waves:     906
 k-point 11 :  0.14290.14290.1429  plane waves:     910
 k-point 12 :  0.28570.14290.1429  plane waves:     900
 k-point 13 :  0.42860.14290.1429  plane waves:     904
 k-point 14 :  0.28570.28570.1429  plane waves:     906
 k-point 15 :  0.42860.28570.1429  plane waves:     910
 k-point 16 :  0.42860.42860.1429  plane waves:     907
 k-point 17 :  0.28570.28570.2857  plane waves:     910
 k-point 18 :  0.42860.28570.2857  plane waves:     917
 k-point 19 :  0.42860.42860.2857  plane waves:     917
 k-point 20 :  0.42860.42860.4286  plane waves:     919

 maximum and minimum number of plane-waves per node :       925      896

 maximum number of plane-waves:       925
 maximum index in each direction: 
   IXMAX=    6   IYMAX=    6   IZMAX=    6
   IXMIN=   -6   IYMIN=   -6   IZMIN=   -6

 WARNING: aliasing errors must be expected set NGX to  26 to avoid them
 WARNING: aliasing errors must be expected set NGY to  26 to avoid them
 WARNING: aliasing errors must be expected set NGZ to  26 to avoid them
 aliasing errors are usually negligible using standard VASP settings
 and one can safely disregard these warnings

 serial   3D FFT for wavefunctions
 parallel 3D FFT for charge:
    minimum data exchange during FFTs selected (reduces bandwidth)


 total amount of memory used by VASP on root node    39186. kBytes
========================================================================

   base      :      30000. kBytes
   nonl-proj :       2726. kBytes
   fftplans  :        848. kBytes
   grid      :       1399. kBytes
   one-center:         62. kBytes
   wavefun   :       4151. kBytes
 
 Broyden mixing: mesh for mixing (old mesh)
   NGX = 13   NGY = 13   NGZ = 13
  (NGX  = 36   NGY  = 36   NGZ  = 36)
  gives a total of   2197 points

 initial charge density was supplied:
 charge density of overlapping atoms calculated
 number of electron      44.0000000 magnetization 
 keeping initial charge density in first step


--------------------------------------------------------------------------------------------------------


 Maximum index for augmentation-charges         2047 (set IRDMAX)


--------------------------------------------------------------------------------------------------------


 First call to EWALD:  gamma=   0.490
 Maximum number of real-space cells 3x 3x 3
 Maximum number of reciprocal cells 3x 3x 3

    FEWALD:  cpu time    0.00: real time    0.00


----------------------------------------- Iteration    1(   1)  ---------------------------------------


    POTLOK:  cpu time    0.06: real time    0.06
    SETDIJ:  cpu time    0.02: real time    0.02
    EDDIAG:  cpu time    0.29: real time    0.29
  RMM-DIIS:  cpu time    0.61: real time    0.61
    ORTHCH:  cpu time    0.07: real time    0.07
       DOS:  cpu time    0.00: real time    0.00
    --------------------------------------------
      LOOP:  cpu time    1.05: real time    1.05

 eigenvalue-minimisations  :   520
 total energy-change (2. order) : 0.2163639E+03  (-0.1700909E+04)
 number of electron      44.0000000 magnetization 
 augmentation part       44.0000000 magnetization 

 Free energy of the ion-electron system (eV)
  ---------------------------------------------------
  alpha Z        PSCENC =       432.80857074
  Ewald energy   TEWEN  =     -4419.99595431
  -1/2 Hartree   DENC   =     -1304.59886323
  -exchange  EXHF       =         0.00000000
  -V(xc)+E(xc)   XCENC  =       175.61210142
  PAW double counting   =      4328.20916945    -4904.30802700
  entropy T*S    EENTRO =        -0.21869305
  eigenvalues    EBANDS =       344.96997417
  atomic energy  EATOM  =      5563.88566948
  ---------------------------------------------------
  free energy    TOTEN  =       216.36394766 eV

  energy without entropy =      216.58264071  energy(sigma->0) =      216.47329419


--------------------------------------------------------------------------------------------------------




----------------------------------------- Iteration    1(   2)  ---------------------------------------


    EDDIAG:  cpu time    0.28: real time    0.29
  RMM-DIIS:  cpu time    0.60: real time    0.60
    ORTHCH:  cpu time    0.06: real time    0.07
       DOS:  cpu time    0.00: real time    0.00
    --------------------------------------------
      LOOP:  cpu time    0.96: real time    0.96

 eigenvalue-minimisations  :   520
 total energy-change (2. order) :-0.1979673E+03  (-0.2367157E+03)
 number of electron      44.0000000 magnetization 
 augmentation part       44.0000000 magnetization 

 Free energy of the ion-electron system (eV)
  ---------------------------------------------------
  alpha Z        PSCENC =       432.80857074
  Ewald energy   TEWEN  =     -4419.99595431
  -1/2 Hartree   DENC   =     -1304.59886323
  -exchange  EXHF       =         0.00000000
  -V(xc)+E(xc)   XCENC  =       175.61210142
  PAW double counting   =      4328.20916945    -4904.30802700
  entropy T*S    EENTRO =        -0.07116870
  eigenvalues    EBANDS =       146.85510991
  atomic energy  EATOM  =      5563.88566948
  ---------------------------------------------------
  free energy    TOTEN  =        18.39660774 eV

  energy without entropy =       18.46777645  energy(sigma->0) =       18.43219210


--------------------------------------------------------------------------------------------------------




----------------------------------------- Iteration    1(   3)  ---------------------------------------


    EDDIAG:  cpu time    0.29: real time    0.29
  RMM-DIIS:  cpu time    0.60: real time    0.60
    ORTHCH:  cpu time    0.06: real time    0.07
       DOS:  cpu time    0.00: real time    0.00
    --------------------------------------------
      LOOP:  cpu time    0.96: real time    0.96

 eigenvalue-minimisations  :   520
 total energy-change (2. order) :-0.2816003E+02  (-0.3039940E+02)
 number of electron      44.0000000 magnetization 
 augmentation part       44.0000000 magnetization 

 Free energy of the ion-electron system (eV)
  ---------------------------------------------------
  alpha Z        PSCENC =       432.80857074
  Ewald energy   TEWEN  =     -4419.99595431
  -1/2 Hartree   DENC   =     -1304.59886323
  -exchange  EXHF       =         0.00000000
  -V(xc)+E(xc)   XCENC  =       175.61210142
  PAW double counting   =      4328.20916945    -4904.30802700
  entropy T*S    EENTRO =        -0.16103649
  eigenvalues    EBANDS =       118.78494463
  atomic energy  EATOM  =      5563.88566948
  ---------------------------------------------------
  free energy    TOTEN  =        -9.76342532 eV

  energy without entropy =       -9.60238882  energy(sigma->0) =       -9.68290707


--------------------------------------------------------------------------------------------------------




----------------------------------------- Iteration    1(   4)  ---------------------------------------


    EDDIAG:  cpu time    0.29: real time    0.29
  RMM-DIIS:  cpu time    0.60: real time    0.60
    ORTHCH:  cpu time    0.06: real time    0.07
       DOS:  cpu time    0.00: real time    0.00
    --------------------------------------------
      LOOP:  cpu time    0.96: real time    0.96

 eigenvalue-minimisations  :   520
 total energy-change (2. order) :-0.7041082E+01  (-0.3437262E+01)
 number of electron      44.0000000 magnetization 
 augmentation part       44.0000000 magnetization 

 Free energy of the ion-electron system (eV)
  ---------------------------------------------------
  alpha Z        PSCENC =       432.80857074
  Ewald energy   TEWEN  =     -4419.99595431
  -1/2 Hartree   DENC   =     -1304.59886323
  -exchange  EXHF       =         0.00000000
  -V(xc)+E(xc)   XCENC  =       175.61210142
  PAW double counting   =      4328.20916945    -4904.30802700
  entropy T*S    EENTRO =        -0.09452025
  eigenvalues    EBANDS =       111.67734599
  atomic energy  EATOM  =      5563.88566948
  ---------------------------------------------------
  free energy    TOTEN  =       -16.80450773 eV

  energy without entropy =      -16.70998747  energy(sigma->0) =      -16.75724760


--------------------------------------------------------------------------------------------------------




----------------------------------------- Iteration    1(   5)  ---------------------------------------


    EDDIAG:  cpu time    0.28: real time    0.29
  RMM-DIIS:  cpu time    0.60: real time    0.61
    ORTHCH:  cpu time    0.07: real time    0.07
       DOS:  cpu time    0.00: real time    0.00
    --------------------------------------------
      LOOP:  cpu time    0.96: real time    0.96

 eigenvalue-minimisations  :   520
 total energy-change (2. order) :-0.1278592E+01  (-0.7896346E+00)
 number of electron      44.0000000 magnetization 
 augmentation part       44.0000000 magnetization 

 Free energy of the ion-electron system (eV)
  ---------------------------------------------------
  alpha Z        PSCENC =       432.80857074
  Ewald energy   TEWEN  =     -4419.99595431
  -1/2 Hartree   DENC   =     -1304.59886323
  -exchange  EXHF       =         0.00000000
  -V(xc)+E(xc)   XCENC  =       175.61210142
  PAW double counting   =      4328.20916945    -4904.30802700
  entropy T*S    EENTRO =        -0.09153807
  eigenvalues    EBANDS =       110.39577229
  atomic energy  EATOM  =      5563.88566948
  ---------------------------------------------------
  free energy    TOTEN  =       -18.08309924 eV

  energy without entropy =      -17.99156117  energy(sigma->0) =      -18.03733021


--------------------------------------------------------------------------------------------------------




----------------------------------------- Iteration    1(   6)  ---------------------------------------


    EDDIAG:  cpu time    0.28: real time    0.28
  RMM-DIIS:  cpu time    0.61: real time    0.60
    ORTHCH:  cpu time    0.06: real time    0.07
       DOS:  cpu time    0.00: real time    0.00
    --------------------------------------------
      LOOP:  cpu time    0.96: real time    0.96

 eigenvalue-minimisations  :   520
 total energy-change (2. order) :-0.2332849E+00  (-0.2117075E+00)
 number of electron      44.0000000 magnetization 
 augmentation part       44.0000000 magnetization 

 Free energy of the ion-electron system (eV)
  ---------------------------------------------------
  alpha Z        PSCENC =       432.80857074
  Ewald energy   TEWEN  =     -4419.99595431
  -1/2 Hartree   DENC   =     -1304.59886323
  -exchange  EXHF       =         0.00000000
  -V(xc)+E(xc)   XCENC  =       175.61210142
  PAW double counting   =      4328.20916945    -4904.30802700
  entropy T*S    EENTRO =        -0.08235988
  eigenvalues    EBANDS =       110.15330919
  atomic energy  EATOM  =      5563.88566948
  ---------------------------------------------------
  free energy    TOTEN  =       -18.31638415 eV

  energy without entropy =      -18.23402427  energy(sigma->0) =      -18.27520421


--------------------------------------------------------------------------------------------------------




----------------------------------------- Iteration    1(   7)  ---------------------------------------


    EDDIAG:  cpu time    0.28: real time    0.29
  RMM-DIIS:  cpu time    0.60: real time    0.60
    ORTHCH:  cpu time    0.06: real time    0.07
       DOS:  cpu time    0.00: real time    0.00
    --------------------------------------------
      LOOP:  cpu time    0.96: real time    0.96

 eigenvalue-minimisations  :   520
 total energy-change (2. order) :-0.5902953E-01  (-0.5634528E-01)
 number of electron      44.0000000 magnetization 
 augmentation part       44.0000000 magnetization 

 Free energy of the ion-electron system (eV)
  ---------------------------------------------------
  alpha Z        PSCENC =       432.80857074
  Ewald energy   TEWEN  =     -4419.99595431
  -1/2 Hartree   DENC   =     -1304.59886323
  -exchange  EXHF       =         0.00000000
  -V(xc)+E(xc)   XCENC  =       175.61210142
  PAW double counting   =      4328.20916945    -4904.30802700
  entropy T*S    EENTRO =        -0.08237676
  eigenvalues    EBANDS =       110.09429654
  atomic energy  EATOM  =      5563.88566948
  ---------------------------------------------------
  free energy    TOTEN  =       -18.37541368 eV

  energy without entropy =      -18.29303692  energy(sigma->0) =      -18.33422530


--------------------------------------------------------------------------------------------------------




----------------------------------------- Iteration    1(   8)  ---------------------------------------


    EDDIAG:  cpu time    0.28: real time    0.28
  RMM-DIIS:  cpu time    0.61: real time    0.61
    ORTHCH:  cpu time    0.06: real time    0.07
       DOS:  cpu time    0.00: real time    0.00
    --------------------------------------------
      LOOP:  cpu time    0.96: real time    0.96

 eigenvalue-minimisations  :   520
 total energy-change (2. order) :-0.1605396E-01  (-0.1626842E-01)
 number of electron      44.0000000 magnetization 
 augmentation part       44.0000000 magnetization 

 Free energy of the ion-electron system (eV)
  ---------------------------------------------------
  alpha Z        PSCENC =       432.80857074
  Ewald energy   TEWEN  =     -4419.99595431
  -1/2 Hartree   DENC   =     -1304.59886323
  -exchange  EXHF       =         0.00000000
  -V(xc)+E(xc)   XCENC  =       175.61210142
  PAW double counting   =      4328.20916945    -4904.30802700
  entropy T*S    EENTRO =        -0.08240231
  eigenvalues    EBANDS =       110.07826814
  atomic energy  EATOM  =      5563.88566948
  ---------------------------------------------------
  free energy    TOTEN  =       -18.39146764 eV

  energy without entropy =      -18.30906532  energy(sigma->0) =      -18.35026648


--------------------------------------------------------------------------------------------------------




----------------------------------------- Iteration    1(   9)  ---------------------------------------


    EDDIAG:  cpu time    0.28: real time    0.28
  RMM-DIIS:  cpu time    1.14: real time    1.14
    ORTHCH:  cpu time    0.06: real time    0.07
       DOS:  cpu time    0.00: real time    0.00
    --------------------------------------------
      LOOP:  cpu time    1.49: real time    1.49

 eigenvalue-minimisations  :  1046
 total energy-change (2. order) :-0.6095188E-02  (-0.6333793E-02)
 number of electron      44.0000000 magnetization 
 augmentation part       44.0000000 magnetization 

 Free energy of the ion-electron system (eV)
  ---------------------------------------------------
  alpha Z        PSCENC =       432.80857074
  Ewald energy   TEWEN  =     -4419.99595431
  -1/2 Hartree   DENC   =     -1304.59886323
  -exchange  EXHF       =         0.00000000
  -V(xc)+E(xc)   XCENC  =       175.61210142
  PAW double counting   =      4328.20916945    -4904.30802700
  entropy T*S    EENTRO =        -0.08245973
  eigenvalues    EBANDS =       110.07223037
  atomic energy  EATOM  =      5563.88566948
  ---------------------------------------------------
  free energy    TOTEN  =       -18.39756282 eV

  energy without entropy =      -18.31510309  energy(sigma->0) =      -18.35633296


--------------------------------------------------------------------------------------------------------




----------------------------------------- Iteration    1(  10)  ---------------------------------------


    EDDIAG:  cpu time    0.28: real time    0.28
  RMM-DIIS:  cpu time    1.12: real time    1.12
    ORTHCH:  cpu time    0.06: real time    0.07
       DOS:  cpu time    0.00: real time    0.00
    --------------------------------------------
      LOOP:  cpu time    1.48: real time    1.48

 eigenvalue-minimisations  :  1036
 total energy-change (2. order) :-0.5998501E-03  (-0.6763843E-03)
 number of electron      44.0000000 magnetization 
 augmentation part       44.0000000 magnetization 

 Free energy of the ion-electron system (eV)
  ---------------------------------------------------
  alpha Z        PSCENC =       432.80857074
  Ewald energy   TEWEN  =     -4419.99595431
  -1/2 Hartree   DENC   =     -1304.59886323
  -exchange  EXHF       =         0.00000000
  -V(xc)+E(xc)   XCENC  =       175.61210142
  PAW double counting   =      4328.20916945    -4904.30802700
  entropy T*S    EENTRO =        -0.08247069
  eigenvalues    EBANDS =       110.07164147
  atomic energy  EATOM  =      5563.88566948
  ---------------------------------------------------
  free energy    TOTEN  =       -18.39816267 eV

  energy without entropy =      -18.31569199  energy(sigma->0) =      -18.35692733


--------------------------------------------------------------------------------------------------------




----------------------------------------- Iteration    1(  11)  ---------------------------------------


    EDDIAG:  cpu time    0.28: real time    0.28
  RMM-DIIS:  cpu time    0.98: real time    0.98
    ORTHCH:  cpu time    0.07: real time    0.07
       DOS:  cpu time    0.00: real time    0.00
    --------------------------------------------
      LOOP:  cpu time    1.33: real time    1.33

 eigenvalue-minimisations  :   891
 total energy-change (2. order) :-0.3322501E-04  (-0.3389170E-04)
 number of electron      44.0000000 magnetization 
 augmentation part       44.0000000 magnetization 

 Free energy of the ion-electron system (eV)
  ---------------------------------------------------
  alpha Z        PSCENC =       432.80857074
  Ewald energy   TEWEN  =     -4419.99595431
  -1/2 Hartree   DENC   =     -1304.59886323
  -exchange  EXHF       =         0.00000000
  -V(xc)+E(xc)   XCENC  =       175.61210142
  PAW double counting   =      4328.20916945    -4904.30802700
  entropy T*S    EENTRO =        -0.08247050
  eigenvalues    EBANDS =       110.07160806
  atomic energy  EATOM  =      5563.88566948
  ---------------------------------------------------
  free energy    TOTEN  =       -18.39819590 eV

  energy without entropy =      -18.31572540  energy(sigma->0) =      -18.35696065


--------------------------------------------------------------------------------------------------------




----------------------------------------- Iteration    1(  12)  ---------------------------------------


    EDDIAG:  cpu time    0.28: real time    0.28
  RMM-DIIS:  cpu time    0.72: real time    0.72
    ORTHCH:  cpu time    0.07: real time    0.07
       DOS:  cpu time    0.00: real time    0.00
    CHARGE:  cpu time    0.10: real time    0.10
    MIXING:  cpu time    0.00: real time    0.00
    --------------------------------------------
      LOOP:  cpu time    1.18: real time    1.18

 eigenvalue-minimisations  :   615
 total energy-change (2. order) :-0.3626711E-05  (-0.4184774E-05)
 number of electron      44.0000330 magnetization 
 augmentation part       26.7698176 magnetization 

 Broyden mixing:
  rms(total) = 0.13987E+01    rms(broyden)= 0.13987E+01
  rms(prec ) = 0.33553E+01
  weight for this iteration     100.00

 Free energy of the ion-electron system (eV)
  ---------------------------------------------------
  alpha Z        PSCENC =       432.80857074
  Ewald energy   TEWEN  =     -4419.99595431
  -1/2 Hartree   DENC   =     -1304.59886323
  -exchange  EXHF       =         0.00000000
  -V(xc)+E(xc)   XCENC  =       175.61210142
  PAW double counting   =      4328.20916945    -4904.30802700
  entropy T*S    EENTRO =        -0.08247046
  eigenvalues    EBANDS =       110.07160439
  atomic energy  EATOM  =      5563.88566948
  ---------------------------------------------------
  free energy    TOTEN  =       -18.39819953 eV

  energy without entropy =      -18.31572907  energy(sigma->0) =      -18.35696430


--------------------------------------------------------------------------------------------------------




----------------------------------------- Iteration    1(  13)  ---------------------------------------


    POTLOK:  cpu time    0.06: real time    0.06
    SETDIJ:  cpu time    0.02: real time    0.02
    EDDIAG:  cpu time    0.29: real time    0.29
  RMM-DIIS:  cpu time    1.16: real time    1.16
    ORTHCH:  cpu time    0.07: real time    0.07
       DOS:  cpu time    0.00: real time    0.00
    CHARGE:  cpu time    0.10: real time    0.10
    MIXING:  cpu time    0.00: real time    0.00
    --------------------------------------------
      LOOP:  cpu time    1.70: real time    1.70

 eigenvalue-minimisations  :  1040
 total energy-change (2. order) : 0.2165554E+01  (-0.3801661E+01)
 number of electron      44.0000365 magnetization 
 augmentation part       29.8637534 magnetization 

 Broyden mixing:
  rms(total) = 0.64619E+00    rms(broyden)= 0.64615E+00
  rms(prec ) = 0.14116E+01
  weight for this iteration     100.00

 eigenvalues of (default mixing * dielectric matrix)
  average eigenvalue GAMMA=   0.6857
  0.6857

 Free energy of the ion-electron system (eV)
  ---------------------------------------------------
  alpha Z        PSCENC =       432.80857074
  Ewald energy   TEWEN  =     -4419.99595431
  -1/2 Hartree   DENC   =     -1205.52810559
  -exchange  EXHF       =         0.00000000
  -V(xc)+E(xc)   XCENC  =       170.58342113
  PAW double counting   =      4235.83593646    -4779.89905831
  entropy T*S    EENTRO =        -0.04835891
  eigenvalues    EBANDS =       -13.87476637
  atomic energy  EATOM  =      5563.88566948
  ---------------------------------------------------
  free energy    TOTEN  =       -16.23264568 eV

  energy without entropy =      -16.18428678  energy(sigma->0) =      -16.20846623


--------------------------------------------------------------------------------------------------------




----------------------------------------- Iteration    1(  14)  ---------------------------------------


    POTLOK:  cpu time    0.06: real time    0.06
    SETDIJ:  cpu time    0.02: real time    0.02
    EDDIAG:  cpu time    0.28: real time    0.28
  RMM-DIIS:  cpu time    1.15: real time    1.15
    ORTHCH:  cpu time    0.06: real time    0.07
       DOS:  cpu time    0.00: real time    0.00
    CHARGE:  cpu time    0.10: real time    0.10
    MIXING:  cpu time    0.00: real time    0.00
    --------------------------------------------
      LOOP:  cpu time    1.69: real time    1.69

 eigenvalue-minimisations  :  1040
 total energy-change (2. order) : 0.1278719E+01  (-0.6474824E+00)
 number of electron      44.0000351 magnetization 
 augmentation part       28.6370399 magnetization 

 Broyden mixing:
  rms(total) = 0.14009E+00    rms(broyden)= 0.14008E+00
  rms(prec ) = 0.35157E+00
  weight for this iteration     100.00

 eigenvalues of (default mixing * dielectric matrix)
  average eigenvalue GAMMA=   1.3164
  0.6357  1.9971

 Free energy of the ion-electron system (eV)
  ---------------------------------------------------
  alpha Z        PSCENC =       432.80857074
  Ewald energy   TEWEN  =     -4419.99595431
  -1/2 Hartree   DENC   =     -1233.63189692
  -exchange  EXHF       =         0.00000000
  -V(xc)+E(xc)   XCENC  =       172.06874329
  PAW double counting   =      4322.22646971    -4890.69804725
  entropy T*S    EENTRO =        -0.05415362
  eigenvalues    EBANDS =        38.43667216
  atomic energy  EATOM  =      5563.88566948
  ---------------------------------------------------
  free energy    TOTEN  =       -14.95392672 eV

  energy without entropy =      -14.89977310  energy(sigma->0) =      -14.92684991


--------------------------------------------------------------------------------------------------------




----------------------------------------- Iteration    1(  15)  ---------------------------------------


    POTLOK:  cpu time    0.06: real time    0.06
    SETDIJ:  cpu time    0.02: real time    0.02
    EDDIAG:  cpu time    0.28: real time    0.28
  RMM-DIIS:  cpu time    1.12: real time    1.12
    ORTHCH:  cpu time    0.07: real time    0.07
       DOS:  cpu time    0.00: real time    0.00
    CHARGE:  cpu time    0.10: real time    0.10
    MIXING:  cpu time    0.00: real time    0.00
    --------------------------------------------
      LOOP:  cpu time    1.66: real time    1.66

 eigenvalue-minimisations  :  1040
 total energy-change (2. order) : 0.4886169E-01  (-0.6616053E-03)
 number of electron      44.0000352 magnetization 
 augmentation part       28.6889037 magnetization 

 Broyden mixing:
  rms(total) = 0.52189E-01    rms(broyden)= 0.52187E-01
  rms(prec ) = 0.12938E+00
  weight for this iteration     100.00

 eigenvalues of (default mixing * dielectric matrix)
  average eigenvalue GAMMA=   1.2814
  2.3298  0.8553  0.6591

 Free energy of the ion-electron system (eV)
  ---------------------------------------------------
  alpha Z        PSCENC =       432.80857074
  Ewald energy   TEWEN  =     -4419.99595431
  -1/2 Hartree   DENC   =     -1220.66209134
  -exchange  EXHF       =         0.00000000
  -V(xc)+E(xc)   XCENC  =       171.45971472
  PAW double counting   =      4375.17898131    -4952.94347785
  entropy T*S    EENTRO =        -0.05326996
  eigenvalues    EBANDS =        35.41679219
  atomic energy  EATOM  =      5563.88566948
  ---------------------------------------------------
  free energy    TOTEN  =       -14.90506503 eV

  energy without entropy =      -14.85179507  energy(sigma->0) =      -14.87843005


--------------------------------------------------------------------------------------------------------




----------------------------------------- Iteration    1(  16)  ---------------------------------------


    POTLOK:  cpu time    0.06: real time    0.06
    SETDIJ:  cpu time    0.02: real time    0.02
    EDDIAG:  cpu time    0.28: real time    0.28
  RMM-DIIS:  cpu time    1.16: real time    1.16
    ORTHCH:  cpu time    0.07: real time    0.07
       DOS:  cpu time    0.00: real time    0.00
    CHARGE:  cpu time    0.10: real time    0.10
    MIXING:  cpu time    0.00: real time    0.00
    --------------------------------------------
      LOOP:  cpu time    1.69: real time    1.69

 eigenvalue-minimisations  :  1040
 total energy-change (2. order) : 0.5689476E-02  (-0.1343783E-02)
 number of electron      44.0000352 magnetization 
 augmentation part       28.7538957 magnetization 

 Broyden mixing:
  rms(total) = 0.36941E-02    rms(broyden)= 0.36930E-02
  rms(prec ) = 0.62859E-02
  weight for this iteration     100.00

 eigenvalues of (default mixing * dielectric matrix)
  average eigenvalue GAMMA=   1.5902
  0.6528  0.9639  2.5409  2.2034

 Free energy of the ion-electron system (eV)
  ---------------------------------------------------
  alpha Z        PSCENC =       432.80857074
  Ewald energy   TEWEN  =     -4419.99595431
  -1/2 Hartree   DENC   =     -1215.78857227
  -exchange  EXHF       =         0.00000000
  -V(xc)+E(xc)   XCENC  =       171.22549885
  PAW double counting   =      4389.49546409    -4968.90080695
  entropy T*S    EENTRO =        -0.05252587
  eigenvalues    EBANDS =        32.42328070
  atomic energy  EATOM  =      5563.88566948
  ---------------------------------------------------
  free energy    TOTEN  =       -14.89937555 eV

  energy without entropy =      -14.84684968  energy(sigma->0) =      -14.87311262


--------------------------------------------------------------------------------------------------------




----------------------------------------- Iteration    1(  17)  ---------------------------------------


    POTLOK:  cpu time    0.06: real time    0.06
    SETDIJ:  cpu time    0.02: real time    0.02
    EDDIAG:  cpu time    0.28: real time    0.28
  RMM-DIIS:  cpu time    1.13: real time    1.13
    ORTHCH:  cpu time    0.07: real time    0.07
       DOS:  cpu time    0.00: real time    0.00
    CHARGE:  cpu time    0.10: real time    0.10
    MIXING:  cpu time    0.00: real time    0.00
    --------------------------------------------
      LOOP:  cpu time    1.67: real time    1.67

 eigenvalue-minimisations  :  1040
 total energy-change (2. order) :-0.7224443E-04  (-0.1755817E-04)
 number of electron      44.0000352 magnetization 
 augmentation part       28.7530065 magnetization 

 Broyden mixing:
  rms(total) = 0.89447E-03    rms(broyden)= 0.89431E-03
  rms(prec ) = 0.14061E-02
  weight for this iteration     100.00

 eigenvalues of (default mixing * dielectric matrix)
  average eigenvalue GAMMA=   1.6030
  2.5991  2.5991  0.6525  0.9833  1.1814

 Free energy of the ion-electron system (eV)
  ---------------------------------------------------
  alpha Z        PSCENC =       432.80857074
  Ewald energy   TEWEN  =     -4419.99595431
  -1/2 Hartree   DENC   =     -1216.07404408
  -exchange  EXHF       =         0.00000000
  -V(xc)+E(xc)   XCENC  =       171.23984464
  PAW double counting   =      4391.54335510    -4970.73055495
  entropy T*S    EENTRO =        -0.05252521
  eigenvalues    EBANDS =        32.47619079
  atomic energy  EATOM  =      5563.88566948
  ---------------------------------------------------
  free energy    TOTEN  =       -14.89944780 eV

  energy without entropy =      -14.84692259  energy(sigma->0) =      -14.87318520


--------------------------------------------------------------------------------------------------------




----------------------------------------- Iteration    1(  18)  ---------------------------------------


    POTLOK:  cpu time    0.06: real time    0.06
    SETDIJ:  cpu time    0.02: real time    0.02
    EDDIAG:  cpu time    0.28: real time    0.29
  RMM-DIIS:  cpu time    1.09: real time    1.09
    ORTHCH:  cpu time    0.07: real time    0.07
       DOS:  cpu time    0.00: real time    0.00
    CHARGE:  cpu time    0.10: real time    0.10
    MIXING:  cpu time    0.00: real time    0.00
    --------------------------------------------
      LOOP:  cpu time    1.62: real time    1.63

 eigenvalue-minimisations  :  1003
 total energy-change (2. order) :-0.2875277E-06  (-0.1488593E-05)
 number of electron      44.0000352 magnetization 
 augmentation part       28.7518814 magnetization 

 Broyden mixing:
  rms(total) = 0.51720E-03    rms(broyden)= 0.51716E-03
  rms(prec ) = 0.11984E-02
  weight for this iteration     100.00

 eigenvalues of (default mixing * dielectric matrix)
  average eigenvalue GAMMA=   1.5977
  2.6007  2.3634  0.6524  1.9385  0.9839  1.0471

 Free energy of the ion-electron system (eV)
  ---------------------------------------------------
  alpha Z        PSCENC =       432.80857074
  Ewald energy   TEWEN  =     -4419.99595431
  -1/2 Hartree   DENC   =     -1216.14996988
  -exchange  EXHF       =         0.00000000
  -V(xc)+E(xc)   XCENC  =       171.24371231
  PAW double counting   =      4392.65341187    -4971.79363235
  entropy T*S    EENTRO =        -0.05252577
  eigenvalues    EBANDS =        32.50126982
  atomic energy  EATOM  =      5563.88566948
  ---------------------------------------------------
  free energy    TOTEN  =       -14.89944809 eV

  energy without entropy =      -14.84692232  energy(sigma->0) =      -14.87318520


--------------------------------------------------------------------------------------------------------




----------------------------------------- Iteration    1(  19)  ---------------------------------------


    POTLOK:  cpu time    0.06: real time    0.06
    SETDIJ:  cpu time    0.02: real time    0.02
    EDDIAG:  cpu time    0.29: real time    0.29
  RMM-DIIS:  cpu time    0.78: real time    0.78
    ORTHCH:  cpu time    0.07: real time    0.07
       DOS:  cpu time    0.00: real time    0.00
    CHARGE:  cpu time    0.10: real time    0.10
    MIXING:  cpu time    0.00: real time    0.00
    --------------------------------------------
      LOOP:  cpu time    1.32: real time    1.32

 eigenvalue-minimisations  :   693
 total energy-change (2. order) :-0.2805773E-05  (-0.3738334E-06)
 number of electron      44.0000352 magnetization 
 augmentation part       28.7529327 magnetization 

 Broyden mixing:
  rms(total) = 0.25762E-03    rms(broyden)= 0.25761E-03
  rms(prec ) = 0.62440E-03
  weight for this iteration     100.00

 eigenvalues of (default mixing * dielectric matrix)
  average eigenvalue GAMMA=   1.6382
  2.7425  2.5174  2.5174  0.6523  0.9858  0.9858  1.0662

 Free energy of the ion-electron system (eV)
  ---------------------------------------------------
  alpha Z        PSCENC =       432.80857074
  Ewald energy   TEWEN  =     -4419.99595431
  -1/2 Hartree   DENC   =     -1216.09971622
  -exchange  EXHF       =         0.00000000
  -V(xc)+E(xc)   XCENC  =       171.24117650
  PAW double counting   =      4392.80729370    -4971.95233908
  entropy T*S    EENTRO =        -0.05251595
  eigenvalues    EBANDS =        32.45836426
  atomic energy  EATOM  =      5563.88566948
  ---------------------------------------------------
  free energy    TOTEN  =       -14.89945089 eV

  energy without entropy =      -14.84693494  energy(sigma->0) =      -14.87319292


--------------------------------------------------------------------------------------------------------




----------------------------------------- Iteration    1(  20)  ---------------------------------------


    POTLOK:  cpu time    0.06: real time    0.06
    SETDIJ:  cpu time    0.02: real time    0.02
    EDDIAG:  cpu time    0.29: real time    0.29
  RMM-DIIS:  cpu time    0.65: real time    0.65
    ORTHCH:  cpu time    0.06: real time    0.07
       DOS:  cpu time    0.00: real time    0.00
    --------------------------------------------
      LOOP:  cpu time    1.09: real time    1.09

 eigenvalue-minimisations  :   556
 total energy-change (2. order) :-0.7853487E-08  (-0.3730394E-07)
 number of electron      44.0000352 magnetization 
 augmentation part       28.7529327 magnetization 

 Free energy of the ion-electron system (eV)
  ---------------------------------------------------
  alpha Z        PSCENC =       432.80857074
  Ewald energy   TEWEN  =     -4419.99595431
  -1/2 Hartree   DENC   =     -1216.11161192
  -exchange  EXHF       =         0.00000000
  -V(xc)+E(xc)   XCENC  =       171.24174276
  PAW double counting   =      4392.83101421    -4971.97879453
  entropy T*S    EENTRO =        -0.05251911
  eigenvalues    EBANDS =        32.47243178
  atomic energy  EATOM  =      5563.88566948
  ---------------------------------------------------
  free energy    TOTEN  =       -14.89945090 eV

  energy without entropy =      -14.84693179  energy(sigma->0) =      -14.87319134


--------------------------------------------------------------------------------------------------------




 average (electrostatic) potential at core
  the test charge radii are     1.0053
  (the norm of the test charge is              1.0000)
       1 -39.9312       2 -39.9312       3 -39.9312       4 -39.9312
 
 
 
 E-fermi :   3.7350     XC(G=0): -12.8028     alpha+bet : -9.6329


 k-point   1 :       0.0000    0.0000    0.0000
  band No.  band energies     occupation 
      1      -5.5573      2.00000
      2      -1.1037      2.00000
      3      -1.1037      2.00000
      4      -1.1037      2.00000
      5      -0.6518      2.00000
      6      -0.6518      2.00000
      7      -0.6518      2.00000
      8       0.7392      2.00000
      9       0.7392      2.00000
     10       0.7392      2.00000
     11       1.5677      2.00000
     12       1.5677      2.00000
     13       2.1182      2.00000
     14       2.1182      2.00000
     15       2.1182      2.00000
     16       2.2719      2.00000
     17       2.2719      2.00000
     18       2.2719      2.00000
     19       2.2719      2.00000
     20       2.2719      2.00000
     21       2.2719      2.00000
     22       5.3045      0.00000
     23       5.3045      0.00000
     24       5.3045      0.00000
     25      10.9129      0.00000
     26      10.9129      0.00000

 k-point   2 :       0.1429    0.0000    0.0000
  band No.  band energies     occupation 
      1      -5.3098      2.00000
      2      -1.1130      2.00000
      3      -0.9904      2.00000
      4      -0.9904      2.00000
      5      -0.5863      2.00000
      6      -0.5816      2.00000
      7      -0.5816      2.00000
      8       0.6670      2.00000
      9       0.7984      2.00000
     10       0.7984      2.00000
     11       1.5028      2.00000
     12       1.5945      2.00000
     13       1.8860      2.00000
     14       1.8860      2.00000
     15       2.0332      2.00000
     16       2.0332      2.00000
     17       2.0904      2.00000
     18       2.1725      2.00000
     19       2.1725      2.00000
     20       2.2720      2.00000
     21       2.2720      2.00000
     22       4.0227      0.17503
     23       5.9119      0.00000
     24       5.9119      0.00000
     25      11.0059      0.00000
     26      11.0062      0.00000

 k-point   3 :       0.2857    0.0000    0.0000
  band No.  band energies     occupation 
      1      -4.5846      2.00000
      2      -1.3070      2.00000
      3      -0.7010      2.00000
      4      -0.7010      2.00000
      5      -0.4010      2.00000
      6      -0.3681      2.00000
      7      -0.3681      2.00000
      8       0.4660      2.00000
      9       0.9703      2.00000
     10       0.9703      2.00000
     11       1.1770      2.00000
     12       1.1770      2.00000
     13       1.3310      2.00000
     14       1.6701      2.00000
     15       1.8074      2.00000
     16       1.8074      2.00000
     17       1.9116      2.00000
     18       1.9116      2.00000
     19       2.0129      2.00000
     20       2.1531      2.00000
     21       2.2723      2.00000
     22       2.2723      2.00000
     23       7.2816      0.00000
     24       7.2816      0.00000
     25      11.3093      0.00000
     26      11.3094      0.00000

 k-point   4 :       0.4286    0.0000    0.0000
  band No.  band energies     occupation 
      1      -3.4532      2.00000
      2      -2.1534      2.00000
      3      -0.4135      2.00000
      4      -0.4135      2.00000
      5      -0.1283      2.00000
      6      -0.0033      2.00000
      7      -0.0033      2.00000
      8       0.1808      2.00000
      9       0.5168      2.00000
     10       0.5168      2.00000
     11       1.1445      2.00000
     12       1.2103      2.00000
     13       1.2394      2.00000
     14       1.2394      2.00000
     15       1.5699      2.00000
     16       1.5699      2.00000
     17       1.5729      2.00000
     18       1.5729      2.00000
     19       1.7792      2.00000
     20       1.9017      2.00000
     21       2.2726      2.00000
     22       2.2726      2.00000
     23       9.0303      0.00000
     24       9.0303      0.00000
     25      11.0467      0.00000
     26      11.1524      0.00000

 k-point   5 :       0.1429    0.1429    0.0000
  band No.  band energies     occupation 
      1      -5.0655      2.00000
      2      -0.9916      2.00000
      3      -0.9916      2.00000
      4      -0.8850      2.00000
      5      -0.5201      2.00000
      6      -0.5201      2.00000
      7      -0.5187      2.00000
      8       0.6311      2.00000
      9       0.8254      2.00000
     10       0.8387      2.00000
     11       1.4881      2.00000
     12       1.5893      2.00000
     13       1.6554      2.00000
     14       1.7082      2.00000
     15       1.7082      2.00000
     16       1.9583      2.00000
     17       2.0403      2.00000
     18       2.0403      2.00000
     19       2.1719      2.00000
     20       2.1719      2.00000
     21       2.2071      2.00000
     22       4.6129      0.00003
     23       4.6129      0.00003
     24       6.4301      0.00000
     25      11.0960      0.00000
     26      12.8625      0.00000

 k-point   6 :       0.2857    0.1429    0.0000
  band No.  band energies     occupation 
      1      -4.3506      2.00000
      2      -1.1598      2.00000
      3      -0.6775      2.00000
      4      -0.6129      2.00000
      5      -0.3458      2.00000
      6      -0.3325      2.00000
      7      -0.3186      2.00000
      8       0.4603      2.00000
      9       0.9405      2.00000
     10       0.9789      2.00000
     11       1.0082      2.00000
     12       1.0899      2.00000
     13       1.2811      2.00000
     14       1.3673      2.00000
     15       1.6837      2.00000
     16       1.7569      2.00000
     17       1.8196      2.00000
     18       1.9101      2.00000
     19       1.9492      2.00000
     20       2.1704      2.00000
     21       2.1735      2.00000
     22       2.8902      1.99993
     23       5.7874      0.00000
     24       7.6937      0.00000
     25      10.7771      0.00000
     26      11.5563      0.00000

 k-point   7 :       0.4286    0.1429    0.0000
  band No.  band energies     occupation 
      1      -3.2392      2.00000
      2      -1.9714      2.00000
      3      -0.3480      2.00000
      4      -0.3204      2.00000
      5      -0.0904      2.00000
      6      -0.0502      2.00000
      7       0.0232      2.00000
      8       0.1981      2.00000
      9       0.3938      2.00000
     10       0.5028      2.00000
     11       0.9239      2.00000
     12       0.9497      2.00000
     13       1.2415      2.00000
     14       1.3882      2.00000
     15       1.5494      2.00000
     16       1.5720      2.00000
     17       1.5775      2.00000
     18       1.6842      2.00000
     19       1.8477      2.00000
     20       2.1064      2.00000
     21       2.1676      2.00000
     22       2.1685      2.00000
     23       7.2076      0.00000
     24       8.8663      0.00000
     25       9.3804      0.00000
     26      11.4755      0.00000

 k-point   8 :       0.2857    0.2857    0.0000
  band No.  band energies     occupation 
      1      -3.6702      2.00000
      2      -0.7717      2.00000
      3      -0.7717      2.00000
      4      -0.4016      2.00000
      5      -0.2159      2.00000
      6      -0.1800      2.00000
      7      -0.1800      2.00000
      8       0.3941      2.00000
      9       0.6782      2.00000
     10       0.6782      2.00000
     11       0.8229      2.00000
     12       0.9031      2.00000
     13       1.0609      2.00000
     14       1.3211      2.00000
     15       1.6120      2.00000
     16       1.7525      2.00000
     17       1.7525      2.00000
     18       1.8453      2.00000
     19       1.9075      2.00000
     20       1.9075      2.00000
     21       2.0189      2.00000
     22       3.8598      0.55660
     23       3.8598      0.55660
     24       8.4293      0.00000
     25       8.7888      0.00000
     26      11.8923      0.00000

 k-point   9 :       0.4286    0.2857    0.0000
  band No.  band energies     occupation 
      1      -2.6295      2.00000
      2      -1.4774      2.00000
      3      -0.3274      2.00000
      4      -0.1807      2.00000
      5      -0.0720      2.00000
      6       0.0185      2.00000
      7       0.0926      2.00000
      8       0.2155      2.00000
      9       0.2304      2.00000
     10       0.4495      2.00000
     11       0.6087      2.00000
     12       0.7907      2.00000
     13       1.2720      2.00000
     14       1.3269      2.00000
     15       1.4600      2.00000
     16       1.5204      2.00000
     17       1.5382      2.00000
     18       1.5777      2.00000
     19       1.9112      2.00000
     20       1.9373      2.00000
     21       2.1597      2.00000
     22       2.6998      2.00000
     23       5.0192      0.00000
     24       6.5007      0.00000
     25      10.3524      0.00000
     26      12.4203      0.00000

 k-point  10 :       0.4286    0.4286    0.0000
  band No.  band energies     occupation 
      1      -1.7459      2.00000
      2      -0.8585      2.00000
      3      -0.8585      2.00000
      4      -0.4065      2.00000
      5       0.1759      2.00000
      6       0.1759      2.00000
      7       0.2103      2.00000
      8       0.2311      2.00000
      9       0.3365      2.00000
     10       0.4055      2.00000
     11       0.4055      2.00000
     12       0.6571      2.00000
     13       1.2241      2.00000
     14       1.3193      2.00000
     15       1.3413      2.00000
     16       1.3413      2.00000
     17       1.3875      2.00000
     18       1.6165      2.00000
     19       1.6165      2.00000
     20       1.7300      2.00000
     21       2.6657      2.00000
     22       3.5080      1.71558
     23       3.5080      1.71558
     24       4.7083      0.00000
     25      11.8040      0.00000
     26      13.5947      0.00000

 k-point  11 :       0.1429    0.1429    0.1429
  band No.  band energies     occupation 
      1      -4.8251      2.00000
      2      -0.8821      2.00000
      3      -0.8821      2.00000
      4      -0.8821      2.00000
      5      -0.4593      2.00000
      6      -0.4593      2.00000
      7      -0.4593      2.00000
      8       0.6036      2.00000
      9       0.8542      2.00000
     10       0.8542      2.00000
     11       1.4987      2.00000
     12       1.4987      2.00000
     13       1.4987      2.00000
     14       1.5379      2.00000
     15       1.5379      2.00000
     16       1.8515      2.00000
     17       1.8515      2.00000
     18       1.8515      2.00000
     19       2.2055      2.00000
     20       2.2055      2.00000
     21       2.2055      2.00000
     22       5.0639      0.00000
     23       5.0639      0.00000
     24       5.0639      0.00000
     25      13.0584      0.00000
     26      13.1983      0.00000

 k-point  12 :       0.2857    0.1429    0.1429
  band No.  band energies     occupation 
      1      -4.1231      2.00000
      2      -1.0376      2.00000
      3      -0.6016      2.00000
      4      -0.6016      2.00000
      5      -0.2889      2.00000
      6      -0.2816      2.00000
      7      -0.2816      2.00000
      8       0.4638      2.00000
      9       0.9305      2.00000
     10       0.9485      2.00000
     11       0.9551      2.00000
     12       0.9551      2.00000
     13       1.0907      2.00000
     14       1.4466      2.00000
     15       1.6177      2.00000
     16       1.6701      2.00000
     17       1.6845      2.00000
     18       1.6845      2.00000
     19       2.1475      2.00000
     20       2.1617      2.00000
     21       2.1617      2.00000
     22       3.2336      1.98192
     23       6.0969      0.00000
     24       6.0969      0.00000
     25      11.1889      0.00000
     26      11.1891      0.00000

 k-point  13 :       0.4286    0.1429    0.1429
  band No.  band energies     occupation 
      1      -3.0379      2.00000
      2      -1.8135      2.00000
      3      -0.2726      2.00000
      4      -0.2726      2.00000
      5      -0.0812      2.00000
      6      -0.0812      2.00000
      7      -0.0414      2.00000
      8       0.2284      2.00000
      9       0.4765      2.00000
     10       0.4765      2.00000
     11       0.8219      2.00000
     12       0.8942      2.00000
     13       1.1177      2.00000
     14       1.3524      2.00000
     15       1.5041      2.00000
     16       1.5041      2.00000
     17       1.5922      2.00000
     18       1.8448      2.00000
     19       2.0176      2.00000
     20       2.1270      2.00000
     21       2.1270      2.00000
     22       2.1323      2.00000
     23       7.3707      0.00000
     24       7.3707      0.00000
     25       9.3014      0.00000
     26       9.3014      0.00000

 k-point  14 :       0.2857    0.2857    0.1429
  band No.  band energies     occupation 
      1      -3.4652      2.00000
      2      -0.7407      2.00000
      3      -0.7407      2.00000
      4      -0.4528      2.00000
      5      -0.1437      2.00000
      6      -0.1133      2.00000
      7      -0.1133      2.00000
      8       0.4324      2.00000
      9       0.6896      2.00000
     10       0.6896      2.00000
     11       0.7804      2.00000
     12       0.8970      2.00000
     13       0.9600      2.00000
     14       1.4699      2.00000
     15       1.4788      2.00000
     16       1.4788      2.00000
     17       1.4810      2.00000
     18       1.8018      2.00000
     19       2.0964      2.00000
     20       2.1010      2.00000
     21       2.1010      2.00000
     22       4.0437      0.14566
     23       4.0437      0.14566
     24       6.8068      0.00000
     25       8.9410      0.00000
     26      12.0240      0.00000

 k-point  15 :       0.4286    0.2857    0.1429
  band No.  band energies     occupation 
      1      -2.4739      2.00000
      2      -1.4077      2.00000
      3      -0.4526      2.00000
      4      -0.3583      2.00000
      5       0.0225      2.00000
      6       0.0782      2.00000
      7       0.1185      2.00000
      8       0.3129      2.00000
      9       0.4599      2.00000
     10       0.5775      2.00000
     11       0.6286      2.00000
     12       0.7914      2.00000
     13       1.0443      2.00000
     14       1.2321      2.00000
     15       1.3267      2.00000
     16       1.3510      2.00000
     17       1.6156      2.00000
     18       1.9194      2.00000
     19       2.0182      2.00000
     20       2.0188      2.00000
     21       2.1036      2.00000
     22       2.7021      2.00000
     23       5.1217      0.00000
     24       6.4384      0.00000
     25       8.6316      0.00000
     26      10.0795      0.00000

 k-point  16 :       0.4286    0.4286    0.1429
  band No.  band energies     occupation 
      1      -1.6913      2.00000
      2      -0.9518      2.00000
      3      -0.9518      2.00000
      4      -0.6104      2.00000
      5       0.2856      2.00000
      6       0.3670      2.00000
      7       0.3670      2.00000
      8       0.4069      2.00000
      9       0.4979      2.00000
     10       0.4979      2.00000
     11       0.5895      2.00000
     12       0.6838      2.00000
     13       1.0166      2.00000
     14       1.1421      2.00000
     15       1.1421      2.00000
     16       1.1583      2.00000
     17       1.6220      2.00000
     18       1.8218      2.00000
     19       1.8218      2.00000
     20       1.8755      2.00000
     21       2.6033      2.00000
     22       3.4992      1.73383
     23       3.4992      1.73383
     24       4.7102      0.00000
     25       9.7318      0.00000
     26      11.3090      0.00000

 k-point  17 :       0.2857    0.2857    0.2857
  band No.  band energies     occupation 
      1      -2.8868      2.00000
      2      -0.7095      2.00000
      3      -0.7095      2.00000
      4      -0.7095      2.00000
      5       0.0938      2.00000
      6       0.0938      2.00000
      7       0.0938      2.00000
      8       0.5330      2.00000
      9       0.7121      2.00000
     10       0.7121      2.00000
     11       0.7121      2.00000
     12       0.8720      2.00000
     13       0.8720      2.00000
     14       1.2245      2.00000
     15       1.2245      2.00000
     16       1.2245      2.00000
     17       1.7358      2.00000
     18       1.7358      2.00000
     19       2.1626      2.00000
     20       2.1626      2.00000
     21       2.1626      2.00000
     22       4.5564      0.00011
     23       4.5564      0.00011
     24       4.5564      0.00011
     25       9.7083      0.00000
     26       9.7083      0.00000

 k-point  18 :       0.4286    0.2857    0.2857
  band No.  band energies     occupation 
      1      -2.0673      2.00000
      2      -1.2618      2.00000
      3      -0.7076      2.00000
      4      -0.7076      2.00000
      5       0.2693      2.00000
      6       0.2693      2.00000
      7       0.4113      2.00000
      8       0.5950      2.00000
      9       0.6970      2.00000
     10       0.7786      2.00000
     11       0.7890      2.00000
     12       0.7890      2.00000
     13       0.8870      2.00000
     14       1.0117      2.00000
     15       1.0982      2.00000
     16       1.0982      2.00000
     17       1.9517      2.00000
     18       1.9664      2.00000
     19       2.1007      2.00000
     20       2.1007      2.00000
     21       2.1196      2.00000
     22       2.8681      1.99996
     23       5.1861      0.00000
     24       5.1861      0.00000
     25       8.1486      0.00000
     26       8.1486      0.00000

 k-point  19 :       0.4286    0.4286    0.2857
  band No.  band energies     occupation 
      1      -1.5688      2.00000
      2      -1.1110      2.00000
      3      -1.1110      2.00000
      4      -0.9359      2.00000
      5       0.4730      2.00000
      6       0.5514      2.00000
      7       0.5514      2.00000
      8       0.7308      2.00000
      9       0.8212      2.00000
     10       0.8929      2.00000
     11       0.8929      2.00000
     12       0.9279      2.00000
     13       0.9921      2.00000
     14       1.0032      2.00000
     15       1.0032      2.00000
     16       1.0591      2.00000
     17       1.8908      2.00000
     18       2.0533      2.00000
     19       2.0533      2.00000
     20       2.0584      2.00000
     21       2.4069      2.00000
     22       3.4584      1.80778
     23       3.4584      1.80778
     24       4.4483      0.00077
     25       7.9433      0.00000
     26       9.0860      0.00000

 k-point  20 :       0.4286    0.4286    0.4286
  band No.  band energies     occupation 
      1      -1.4164      2.00000
      2      -1.2126      2.00000
      3      -1.2126      2.00000
      4      -1.2126      2.00000
      5       0.6477      2.00000
      6       0.6477      2.00000
      7       0.6477      2.00000
      8       0.7343      2.00000
      9       0.7343      2.00000
     10       0.7727      2.00000
     11       0.7727      2.00000
     12       0.7727      2.00000
     13       1.5824      2.00000
     14       1.5824      2.00000
     15       1.5824      2.00000
     16       2.0140      2.00000
     17       2.0760      2.00000
     18       2.0760      2.00000
     19       2.1357      2.00000
     20       2.1357      2.00000
     21       2.1357      2.00000
     22       3.3753      1.91013
     23       3.3753      1.91013
     24       3.3753      1.91013
     25       7.7593      0.00000
     26       7.7605      0.00000


--------------------------------------------------------------------------------------------------------


 soft charge-density along one line, spin component           1
         0         1         2         3         4         5         6         7         8         9
 total charge-density along one line
 
 pseudopotential strength for first ion, spin component:           1
 -6.427   0.000   0.000   0.000   0.000  -0.261   0.000   0.000
  0.000  -6.427   0.000   0.000   0.000   0.000  -0.261   0.000
  0.000   0.000  -6.409   0.000   0.000   0.000   0.000  -0.270
  0.000   0.000   0.000  -6.427   0.000   0.000   0.000   0.000
  0.000   0.000   0.000   0.000  -6.409   0.000   0.000   0.000
 -0.261   0.000   0.000   0.000   0.000   1.685   0.000   0.000
  0.000  -0.261   0.000   0.000   0.000   0.000   1.685   0.000
  0.000   0.000  -0.270   0.000   0.000   0.000   0.000   1.689
  0.000   0.000   0.000  -0.261   0.000   0.000   0.000   0.000
  0.000   0.000   0.000   0.000  -0.270   0.000   0.000   0.000
  0.000   0.000   0.000   0.000   0.000   0.000   0.000   0.000
  0.000   0.000   0.000   0.000   0.000   0.000   0.000   0.000
  0.000   0.000   0.000   0.000   0.000   0.000   0.000   0.000
  0.000   0.000   0.000   0.000   0.000   0.000   0.000   0.000
  0.000   0.000   0.000   0.000   0.000   0.000   0.000   0.000
  0.000   0.000   0.000   0.000   0.000   0.000   0.000   0.000
  0.000   0.000   0.000   0.000   0.000   0.000   0.000   0.000
  0.000   0.000   0.000   0.000   0.000   0.000   0.000   0.000
 total augmentation occupancy for first ion, spin component:           1
  1.907   0.000   0.000   0.000   0.000  -0.014   0.000   0.000   0.000   0.000   0.000   0.000   0.000   0.000   0.000   0.000
  0.000   1.907   0.000   0.000   0.000   0.000  -0.014   0.000   0.000   0.000   0.000   0.000   0.000   0.000   0.000   0.000
  0.000   0.000   1.916   0.000   0.000   0.000   0.000  -0.056   0.000   0.000   0.000   0.000   0.000   0.000   0.000   0.000
  0.000   0.000   0.000   1.907   0.000   0.000   0.000   0.000  -0.014   0.000   0.000   0.000   0.000   0.000   0.000   0.000
  0.000   0.000   0.000   0.000   1.916   0.000   0.000   0.000   0.000  -0.056   0.000   0.000   0.000   0.000   0.000   0.000
 -0.014   0.000   0.000   0.000   0.000   0.081   0.000   0.000   0.000   0.000   0.000   0.000   0.000   0.000   0.000   0.000
  0.000  -0.014   0.000   0.000   0.000   0.000   0.081   0.000   0.000   0.000   0.000   0.000   0.000   0.000   0.000   0.000
  0.000   0.000  -0.056   0.000   0.000   0.000   0.000   0.076   0.000   0.000   0.000   0.000   0.000   0.000   0.000   0.000
  0.000   0.000   0.000  -0.014   0.000   0.000   0.000   0.000   0.081   0.000   0.000   0.000   0.000   0.000   0.000   0.000
  0.000   0.000   0.000   0.000  -0.056   0.000   0.000   0.000   0.000   0.076   0.000   0.000   0.000   0.000   0.000   0.000
  0.000   0.000   0.000   0.000   0.000   0.000   0.000   0.000   0.000   0.000   1.213  -0.361   0.000   0.000   0.000   0.000
  0.000   0.000   0.000   0.000   0.000   0.000   0.000   0.000   0.000   0.000  -0.361   0.156   0.000   0.000   0.000   0.000
  0.000   0.000   0.000   0.000   0.000   0.000   0.000   0.000   0.000   0.000   0.000   0.000   0.194   0.000   0.000  -0.013
  0.000   0.000   0.000   0.000   0.000   0.000   0.000   0.000   0.000   0.000   0.000   0.000   0.000   0.194   0.000   0.000
  0.000   0.000   0.000   0.000   0.000   0.000   0.000   0.000   0.000   0.000   0.000   0.000   0.000   0.000   0.194   0.000
  0.000   0.000   0.000   0.000   0.000   0.000   0.000   0.000   0.000   0.000   0.000   0.000  -0.013   0.000   0.000   0.001
  0.000   0.000   0.000   0.000   0.000   0.000   0.000   0.000   0.000   0.000   0.000   0.000   0.000  -0.013   0.000   0.000
  0.000   0.000   0.000   0.000   0.000   0.000   0.000   0.000   0.000   0.000   0.000   0.000   0.000   0.000  -0.013   0.000


------------------------ aborting loop because EDIFF is reached ----------------------------------------


    CHARGE:  cpu time    0.10: real time    0.09
    FORLOC:  cpu time    0.00: real time    0.00
    FORNL :  cpu time    0.90: real time    0.90
    STRESS:  cpu time    0.76: real time    0.75
    FORCOR:  cpu time    0.06: real time    0.06
    FORHAR:  cpu time    0.02: real time    0.02
    MIXING:  cpu time    0.00: real time    0.00

  FORCE on cell =-STRESS in cart. coord.  units (eV):
  Direction    XX          YY          ZZ          XY          YZ          ZX
  --------------------------------------------------------------------------------------
  Alpha Z   432.80857   432.80857   432.80857
  Ewald   -1473.33263 -1473.33263 -1473.33263     0.00000     0.00000     0.00000
  Hartree   405.37353   405.37353   405.37353     0.00000     0.00000     0.00000
  E(xc)    -250.68638  -250.68638  -250.68638     0.00000     0.00000     0.00000
  Local     491.36204   491.36204   491.36204     0.00000     0.00000     0.00000
  n-local  -141.88495  -147.11289  -148.65505     0.18599     1.58059     0.76184
  augment   226.21403   226.21405   226.21402    -0.00001    -0.00001     0.00001
  Kinetic   321.71909   314.30956   308.17263    -3.73964    -0.28055    -1.18265
  Fock        0.00000     0.00000     0.00000     0.00000     0.00000     0.00000
  -------------------------------------------------------------------------------------
  Total       0.58862     0.58862     0.58862     0.00000     0.00000     0.00000
  in kB      19.96729    19.96729    19.96729     0.00000     0.00000     0.00000
  external pressure =       19.97 kB  Pullay stress =        0.00 kB


 VOLUME and BASIS-vectors are now :
 -----------------------------------------------------------------------------
  energy-cutoff  :      415.00
  volume of cell :       47.23
      direct lattice vectors                 reciprocal lattice vectors
     3.614729865  0.000000000  0.000000000     0.276645846  0.000000000  0.000000000
     0.000000000  3.614729865  0.000000000     0.000000000  0.276645846  0.000000000
     0.000000000  0.000000000  3.614729865     0.000000000  0.000000000  0.276645846

  length of vectors
     3.614729865  3.614729865  3.614729865     0.276645846  0.276645846  0.276645846


 FORCES acting on ions
    electron-ion (+dipol)            ewald-force                    non-local-force                 convergence-correction
 -----------------------------------------------------------------------------------------------
   -.277E-13 -.402E-13 -.977E-13   -.221E-13 -.131E-13 -.109E-13   -.207E-23 0.827E-24 0.468E-23   -.400E-13 0.277E-13 -.863E-13
   0.610E-12 0.591E-12 0.593E-12   0.190E-13 -.717E-14 -.109E-13   -.165E-23 0.827E-24 0.165E-23   0.149E-13 0.284E-13 -.917E-13
   0.598E-12 -.369E-13 -.606E-12   -.585E-14 0.965E-14 0.107E-13   -.414E-24 0.827E-24 -.414E-24   0.290E-13 0.294E-13 -.530E-13
   -.260E-13 0.587E-12 0.530E-12   0.127E-13 0.155E-13 0.108E-13   0.000E+00 0.000E+00 -.134E-23   -.337E-13 0.397E-13 -.446E-13
 -----------------------------------------------------------------------------------------------
   0.115E-11 0.110E-11 0.419E-12   0.378E-14 0.496E-14 -.352E-15   -.414E-23 0.248E-23 0.458E-23   -.297E-13 0.125E-12 -.276E-12
 
 
 POSITION                                       TOTAL-FORCE (eV/Angst)
 -----------------------------------------------------------------------------------
      0.00000      0.00000      0.00000         0.000000      0.000000      0.000000
      1.80736      1.80736      0.00000         0.000000      0.000000      0.000000
      1.80736      0.00000      1.80736         0.000000      0.000000      0.000000
      0.00000      1.80736      1.80736         0.000000      0.000000      0.000000
 -----------------------------------------------------------------------------------
    total drift:                                0.000000      0.000000      0.000000


--------------------------------------------------------------------------------------------------------



  FREE ENERGIE OF THE ION-ELECTRON SYSTEM (eV)
  ---------------------------------------------------
  free  energy   TOTEN  =       -14.899451 eV

  energy  without entropy=      -14.846932  energy(sigma->0) =      -14.873191
 


--------------------------------------------------------------------------------------------------------


    POTLOK:  cpu time    0.08: real time    0.08


--------------------------------------------------------------------------------------------------------




--------------------------------------------------------------------------------------------------------


    WAVPRE:  cpu time    0.01: real time    0.01
    FEWALD:  cpu time    0.00: real time    0.00
    GENKIN:  cpu time    0.01: real time    0.01
    ORTHCH:  cpu time    0.11: real time    0.11
     LOOP+:  cpu time   27.96: real time   27.96


----------------------------------------- Iteration    2(   1)  ---------------------------------------


    POTLOK:  cpu time    0.06: real time    0.06
    SETDIJ:  cpu time    0.02: real time    0.02
    EDDIAG:  cpu time    0.28: real time    0.29
  RMM-DIIS:  cpu time    1.14: real time    1.13
    ORTHCH:  cpu time    0.06: real time    0.07
       DOS:  cpu time    0.00: real time    0.00
    CHARGE:  cpu time    0.10: real time    0.10
    MIXING:  cpu time    0.00: real time    0.00
    --------------------------------------------
      LOOP:  cpu time    1.67: real time    1.67

 eigenvalue-minimisations  :  1040
 total energy-change (2. order) :-0.4953434E-02  (-0.4214969E-02)
 number of electron      44.0000319 magnetization 
 augmentation part       28.8135387 magnetization 

 Broyden mixing:
  rms(total) = 0.47075E-01    rms(broyden)= 0.47071E-01
  rms(prec ) = 0.10244E+00
  weight for this iteration     100.00

 Free energy of the ion-electron system (eV)
  ---------------------------------------------------
  alpha Z        PSCENC =       431.88810403
  Ewald energy   TEWEN  =     -4416.86035195
  -1/2 Hartree   DENC   =     -1215.25156058
  -exchange  EXHF       =         0.00000000
  -V(xc)+E(xc)   XCENC  =       171.08762503
  PAW double counting   =      4392.83503585    -4971.98285232
  entropy T*S    EENTRO =        -0.05205677
  eigenvalues    EBANDS =        29.54598292
  atomic energy  EATOM  =      5563.88566948
  ---------------------------------------------------
  free energy    TOTEN  =       -14.90440433 eV

  energy without entropy =      -14.85234755  energy(sigma->0) =      -14.87837594


--------------------------------------------------------------------------------------------------------




----------------------------------------- Iteration    2(   2)  ---------------------------------------


    POTLOK:  cpu time    0.06: real time    0.06
    SETDIJ:  cpu time    0.02: real time    0.02
    EDDIAG:  cpu time    0.28: real time    0.28
  RMM-DIIS:  cpu time    1.12: real time    1.13
    ORTHCH:  cpu time    0.07: real time    0.07
       DOS:  cpu time    0.00: real time    0.00
    CHARGE:  cpu time    0.10: real time    0.10
    MIXING:  cpu time    0.00: real time    0.00
    --------------------------------------------
      LOOP:  cpu time    1.66: real time    1.66

 eigenvalue-minimisations  :  1040
 total energy-change (2. order) : 0.2666634E-02  (-0.2814166E-02)
 number of electron      44.0000318 magnetization 
 augmentation part       28.7242867 magnetization 

 Broyden mixing:
  rms(total) = 0.15924E-01    rms(broyden)= 0.15923E-01
  rms(prec ) = 0.38318E-01
  weight for this iteration     100.00

 eigenvalues of (default mixing * dielectric matrix)
  average eigenvalue GAMMA=   0.7699
  0.7699

 Free energy of the ion-electron system (eV)
  ---------------------------------------------------
  alpha Z        PSCENC =       431.88810403
  Ewald energy   TEWEN  =     -4416.86035195
  -1/2 Hartree   DENC   =     -1218.13077697
  -exchange  EXHF       =         0.00000000
  -V(xc)+E(xc)   XCENC  =       171.23691282
  PAW double counting   =      4395.78176693    -4975.91026182
  entropy T*S    EENTRO =        -0.05289070
  eigenvalues    EBANDS =        33.26009050
  atomic energy  EATOM  =      5563.88566948
  ---------------------------------------------------
  free energy    TOTEN  =       -14.90173769 eV

  energy without entropy =      -14.84884699  energy(sigma->0) =      -14.87529234


--------------------------------------------------------------------------------------------------------




----------------------------------------- Iteration    2(   3)  ---------------------------------------


    POTLOK:  cpu time    0.06: real time    0.06
    SETDIJ:  cpu time    0.02: real time    0.02
    EDDIAG:  cpu time    0.28: real time    0.28
  RMM-DIIS:  cpu time    1.14: real time    1.15
    ORTHCH:  cpu time    0.07: real time    0.07
       DOS:  cpu time    0.00: real time    0.00
    CHARGE:  cpu time    0.10: real time    0.10
    MIXING:  cpu time    0.00: real time    0.00
    --------------------------------------------
      LOOP:  cpu time    1.68: real time    1.69

 eigenvalue-minimisations  :  1040
 total energy-change (2. order) : 0.1036671E-02  (-0.4568992E-03)
 number of electron      44.0000319 magnetization 
 augmentation part       28.7595734 magnetization 

 Broyden mixing:
  rms(total) = 0.79548E-02    rms(broyden)= 0.79545E-02
  rms(prec ) = 0.14655E-01
  weight for this iteration     100.00

 eigenvalues of (default mixing * dielectric matrix)
  average eigenvalue GAMMA=   1.5992
  0.6495  2.5488

 Free energy of the ion-electron system (eV)
  ---------------------------------------------------
  alpha Z        PSCENC =       431.88810403
  Ewald energy   TEWEN  =     -4416.86035195
  -1/2 Hartree   DENC   =     -1217.32709115
  -exchange  EXHF       =         0.00000000
  -V(xc)+E(xc)   XCENC  =       171.19568990
  PAW double counting   =      4393.29178726    -4972.70308929
  entropy T*S    EENTRO =        -0.05257894
  eigenvalues    EBANDS =        31.78115965
  atomic energy  EATOM  =      5563.88566948
  ---------------------------------------------------
  free energy    TOTEN  =       -14.90070102 eV

  energy without entropy =      -14.84812208  energy(sigma->0) =      -14.87441155


--------------------------------------------------------------------------------------------------------




----------------------------------------- Iteration    2(   4)  ---------------------------------------


    POTLOK:  cpu time    0.06: real time    0.06
    SETDIJ:  cpu time    0.02: real time    0.02
    EDDIAG:  cpu time    0.28: real time    0.28
  RMM-DIIS:  cpu time    1.12: real time    1.12
    ORTHCH:  cpu time    0.06: real time    0.07
       DOS:  cpu time    0.01: real time    0.00
    CHARGE:  cpu time    0.10: real time    0.10
    MIXING:  cpu time    0.00: real time    0.00
    --------------------------------------------
      LOOP:  cpu time    1.65: real time    1.65

 eigenvalue-minimisations  :  1036
 total energy-change (2. order) : 0.1352052E-03  (-0.3650608E-05)
 number of electron      44.0000319 magnetization 
 augmentation part       28.7542811 magnetization 

 Broyden mixing:
  rms(total) = 0.48234E-03    rms(broyden)= 0.48220E-03
  rms(prec ) = 0.10493E-02
  weight for this iteration     100.00

 eigenvalues of (default mixing * dielectric matrix)
  average eigenvalue GAMMA=   1.6011
  2.4436  0.6485  1.7111

 Free energy of the ion-electron system (eV)
  ---------------------------------------------------
  alpha Z        PSCENC =       431.88810403
  Ewald energy   TEWEN  =     -4416.86035195
  -1/2 Hartree   DENC   =     -1217.88528049
  -exchange  EXHF       =         0.00000000
  -V(xc)+E(xc)   XCENC  =       171.22580664
  PAW double counting   =      4391.65722127    -4970.72859539
  entropy T*S    EENTRO =        -0.05267716
  eigenvalues    EBANDS =        31.96953775
  atomic energy  EATOM  =      5563.88566948
  ---------------------------------------------------
  free energy    TOTEN  =       -14.90056582 eV

  energy without entropy =      -14.84788866  energy(sigma->0) =      -14.87422724


--------------------------------------------------------------------------------------------------------




----------------------------------------- Iteration    2(   5)  ---------------------------------------


    POTLOK:  cpu time    0.06: real time    0.06
    SETDIJ:  cpu time    0.02: real time    0.02
    EDDIAG:  cpu time    0.28: real time    0.28
  RMM-DIIS:  cpu time    0.66: real time    0.66
    ORTHCH:  cpu time    0.07: real time    0.07
       DOS:  cpu time    0.00: real time    0.00
    --------------------------------------------
      LOOP:  cpu time    1.09: real time    1.09

 eigenvalue-minimisations  :   555
 total energy-change (2. order) :-0.6430846E-06  (-0.4669671E-07)
 number of electron      44.0000319 magnetization 
 augmentation part       28.7542811 magnetization 

 Free energy of the ion-electron system (eV)
  ---------------------------------------------------
  alpha Z        PSCENC =       431.88810403
  Ewald energy   TEWEN  =     -4416.86035195
  -1/2 Hartree   DENC   =     -1217.86022670
  -exchange  EXHF       =         0.00000000
  -V(xc)+E(xc)   XCENC  =       171.22458481
  PAW double counting   =      4391.61439493    -4970.70457416
  entropy T*S    EENTRO =        -0.05267555
  eigenvalues    EBANDS =        31.96450866
  atomic energy  EATOM  =      5563.88566948
  ---------------------------------------------------
  free energy    TOTEN  =       -14.90056646 eV

  energy without entropy =      -14.84789091  energy(sigma->0) =      -14.87422868


--------------------------------------------------------------------------------------------------------




 average (electrostatic) potential at core
  the test charge radii are     1.0053
  (the norm of the test charge is              1.0000)
       1 -39.9441       2 -39.9441       3 -39.9441       4 -39.9441
 
 
 
 E-fermi :   3.7167     XC(G=0): -12.7902     alpha+bet : -9.6124


 k-point   1 :       0.0000    0.0000    0.0000
  band No.  band energies     occupation 
      1      -5.5594      2.00000
      2      -1.1091      2.00000
      3      -1.1091      2.00000
      4      -1.1091      2.00000
      5      -0.6586      2.00000
      6      -0.6586      2.00000
      7      -0.6586      2.00000
      8       0.7278      2.00000
      9       0.7278      2.00000
     10       0.7278      2.00000
     11       1.5537      2.00000
     12       1.5537      2.00000
     13       2.1024      2.00000
     14       2.1024      2.00000
     15       2.1024      2.00000
     16       2.2555      2.00000
     17       2.2555      2.00000
     18       2.2555      2.00000
     19       2.2555      2.00000
     20       2.2555      2.00000
     21       2.2555      2.00000
     22       5.2878      0.00000
     23       5.2878      0.00000
     24       5.2878      0.00000
     25      10.8798      0.00000
     26      10.8798      0.00000

 k-point   2 :       0.1429    0.0000    0.0000
  band No.  band energies     occupation 
      1      -5.3123      2.00000
      2      -1.1186      2.00000
      3      -0.9961      2.00000
      4      -0.9961      2.00000
      5      -0.5933      2.00000
      6      -0.5886      2.00000
      7      -0.5886      2.00000
      8       0.6560      2.00000
      9       0.7869      2.00000
     10       0.7869      2.00000
     11       1.4890      2.00000
     12       1.5804      2.00000
     13       1.8713      2.00000
     14       1.8713      2.00000
     15       2.0177      2.00000
     16       2.0177      2.00000
     17       2.0747      2.00000
     18       2.1565      2.00000
     19       2.1565      2.00000
     20       2.2557      2.00000
     21       2.2557      2.00000
     22       4.0063      0.17216
     23       5.8934      0.00000
     24       5.8934      0.00000
     25      10.9730      0.00000
     26      10.9730      0.00000

 k-point   3 :       0.2857    0.0000    0.0000
  band No.  band energies     occupation 
      1      -4.5881      2.00000
      2      -1.3129      2.00000
      3      -0.7075      2.00000
      4      -0.7075      2.00000
      5      -0.4085      2.00000
      6      -0.3757      2.00000
      7      -0.3757      2.00000
      8       0.4556      2.00000
      9       0.9582      2.00000
     10       0.9582      2.00000
     11       1.1646      2.00000
     12       1.1646      2.00000
     13       1.3178      2.00000
     14       1.6557      2.00000
     15       1.7926      2.00000
     16       1.7926      2.00000
     17       1.8965      2.00000
     18       1.8965      2.00000
     19       1.9974      2.00000
     20       2.1386      2.00000
     21       2.2560      2.00000
     22       2.2560      2.00000
     23       7.2600      0.00000
     24       7.2600      0.00000
     25      11.2767      0.00000
     26      11.2767      0.00000

 k-point   4 :       0.4286    0.0000    0.0000
  band No.  band energies     occupation 
      1      -3.4582      2.00000
      2      -2.1595      2.00000
      3      -0.4207      2.00000
      4      -0.4207      2.00000
      5      -0.1367      2.00000
      6      -0.0121      2.00000
      7      -0.0121      2.00000
      8       0.1713      2.00000
      9       0.5064      2.00000
     10       0.5064      2.00000
     11       1.1320      2.00000
     12       1.1976      2.00000
     13       1.2265      2.00000
     14       1.2265      2.00000
     15       1.5560      2.00000
     16       1.5560      2.00000
     17       1.5589      2.00000
     18       1.5589      2.00000
     19       1.7645      2.00000
     20       1.8866      2.00000
     21       2.2563      2.00000
     22       2.2563      2.00000
     23       9.0056      0.00000
     24       9.0056      0.00000
     25      11.0178      0.00000
     26      11.0550      0.00000

 k-point   5 :       0.1429    0.1429    0.0000
  band No.  band energies     occupation 
      1      -5.0683      2.00000
      2      -0.9975      2.00000
      3      -0.9975      2.00000
      4      -0.8910      2.00000
      5      -0.5273      2.00000
      6      -0.5273      2.00000
      7      -0.5259      2.00000
      8       0.6201      2.00000
      9       0.8138      2.00000
     10       0.8270      2.00000
     11       1.4743      2.00000
     12       1.5752      2.00000
     13       1.6415      2.00000
     14       1.6940      2.00000
     15       1.6940      2.00000
     16       1.9430      2.00000
     17       2.0248      2.00000
     18       2.0248      2.00000
     19       2.1559      2.00000
     20       2.1559      2.00000
     21       2.1909      2.00000
     22       4.5946      0.00003
     23       4.5946      0.00003
     24       6.4103      0.00000
     25      11.0633      0.00000
     26      12.8244      0.00000

 k-point   6 :       0.2857    0.1429    0.0000
  band No.  band energies     occupation 
      1      -4.3544      2.00000
      2      -1.1660      2.00000
      3      -0.6841      2.00000
      4      -0.6196      2.00000
      5      -0.3536      2.00000
      6      -0.3403      2.00000
      7      -0.3264      2.00000
      8       0.4500      2.00000
      9       0.9286      2.00000
     10       0.9668      2.00000
     11       0.9963      2.00000
     12       1.0778      2.00000
     13       1.2682      2.00000
     14       1.3540      2.00000
     15       1.6693      2.00000
     16       1.7424      2.00000
     17       1.8048      2.00000
     18       1.8950      2.00000
     19       1.9340      2.00000
     20       2.1544      2.00000
     21       2.1575      2.00000
     22       2.8733      1.99993
     23       5.7664      0.00000
     24       7.6712      0.00000
     25      10.7499      0.00000
     26      11.5211      0.00000

 k-point   7 :       0.4286    0.1429    0.0000
  band No.  band energies     occupation 
      1      -3.2445      2.00000
      2      -1.9777      2.00000
      3      -0.3555      2.00000
      4      -0.3279      2.00000
      5      -0.0989      2.00000
      6      -0.0589      2.00000
      7       0.0144      2.00000
      8       0.1886      2.00000
      9       0.3837      2.00000
     10       0.4925      2.00000
     11       0.9120      2.00000
     12       0.9378      2.00000
     13       1.2286      2.00000
     14       1.3748      2.00000
     15       1.5356      2.00000
     16       1.5580      2.00000
     17       1.5635      2.00000
     18       1.6699      2.00000
     19       1.8328      2.00000
     20       2.0907      2.00000
     21       2.1517      2.00000
     22       2.1525      2.00000
     23       7.1841      0.00000
     24       8.8406      0.00000
     25       9.3550      0.00000
     26      11.3984      0.00000

 k-point   8 :       0.2857    0.2857    0.0000
  band No.  band energies     occupation 
      1      -3.6749      2.00000
      2      -0.7787      2.00000
      3      -0.7787      2.00000
      4      -0.4091      2.00000
      5      -0.2239      2.00000
      6      -0.1882      2.00000
      7      -0.1882      2.00000
      8       0.3840      2.00000
      9       0.6672      2.00000
     10       0.6672      2.00000
     11       0.8116      2.00000
     12       0.8913      2.00000
     13       1.0486      2.00000
     14       1.3079      2.00000
     15       1.5979      2.00000
     16       1.7380      2.00000
     17       1.7380      2.00000
     18       1.8304      2.00000
     19       1.8924      2.00000
     20       1.8924      2.00000
     21       2.0034      2.00000
     22       3.8407      0.55892
     23       3.8407      0.55892
     24       8.4041      0.00000
     25       8.7643      0.00000
     26      11.8582      0.00000

 k-point   9 :       0.4286    0.2857    0.0000
  band No.  band energies     occupation 
      1      -2.6354      2.00000
      2      -1.4843      2.00000
      3      -0.3354      2.00000
      4      -0.1892      2.00000
      5      -0.0803      2.00000
      6       0.0097      2.00000
      7       0.0835      2.00000
      8       0.2059      2.00000
      9       0.2208      2.00000
     10       0.4393      2.00000
     11       0.5979      2.00000
     12       0.7794      2.00000
     13       1.2590      2.00000
     14       1.3138      2.00000
     15       1.4464      2.00000
     16       1.5066      2.00000
     17       1.5244      2.00000
     18       1.5637      2.00000
     19       1.8961      2.00000
     20       1.9221      2.00000
     21       2.1438      2.00000
     22       2.6825      2.00000
     23       4.9981      0.00000
     24       6.4778      0.00000
     25      10.3253      0.00000
     26      12.3689      0.00000

 k-point  10 :       0.4286    0.4286    0.0000
  band No.  band energies     occupation 
      1      -1.7528      2.00000
      2      -0.8663      2.00000
      3      -0.8663      2.00000
      4      -0.4147      2.00000
      5       0.1665      2.00000
      6       0.1665      2.00000
      7       0.2010      2.00000
      8       0.2215      2.00000
      9       0.3267      2.00000
     10       0.3955      2.00000
     11       0.3955      2.00000
     12       0.6463      2.00000
     13       1.2112      2.00000
     14       1.3062      2.00000
     15       1.3281      2.00000
     16       1.3281      2.00000
     17       1.3741      2.00000
     18       1.6023      2.00000
     19       1.6023      2.00000
     20       1.7155      2.00000
     21       2.6484      2.00000
     22       3.4890      1.71688
     23       3.4890      1.71688
     24       4.6875      0.00000
     25      11.7745      0.00000
     26      13.5377      0.00000

 k-point  11 :       0.1429    0.1429    0.1429
  band No.  band energies     occupation 
      1      -4.8282      2.00000
      2      -0.8883      2.00000
      3      -0.8883      2.00000
      4      -0.8883      2.00000
      5      -0.4667      2.00000
      6      -0.4667      2.00000
      7      -0.4667      2.00000
      8       0.5928      2.00000
      9       0.8425      2.00000
     10       0.8425      2.00000
     11       1.4853      2.00000
     12       1.4853      2.00000
     13       1.4853      2.00000
     14       1.5239      2.00000
     15       1.5239      2.00000
     16       1.8366      2.00000
     17       1.8366      2.00000
     18       1.8366      2.00000
     19       2.1894      2.00000
     20       2.1894      2.00000
     21       2.1894      2.00000
     22       5.0444      0.00000
     23       5.0444      0.00000
     24       5.0444      0.00000
     25      13.0028      0.00000
     26      13.1341      0.00000

 k-point  12 :       0.2857    0.1429    0.1429
  band No.  band energies     occupation 
      1      -4.1272      2.00000
      2      -1.0441      2.00000
      3      -0.6085      2.00000
      4      -0.6085      2.00000
      5      -0.2968      2.00000
      6      -0.2895      2.00000
      7      -0.2895      2.00000
      8       0.4534      2.00000
      9       0.9186      2.00000
     10       0.9365      2.00000
     11       0.9433      2.00000
     12       0.9433      2.00000
     13       1.0784      2.00000
     14       1.4330      2.00000
     15       1.6036      2.00000
     16       1.6558      2.00000
     17       1.6701      2.00000
     18       1.6701      2.00000
     19       2.1316      2.00000
     20       2.1458      2.00000
     21       2.1458      2.00000
     22       3.2159      1.98175
     23       6.0753      0.00000
     24       6.0753      0.00000
     25      11.1596      0.00000
     26      11.1596      0.00000

 k-point  13 :       0.4286    0.1429    0.1429
  band No.  band energies     occupation 
      1      -3.0434      2.00000
      2      -1.8200      2.00000
      3      -0.2804      2.00000
      4      -0.2804      2.00000
      5      -0.0898      2.00000
      6      -0.0898      2.00000
      7      -0.0501      2.00000
      8       0.2188      2.00000
      9       0.4663      2.00000
     10       0.4663      2.00000
     11       0.8104      2.00000
     12       0.8825      2.00000
     13       1.1051      2.00000
     14       1.3392      2.00000
     15       1.4904      2.00000
     16       1.4904      2.00000
     17       1.5782      2.00000
     18       1.8299      2.00000
     19       2.0021      2.00000
     20       2.1112      2.00000
     21       2.1112      2.00000
     22       2.1168      2.00000
     23       7.3475      0.00000
     24       7.3475      0.00000
     25       9.2736      0.00000
     26       9.2736      0.00000

 k-point  14 :       0.2857    0.2857    0.1429
  band No.  band energies     occupation 
      1      -3.4702      2.00000
      2      -0.7478      2.00000
      3      -0.7478      2.00000
      4      -0.4604      2.00000
      5      -0.1518      2.00000
      6      -0.1217      2.00000
      7      -0.1217      2.00000
      8       0.4222      2.00000
      9       0.6785      2.00000
     10       0.6785      2.00000
     11       0.7692      2.00000
     12       0.8852      2.00000
     13       0.9480      2.00000
     14       1.4563      2.00000
     15       1.4652      2.00000
     16       1.4652      2.00000
     17       1.4673      2.00000
     18       1.7870      2.00000
     19       2.0806      2.00000
     20       2.0852      2.00000
     21       2.0852      2.00000
     22       4.0245      0.14680
     23       4.0245      0.14680
     24       6.7847      0.00000
     25       8.9134      0.00000
     26      11.9930      0.00000

 k-point  15 :       0.4286    0.2857    0.1429
  band No.  band energies     occupation 
      1      -2.4799      2.00000
      2      -1.4146      2.00000
      3      -0.4605      2.00000
      4      -0.3664      2.00000
      5       0.0139      2.00000
      6       0.0694      2.00000
      7       0.1094      2.00000
      8       0.3031      2.00000
      9       0.4496      2.00000
     10       0.5670      2.00000
     11       0.6177      2.00000
     12       0.7800      2.00000
     13       1.0321      2.00000
     14       1.2192      2.00000
     15       1.3136      2.00000
     16       1.3378      2.00000
     17       1.6014      2.00000
     18       1.9043      2.00000
     19       2.0027      2.00000
     20       2.0034      2.00000
     21       2.0879      2.00000
     22       2.6850      2.00000
     23       5.1009      0.00000
     24       6.4168      0.00000
     25       8.6038      0.00000
     26      10.0506      0.00000

 k-point  16 :       0.4286    0.4286    0.1429
  band No.  band energies     occupation 
      1      -1.6981      2.00000
      2      -0.9592      2.00000
      3      -0.9592      2.00000
      4      -0.6181      2.00000
      5       0.2762      2.00000
      6       0.3573      2.00000
      7       0.3573      2.00000
      8       0.3969      2.00000
      9       0.4875      2.00000
     10       0.4875      2.00000
     11       0.5790      2.00000
     12       0.6728      2.00000
     13       1.0044      2.00000
     14       1.1295      2.00000
     15       1.1295      2.00000
     16       1.1457      2.00000
     17       1.6079      2.00000
     18       1.8070      2.00000
     19       1.8070      2.00000
     20       1.8605      2.00000
     21       2.5863      2.00000
     22       3.4805      1.73438
     23       3.4805      1.73438
     24       4.6901      0.00000
     25       9.7027      0.00000
     26      11.2781      0.00000

 k-point  17 :       0.2857    0.2857    0.2857
  band No.  band energies     occupation 
      1      -2.8923      2.00000
      2      -0.7167      2.00000
      3      -0.7167      2.00000
      4      -0.7167      2.00000
      5       0.0849      2.00000
      6       0.0849      2.00000
      7       0.0849      2.00000
      8       0.5226      2.00000
      9       0.7011      2.00000
     10       0.7011      2.00000
     11       0.7011      2.00000
     12       0.8603      2.00000
     13       0.8603      2.00000
     14       1.2116      2.00000
     15       1.2116      2.00000
     16       1.2116      2.00000
     17       1.7213      2.00000
     18       1.7213      2.00000
     19       2.1467      2.00000
     20       2.1467      2.00000
     21       2.1467      2.00000
     22       4.5369      0.00011
     23       4.5369      0.00011
     24       4.5369      0.00011
     25       9.6795      0.00000
     26       9.6795      0.00000

 k-point  18 :       0.4286    0.2857    0.2857
  band No.  band energies     occupation 
      1      -2.0735      2.00000
      2      -1.2685      2.00000
      3      -0.7149      2.00000
      4      -0.7149      2.00000
      5       0.2600      2.00000
      6       0.2600      2.00000
      7       0.4015      2.00000
      8       0.5845      2.00000
      9       0.6859      2.00000
     10       0.7673      2.00000
     11       0.7779      2.00000
     12       0.7779      2.00000
     13       0.8753      2.00000
     14       0.9996      2.00000
     15       1.0858      2.00000
     16       1.0858      2.00000
     17       1.9367      2.00000
     18       1.9511      2.00000
     19       2.0850      2.00000
     20       2.0850      2.00000
     21       2.1038      2.00000
     22       2.8511      1.99996
     23       5.1669      0.00000
     24       5.1669      0.00000
     25       8.1203      0.00000
     26       8.1203      0.00000

 k-point  19 :       0.4286    0.4286    0.2857
  band No.  band energies     occupation 
      1      -1.5751      2.00000
      2      -1.1176      2.00000
      3      -1.1176      2.00000
      4      -0.9427      2.00000
      5       0.4628      2.00000
      6       0.5409      2.00000
      7       0.5409      2.00000
      8       0.7196      2.00000
      9       0.8097      2.00000
     10       0.8812      2.00000
     11       0.8812      2.00000
     12       0.9160      2.00000
     13       0.9808      2.00000
     14       0.9916      2.00000
     15       0.9916      2.00000
     16       1.0475      2.00000
     17       1.8757      2.00000
     18       2.0377      2.00000
     19       2.0377      2.00000
     20       2.0428      2.00000
     21       2.3907      2.00000
     22       3.4411      1.80616
     23       3.4411      1.80616
     24       4.4306      0.00076
     25       7.9148      0.00000
     26       9.0571      0.00000

 k-point  20 :       0.4286    0.4286    0.4286
  band No.  band energies     occupation 
      1      -1.4225      2.00000
      2      -1.2189      2.00000
      3      -1.2189      2.00000
      4      -1.2189      2.00000
      5       0.6367      2.00000
      6       0.6367      2.00000
      7       0.6367      2.00000
      8       0.7230      2.00000
      9       0.7230      2.00000
     10       0.7613      2.00000
     11       0.7613      2.00000
     12       0.7613      2.00000
     13       1.5694      2.00000
     14       1.5694      2.00000
     15       1.5694      2.00000
     16       2.0018      2.00000
     17       2.0604      2.00000
     18       2.0604      2.00000
     19       2.1198      2.00000
     20       2.1198      2.00000
     21       2.1198      2.00000
     22       3.3601      1.90726
     23       3.3601      1.90726
     24       3.3601      1.90726
     25       7.7306      0.00000
     26       7.7307      0.00000


--------------------------------------------------------------------------------------------------------


 soft charge-density along one line, spin component           1
         0         1         2         3         4         5         6         7         8         9
 total charge-density along one line
 
 pseudopotential strength for first ion, spin component:           1
 -6.437   0.000   0.000   0.000   0.000  -0.257   0.000   0.000
  0.000  -6.437   0.000   0.000   0.000   0.000  -0.257   0.000
  0.000   0.000  -6.419   0.000   0.000   0.000   0.000  -0.265
  0.000   0.000   0.000  -6.437   0.000   0.000   0.000   0.000
  0.000   0.000   0.000   0.000  -6.419   0.000   0.000   0.000
 -0.257   0.000   0.000   0.000   0.000   1.683   0.000   0.000
  0.000  -0.257   0.000   0.000   0.000   0.000   1.683   0.000
  0.000   0.000  -0.265   0.000   0.000   0.000   0.000   1.687
  0.000   0.000   0.000  -0.257   0.000   0.000   0.000   0.000
  0.000   0.000   0.000   0.000  -0.265   0.000   0.000   0.000
  0.000   0.000   0.000   0.000   0.000   0.000   0.000   0.000
  0.000   0.000   0.000   0.000   0.000   0.000   0.000   0.000
  0.000   0.000   0.000   0.000   0.000   0.000   0.000   0.000
  0.000   0.000   0.000   0.000   0.000   0.000   0.000   0.000
  0.000   0.000   0.000   0.000   0.000   0.000   0.000   0.000
  0.000   0.000   0.000   0.000   0.000   0.000   0.000   0.000
  0.000   0.000   0.000   0.000   0.000   0.000   0.000   0.000
  0.000   0.000   0.000   0.000   0.000   0.000   0.000   0.000
 total augmentation occupancy for first ion, spin component:           1
  1.907   0.000   0.000   0.000   0.000  -0.015   0.000   0.000   0.000   0.000   0.000   0.000   0.000   0.000   0.000   0.000
  0.000   1.907   0.000   0.000   0.000   0.000  -0.015   0.000   0.000   0.000   0.000   0.000   0.000   0.000   0.000   0.000
  0.000   0.000   1.916   0.000   0.000   0.000   0.000  -0.056   0.000   0.000   0.000   0.000   0.000   0.000   0.000   0.000
  0.000   0.000   0.000   1.907   0.000   0.000   0.000   0.000  -0.015   0.000   0.000   0.000   0.000   0.000   0.000   0.000
  0.000   0.000   0.000   0.000   1.916   0.000   0.000   0.000   0.000  -0.056   0.000   0.000   0.000   0.000   0.000   0.000
 -0.015   0.000   0.000   0.000   0.000   0.081   0.000   0.000   0.000   0.000   0.000   0.000   0.000   0.000   0.000   0.000
  0.000  -0.015   0.000   0.000   0.000   0.000   0.081   0.000   0.000   0.000   0.000   0.000   0.000   0.000   0.000   0.000
  0.000   0.000  -0.056   0.000   0.000   0.000   0.000   0.076   0.000   0.000   0.000   0.000   0.000   0.000   0.000   0.000
  0.000   0.000   0.000  -0.015   0.000   0.000   0.000   0.000   0.081   0.000   0.000   0.000   0.000   0.000   0.000   0.000
  0.000   0.000   0.000   0.000  -0.056   0.000   0.000   0.000   0.000   0.076   0.000   0.000   0.000   0.000   0.000   0.000
  0.000   0.000   0.000   0.000   0.000   0.000   0.000   0.000   0.000   0.000   1.211  -0.360   0.000   0.000   0.000   0.000
  0.000   0.000   0.000   0.000   0.000   0.000   0.000   0.000   0.000   0.000  -0.360   0.155   0.000   0.000   0.000   0.000
  0.000   0.000   0.000   0.000   0.000   0.000   0.000   0.000   0.000   0.000   0.000   0.000   0.194   0.000   0.000  -0.013
  0.000   0.000   0.000   0.000   0.000   0.000   0.000   0.000   0.000   0.000   0.000   0.000   0.000   0.194   0.000   0.000
  0.000   0.000   0.000   0.000   0.000   0.000   0.000   0.000   0.000   0.000   0.000   0.000   0.000   0.000   0.194   0.000
  0.000   0.000   0.000   0.000   0.000   0.000   0.000   0.000   0.000   0.000   0.000   0.000  -0.013   0.000   0.000   0.001
  0.000   0.000   0.000   0.000   0.000   0.000   0.000   0.000   0.000   0.000   0.000   0.000   0.000  -0.013   0.000   0.000
  0.000   0.000   0.000   0.000   0.000   0.000   0.000   0.000   0.000   0.000   0.000   0.000   0.000   0.000  -0.013   0.000


------------------------ aborting loop because EDIFF is reached ----------------------------------------


    CHARGE:  cpu time    0.10: real time    0.10
    FORLOC:  cpu time    0.00: real time    0.00
    FORNL :  cpu time    0.95: real time    0.95
    STRESS:  cpu time    0.75: real time    0.76
    FORCOR:  cpu time    0.06: real time    0.06
    FORHAR:  cpu time    0.02: real time    0.02
    MIXING:  cpu time    0.00: real time    0.00

  FORCE on cell =-STRESS in cart. coord.  units (eV):
  Direction    XX          YY          ZZ          XY          YZ          ZX
  --------------------------------------------------------------------------------------
  Alpha Z   431.88810   431.88810   431.88810
  Ewald   -1472.28743 -1472.28743 -1472.28743     0.00000     0.00000     0.00000
  Hartree   405.93578   405.93578   405.93578     0.00000     0.00000     0.00000
  E(xc)    -250.67087  -250.67087  -250.67087     0.00000     0.00000     0.00000
  Local     490.70989   490.70989   490.70989     0.00000     0.00000     0.00000
  n-local  -141.97463  -147.19747  -148.73703     0.18601     1.58069     0.76232
  augment   226.19151   226.19154   226.19151     0.00005     0.00004     0.00002
  Kinetic   321.65167   314.24778   308.11683    -3.73465    -0.27780    -1.17985
  Fock        0.00000     0.00000     0.00000     0.00000     0.00000     0.00000
  -------------------------------------------------------------------------------------
  Total       0.46939     0.46939     0.46939     0.00000     0.00000     0.00000
  in kB      15.88881    15.88881    15.88881     0.00000     0.00000     0.00000
  external pressure =       15.89 kB  Pullay stress =        0.00 kB


 VOLUME and BASIS-vectors are now :
 -----------------------------------------------------------------------------
  energy-cutoff  :      415.00
  volume of cell :       47.33
      direct lattice vectors                 reciprocal lattice vectors
     3.617296022  0.000000000  0.000000000     0.276449589  0.000000000  0.000000000
     0.000000000  3.617296022  0.000000000     0.000000000  0.276449589  0.000000000
     0.000000000  0.000000000  3.617296022     0.000000000  0.000000000  0.276449589

  length of vectors
     3.617296022  3.617296022  3.617296022     0.276449589  0.276449589  0.276449589


 FORCES acting on ions
    electron-ion (+dipol)            ewald-force                    non-local-force                 convergence-correction
 -----------------------------------------------------------------------------------------------
   -.495E-13 -.463E-13 -.104E-12   -.168E-13 -.235E-14 -.180E-13   -.414E-24 -.207E-24 0.414E-24   0.411E-13 0.227E-13 -.751E-13
   0.556E-12 0.568E-12 0.608E-12   0.209E-14 0.228E-15 -.181E-13   -.414E-24 -.207E-24 0.414E-24   0.792E-13 0.370E-13 -.116E-12
   0.553E-12 -.522E-13 -.593E-12   0.898E-14 -.148E-14 0.165E-13   -.414E-24 -.414E-24 0.414E-24   0.949E-13 0.465E-13 -.738E-13
   -.503E-13 0.576E-12 0.529E-12   0.540E-14 0.109E-14 0.165E-13   -.414E-24 0.124E-23 0.414E-24   0.377E-13 0.145E-13 -.582E-13
 -----------------------------------------------------------------------------------------------
   0.101E-11 0.105E-11 0.440E-12   -.369E-15 -.251E-14 -.312E-14   -.165E-23 0.414E-24 0.165E-23   0.253E-12 0.121E-12 -.323E-12
 
 
 POSITION                                       TOTAL-FORCE (eV/Angst)
 -----------------------------------------------------------------------------------
      0.00000      0.00000      0.00000         0.000000      0.000000      0.000000
      1.80865      1.80865      0.00000         0.000000      0.000000      0.000000
      1.80865      0.00000      1.80865         0.000000      0.000000      0.000000
      0.00000      1.80865      1.80865         0.000000      0.000000      0.000000
 -----------------------------------------------------------------------------------
    total drift:                                0.000000      0.000000      0.000000


--------------------------------------------------------------------------------------------------------



  FREE ENERGIE OF THE ION-ELECTRON SYSTEM (eV)
  ---------------------------------------------------
  free  energy   TOTEN  =       -14.900566 eV

  energy  without entropy=      -14.847891  energy(sigma->0) =      -14.874229
 
 d Force = 0.0000000E+00[ 0.000E+00, 0.000E+00]  d Energy = 0.1115559E-02-0.112E-02
 d Force = 0.0000000E+00[ 0.000E+00, 0.000E+00]  d Ewald  =-0.3135602E+01 0.314E+01


--------------------------------------------------------------------------------------------------------


    POTLOK:  cpu time    0.08: real time    0.08


--------------------------------------------------------------------------------------------------------


 Steepest descent step on ions:
 trial-energy change:   -0.001116  1 .order   -0.001127   -0.001254   -0.001000
  (g-gl).g = 0.125E-02      g.g   = 0.125E-02  gl.gl    = 0.000E+00
 g(Force)  = 0.000E+00   g(Stress)= 0.125E-02 ortho     = 0.000E+00
 gamma     =   0.00000
 trial     =   1.00000
 opt step  =   4.00000  (harmonic =   4.93676) maximal distance =0.00000000
 next E    =   -14.902545   (d E  =  -0.00309)


--------------------------------------------------------------------------------------------------------


    WAVPRE:  cpu time    0.01: real time    0.01
    FEWALD:  cpu time    0.00: real time    0.00
    GENKIN:  cpu time    0.01: real time    0.01
    ORTHCH:  cpu time    0.11: real time    0.11
     LOOP+:  cpu time    9.89: real time    9.91


----------------------------------------- Iteration    3(   1)  ---------------------------------------


    POTLOK:  cpu time    0.06: real time    0.06
    SETDIJ:  cpu time    0.02: real time    0.02
    EDDIAG:  cpu time    0.28: real time    0.28
  RMM-DIIS:  cpu time    1.13: real time    1.13
    ORTHCH:  cpu time    0.06: real time    0.07
       DOS:  cpu time    0.01: real time    0.00
    CHARGE:  cpu time    0.10: real time    0.10
    MIXING:  cpu time    0.00: real time    0.00
    --------------------------------------------
      LOOP:  cpu time    1.66: real time    1.66

 eigenvalue-minimisations  :  1040
 total energy-change (2. order) :-0.3651177E-01  (-0.3808838E-01)
 number of electron      44.0000210 magnetization 
 augmentation part       28.9369290 magnetization 

 Broyden mixing:
  rms(total) = 0.14085E+00    rms(broyden)= 0.14084E+00
  rms(prec ) = 0.30612E+00
  weight for this iteration     100.00

 Free energy of the ion-electron system (eV)
  ---------------------------------------------------
  alpha Z        PSCENC =       429.14231658
  Ewald energy   TEWEN  =     -4407.48018143
  -1/2 Hartree   DENC   =     -1215.23915562
  -exchange  EXHF       =         0.00000000
  -V(xc)+E(xc)   XCENC  =       170.76132235
  PAW double counting   =      4391.50007916    -4970.60868912
  entropy T*S    EENTRO =        -0.05160725
  eigenvalues    EBANDS =        23.15316827
  atomic energy  EATOM  =      5563.88566948
  ---------------------------------------------------
  free energy    TOTEN  =       -14.93707759 eV

  energy without entropy =      -14.88547033  energy(sigma->0) =      -14.91127396


--------------------------------------------------------------------------------------------------------




----------------------------------------- Iteration    3(   2)  ---------------------------------------


    POTLOK:  cpu time    0.06: real time    0.06
    SETDIJ:  cpu time    0.02: real time    0.02
    EDDIAG:  cpu time    0.28: real time    0.28
  RMM-DIIS:  cpu time    1.14: real time    1.14
    ORTHCH:  cpu time    0.07: real time    0.07
       DOS:  cpu time    0.00: real time    0.00
    CHARGE:  cpu time    0.10: real time    0.10
    MIXING:  cpu time    0.00: real time    0.00
    --------------------------------------------
      LOOP:  cpu time    1.68: real time    1.68

 eigenvalue-minimisations  :  1040
 total energy-change (2. order) : 0.2379135E-01  (-0.2538840E-01)
 number of electron      44.0000208 magnetization 
 augmentation part       28.6696648 magnetization 

 Broyden mixing:
  rms(total) = 0.47735E-01    rms(broyden)= 0.47732E-01
  rms(prec ) = 0.11482E+00
  weight for this iteration     100.00

 eigenvalues of (default mixing * dielectric matrix)
  average eigenvalue GAMMA=   0.7694
  0.7694

 Free energy of the ion-electron system (eV)
  ---------------------------------------------------
  alpha Z        PSCENC =       429.14231658
  Ewald energy   TEWEN  =     -4407.48018143
  -1/2 Hartree   DENC   =     -1223.86463135
  -exchange  EXHF       =         0.00000000
  -V(xc)+E(xc)   XCENC  =       171.20831517
  PAW double counting   =      4400.36929806    -4982.42589472
  entropy T*S    EENTRO =        -0.05380792
  eigenvalues    EBANDS =        34.30562990
  atomic energy  EATOM  =      5563.88566948
  ---------------------------------------------------
  free energy    TOTEN  =       -14.91328624 eV

  energy without entropy =      -14.85947832  energy(sigma->0) =      -14.88638228


--------------------------------------------------------------------------------------------------------




----------------------------------------- Iteration    3(   3)  ---------------------------------------


    POTLOK:  cpu time    0.06: real time    0.06
    SETDIJ:  cpu time    0.02: real time    0.02
    EDDIAG:  cpu time    0.28: real time    0.28
  RMM-DIIS:  cpu time    1.13: real time    1.13
    ORTHCH:  cpu time    0.06: real time    0.07
       DOS:  cpu time    0.00: real time    0.00
    CHARGE:  cpu time    0.10: real time    0.10
    MIXING:  cpu time    0.00: real time    0.00
    --------------------------------------------
      LOOP:  cpu time    1.66: real time    1.66

 eigenvalue-minimisations  :  1040
 total energy-change (2. order) : 0.9357602E-02  (-0.4075409E-02)
 number of electron      44.0000208 magnetization 
 augmentation part       28.7758041 magnetization 

 Broyden mixing:
  rms(total) = 0.23927E-01    rms(broyden)= 0.23926E-01
  rms(prec ) = 0.44130E-01
  weight for this iteration     100.00

 eigenvalues of (default mixing * dielectric matrix)
  average eigenvalue GAMMA=   1.5990
  0.6484  2.5495

 Free energy of the ion-electron system (eV)
  ---------------------------------------------------
  alpha Z        PSCENC =       429.14231658
  Ewald energy   TEWEN  =     -4407.48018143
  -1/2 Hartree   DENC   =     -1221.44852407
  -exchange  EXHF       =         0.00000000
  -V(xc)+E(xc)   XCENC  =       171.08441225
  PAW double counting   =      4392.88763701    -4972.79296207
  entropy T*S    EENTRO =        -0.05286582
  eigenvalues    EBANDS =        29.87056944
  atomic energy  EATOM  =      5563.88566948
  ---------------------------------------------------
  free energy    TOTEN  =       -14.90392864 eV

  energy without entropy =      -14.85106281  energy(sigma->0) =      -14.87749573


--------------------------------------------------------------------------------------------------------




----------------------------------------- Iteration    3(   4)  ---------------------------------------


    POTLOK:  cpu time    0.06: real time    0.06
    SETDIJ:  cpu time    0.02: real time    0.02
    EDDIAG:  cpu time    0.28: real time    0.28
  RMM-DIIS:  cpu time    1.14: real time    1.14
    ORTHCH:  cpu time    0.07: real time    0.07
       DOS:  cpu time    0.00: real time    0.00
    CHARGE:  cpu time    0.10: real time    0.10
    MIXING:  cpu time    0.00: real time    0.00
    --------------------------------------------
      LOOP:  cpu time    1.67: real time    1.67

 eigenvalue-minimisations  :  1040
 total energy-change (2. order) : 0.1213388E-02  (-0.3371735E-04)
 number of electron      44.0000208 magnetization 
 augmentation part       28.7596564 magnetization 

 Broyden mixing:
  rms(total) = 0.14641E-02    rms(broyden)= 0.14637E-02
  rms(prec ) = 0.32271E-02
  weight for this iteration     100.00

 eigenvalues of (default mixing * dielectric matrix)
  average eigenvalue GAMMA=   1.6040
  2.4435  0.6472  1.7213

 Free energy of the ion-electron system (eV)
  ---------------------------------------------------
  alpha Z        PSCENC =       429.14231658
  Ewald energy   TEWEN  =     -4407.48018143
  -1/2 Hartree   DENC   =     -1223.13391153
  -exchange  EXHF       =         0.00000000
  -V(xc)+E(xc)   XCENC  =       171.17521029
  PAW double counting   =      4388.05194074    -4966.93871898
  entropy T*S    EENTRO =        -0.05315051
  eigenvalues    EBANDS =        30.44811013
  atomic energy  EATOM  =      5563.88566948
  ---------------------------------------------------
  free energy    TOTEN  =       -14.90271525 eV

  energy without entropy =      -14.84956474  energy(sigma->0) =      -14.87613999


--------------------------------------------------------------------------------------------------------




----------------------------------------- Iteration    3(   5)  ---------------------------------------


    POTLOK:  cpu time    0.06: real time    0.06
    SETDIJ:  cpu time    0.02: real time    0.02
    EDDIAG:  cpu time    0.28: real time    0.28
  RMM-DIIS:  cpu time    0.84: real time    0.83
    ORTHCH:  cpu time    0.06: real time    0.07
       DOS:  cpu time    0.00: real time    0.00
    --------------------------------------------
      LOOP:  cpu time    1.26: real time    1.26

 eigenvalue-minimisations  :   738
 total energy-change (2. order) :-0.5869369E-06  (-0.4587403E-06)
 number of electron      44.0000208 magnetization 
 augmentation part       28.7596564 magnetization 

 Free energy of the ion-electron system (eV)
  ---------------------------------------------------
  alpha Z        PSCENC =       429.14231658
  Ewald energy   TEWEN  =     -4407.48018143
  -1/2 Hartree   DENC   =     -1223.06025454
  -exchange  EXHF       =         0.00000000
  -V(xc)+E(xc)   XCENC  =       171.17162649
  PAW double counting   =      4387.90709719    -4966.84345347
  entropy T*S    EENTRO =        -0.05314515
  eigenvalues    EBANDS =        30.42760903
  atomic energy  EATOM  =      5563.88566948
  ---------------------------------------------------
  free energy    TOTEN  =       -14.90271584 eV

  energy without entropy =      -14.84957068  energy(sigma->0) =      -14.87614326


--------------------------------------------------------------------------------------------------------




 average (electrostatic) potential at core
  the test charge radii are     1.0053
  (the norm of the test charge is              1.0000)
       1 -39.9832       2 -39.9832       3 -39.9832       4 -39.9832
 
 
 
 E-fermi :   3.6616     XC(G=0): -12.7527     alpha+bet : -9.5513


 k-point   1 :       0.0000    0.0000    0.0000
  band No.  band energies     occupation 
      1      -5.5655      2.00000
      2      -1.1258      2.00000
      3      -1.1258      2.00000
      4      -1.1258      2.00000
      5      -0.6793      2.00000
      6      -0.6793      2.00000
      7      -0.6793      2.00000
      8       0.6934      2.00000
      9       0.6934      2.00000
     10       0.6934      2.00000
     11       1.5112      2.00000
     12       1.5112      2.00000
     13       2.0546      2.00000
     14       2.0546      2.00000
     15       2.0546      2.00000
     16       2.2062      2.00000
     17       2.2062      2.00000
     18       2.2062      2.00000
     19       2.2062      2.00000
     20       2.2062      2.00000
     21       2.2062      2.00000
     22       5.2379      0.00000
     23       5.2379      0.00000
     24       5.2379      0.00000
     25      10.7808      0.00000
     26      10.7808      0.00000

 k-point   2 :       0.1429    0.0000    0.0000
  band No.  band energies     occupation 
      1      -5.3195      2.00000
      2      -1.1357      2.00000
      3      -1.0137      2.00000
      4      -1.0137      2.00000
      5      -0.6146      2.00000
      6      -0.6100      2.00000
      7      -0.6100      2.00000
      8       0.6223      2.00000
      9       0.7520      2.00000
     10       0.7520      2.00000
     11       1.4472      2.00000
     12       1.5376      2.00000
     13       1.8266      2.00000
     14       1.8266      2.00000
     15       1.9708      2.00000
     16       1.9708      2.00000
     17       2.0271      2.00000
     18       2.1082      2.00000
     19       2.1082      2.00000
     20       2.2063      2.00000
     21       2.2063      2.00000
     22       3.9572      0.16350
     23       5.8380      0.00000
     24       5.8380      0.00000
     25      10.8744      0.00000
     26      10.8744      0.00000

 k-point   3 :       0.2857    0.0000    0.0000
  band No.  band energies     occupation 
      1      -4.5985      2.00000
      2      -1.3310      2.00000
      3      -0.7273      2.00000
      4      -0.7273      2.00000
      5      -0.4316      2.00000
      6      -0.3991      2.00000
      7      -0.3991      2.00000
      8       0.4240      2.00000
      9       0.9217      2.00000
     10       0.9217      2.00000
     11       1.1272      2.00000
     12       1.1272      2.00000
     13       1.2778      2.00000
     14       1.6123      2.00000
     15       1.7480      2.00000
     16       1.7480      2.00000
     17       1.8508      2.00000
     18       1.8508      2.00000
     19       1.9507      2.00000
     20       2.0950      2.00000
     21       2.2066      2.00000
     22       2.2066      2.00000
     23       7.1955      0.00000
     24       7.1955      0.00000
     25      11.1793      0.00000
     26      11.1793      0.00000

 k-point   4 :       0.4286    0.0000    0.0000
  band No.  band energies     occupation 
      1      -3.4730      2.00000
      2      -2.1776      2.00000
      3      -0.4427      2.00000
      4      -0.4427      2.00000
      5      -0.1624      2.00000
      6      -0.0388      2.00000
      7      -0.0388      2.00000
      8       0.1426      2.00000
      9       0.4750      2.00000
     10       0.4750      2.00000
     11       1.0939      2.00000
     12       1.1591      2.00000
     13       1.1873      2.00000
     14       1.1873      2.00000
     15       1.5137      2.00000
     16       1.5137      2.00000
     17       1.5165      2.00000
     18       1.5165      2.00000
     19       1.7200      2.00000
     20       1.8409      2.00000
     21       2.2069      2.00000
     22       2.2069      2.00000
     23       8.9317      0.00000
     24       8.9317      0.00000
     25      10.9343      0.00000
     26      10.9465      0.00000

 k-point   5 :       0.1429    0.1429    0.0000
  band No.  band energies     occupation 
      1      -5.0766      2.00000
      2      -1.0155      2.00000
      3      -1.0155      2.00000
      4      -0.9094      2.00000
      5      -0.5492      2.00000
      6      -0.5492      2.00000
      7      -0.5479      2.00000
      8       0.5869      2.00000
      9       0.7786      2.00000
     10       0.7917      2.00000
     11       1.4327      2.00000
     12       1.5325      2.00000
     13       1.5994      2.00000
     14       1.6511      2.00000
     15       1.6511      2.00000
     16       1.8969      2.00000
     17       1.9780      2.00000
     18       1.9780      2.00000
     19       2.1076      2.00000
     20       2.1076      2.00000
     21       2.1422      2.00000
     22       4.5397      0.00003
     23       4.5397      0.00003
     24       6.3511      0.00000
     25      10.9657      0.00000
     26      12.7205      0.00000

 k-point   6 :       0.2857    0.1429    0.0000
  band No.  band energies     occupation 
      1      -4.3658      2.00000
      2      -1.1850      2.00000
      3      -0.7044      2.00000
      4      -0.6403      2.00000
      5      -0.3772      2.00000
      6      -0.3639      2.00000
      7      -0.3503      2.00000
      8       0.4185      2.00000
      9       0.8924      2.00000
     10       0.9302      2.00000
     11       0.9602      2.00000
     12       1.0412      2.00000
     13       1.2293      2.00000
     14       1.3137      2.00000
     15       1.6257      2.00000
     16       1.6983      2.00000
     17       1.7602      2.00000
     18       1.8493      2.00000
     19       1.8882      2.00000
     20       2.1061      2.00000
     21       2.1091      2.00000
     22       2.8224      1.99992
     23       5.7034      0.00000
     24       7.6041      0.00000
     25      10.6686      0.00000
     26      11.4173      0.00000

 k-point   7 :       0.4286    0.1429    0.0000
  band No.  band energies     occupation 
      1      -3.2601      2.00000
      2      -1.9966      2.00000
      3      -0.3782      2.00000
      4      -0.3509      2.00000
      5      -0.1249      2.00000
      6      -0.0853      2.00000
      7      -0.0126      2.00000
      8       0.1597      2.00000
      9       0.3532      2.00000
     10       0.4612      2.00000
     11       0.8761      2.00000
     12       0.9016      2.00000
     13       1.1895      2.00000
     14       1.3343      2.00000
     15       1.4936      2.00000
     16       1.5156      2.00000
     17       1.5213      2.00000
     18       1.6267      2.00000
     19       1.7877      2.00000
     20       2.0433      2.00000
     21       2.1034      2.00000
     22       2.1042      2.00000
     23       7.1136      0.00000
     24       8.7636      0.00000
     25       9.2791      0.00000
     26      11.2769      0.00000

 k-point   8 :       0.2857    0.2857    0.0000
  band No.  band energies     occupation 
      1      -3.6890      2.00000
      2      -0.8000      2.00000
      3      -0.8000      2.00000
      4      -0.4321      2.00000
      5      -0.2481      2.00000
      6      -0.2134      2.00000
      7      -0.2134      2.00000
      8       0.3533      2.00000
      9       0.6337      2.00000
     10       0.6337      2.00000
     11       0.7775      2.00000
     12       0.8555      2.00000
     13       1.0111      2.00000
     14       1.2681      2.00000
     15       1.5553      2.00000
     16       1.6942      2.00000
     17       1.6942      2.00000
     18       1.7853      2.00000
     19       1.8468      2.00000
     20       1.8468      2.00000
     21       1.9565      2.00000
     22       3.7834      0.56595
     23       3.7834      0.56595
     24       8.3289      0.00000
     25       8.6910      0.00000
     26      11.7564      0.00000

 k-point   9 :       0.4286    0.2857    0.0000
  band No.  band energies     occupation 
      1      -2.6533      2.00000
      2      -1.5052      2.00000
      3      -0.3596      2.00000
      4      -0.2150      2.00000
      5      -0.1054      2.00000
      6      -0.0173      2.00000
      7       0.0559      2.00000
      8       0.1769      2.00000
      9       0.1917      2.00000
     10       0.4085      2.00000
     11       0.5652      2.00000
     12       0.7449      2.00000
     13       1.2195      2.00000
     14       1.2739      2.00000
     15       1.4054      2.00000
     16       1.4651      2.00000
     17       1.4827      2.00000
     18       1.5213      2.00000
     19       1.8504      2.00000
     20       1.8761      2.00000
     21       2.0958      2.00000
     22       2.6306      2.00000
     23       4.9350      0.00000
     24       6.4090      0.00000
     25      10.2444      0.00000
     26      12.2509      0.00000

 k-point  10 :       0.4286    0.4286    0.0000
  band No.  band energies     occupation 
      1      -1.7735      2.00000
      2      -0.8895      2.00000
      3      -0.8895      2.00000
      4      -0.4396      2.00000
      5       0.1381      2.00000
      6       0.1381      2.00000
      7       0.1730      2.00000
      8       0.1926      2.00000
      9       0.2969      2.00000
     10       0.3651      2.00000
     11       0.3651      2.00000
     12       0.6133      2.00000
     13       1.1725      2.00000
     14       1.2665      2.00000
     15       1.2883      2.00000
     16       1.2883      2.00000
     17       1.3335      2.00000
     18       1.5595      2.00000
     19       1.5595      2.00000
     20       1.6715      2.00000
     21       2.5963      2.00000
     22       3.4320      1.72098
     23       3.4320      1.72098
     24       4.6252      0.00001
     25      11.6867      0.00000
     26      13.4273      0.00000

 k-point  11 :       0.1429    0.1429    0.1429
  band No.  band energies     occupation 
      1      -4.8376      2.00000
      2      -0.9072      2.00000
      3      -0.9072      2.00000
      4      -0.9072      2.00000
      5      -0.4892      2.00000
      6      -0.4892      2.00000
      7      -0.4892      2.00000
      8       0.5599      2.00000
      9       0.8070      2.00000
     10       0.8070      2.00000
     11       1.4447      2.00000
     12       1.4447      2.00000
     13       1.4447      2.00000
     14       1.4818      2.00000
     15       1.4818      2.00000
     16       1.7915      2.00000
     17       1.7915      2.00000
     18       1.7915      2.00000
     19       2.1407      2.00000
     20       2.1407      2.00000
     21       2.1407      2.00000
     22       4.9861      0.00000
     23       4.9861      0.00000
     24       4.9861      0.00000
     25      12.8813      0.00000
     26      12.9935      0.00000

 k-point  12 :       0.2857    0.1429    0.1429
  band No.  band energies     occupation 
      1      -4.1395      2.00000
      2      -1.0637      2.00000
      3      -0.6297      2.00000
      4      -0.6297      2.00000
      5      -0.3209      2.00000
      6      -0.3135      2.00000
      7      -0.3135      2.00000
      8       0.4220      2.00000
      9       0.8824      2.00000
     10       0.9001      2.00000
     11       0.9078      2.00000
     12       0.9078      2.00000
     13       1.0413      2.00000
     14       1.3919      2.00000
     15       1.5608      2.00000
     16       1.6124      2.00000
     17       1.6269      2.00000
     18       1.6269      2.00000
     19       2.0835      2.00000
     20       2.0975      2.00000
     21       2.0975      2.00000
     22       3.1630      1.98126
     23       6.0108      0.00000
     24       6.0108      0.00000
     25      11.0720      0.00000
     26      11.0720      0.00000

 k-point  13 :       0.4286    0.1429    0.1429
  band No.  band energies     occupation 
      1      -3.0597      2.00000
      2      -1.8395      2.00000
      3      -0.3042      2.00000
      4      -0.3042      2.00000
      5      -0.1157      2.00000
      6      -0.1157      2.00000
      7      -0.0765      2.00000
      8       0.1898      2.00000
      9       0.4351      2.00000
     10       0.4351      2.00000
     11       0.7755      2.00000
     12       0.8468      2.00000
     13       1.0672      2.00000
     14       1.2990      2.00000
     15       1.4489      2.00000
     16       1.4489      2.00000
     17       1.5357      2.00000
     18       1.7848      2.00000
     19       1.9553      2.00000
     20       2.0633      2.00000
     21       2.0633      2.00000
     22       2.0699      2.00000
     23       7.2781      0.00000
     24       7.2781      0.00000
     25       9.1907      0.00000
     26       9.1907      0.00000

 k-point  14 :       0.2857    0.2857    0.1429
  band No.  band energies     occupation 
      1      -3.4850      2.00000
      2      -0.7694      2.00000
      3      -0.7694      2.00000
      4      -0.4835      2.00000
      5      -0.1765      2.00000
      6      -0.1471      2.00000
      7      -0.1471      2.00000
      8       0.3912      2.00000
      9       0.6450      2.00000
     10       0.6450      2.00000
     11       0.7353      2.00000
     12       0.8494      2.00000
     13       0.9116      2.00000
     14       1.4151      2.00000
     15       1.4239      2.00000
     16       1.4239      2.00000
     17       1.4259      2.00000
     18       1.7424      2.00000
     19       2.0330      2.00000
     20       2.0376      2.00000
     21       2.0376      2.00000
     22       3.9668      0.15026
     23       3.9668      0.15026
     24       6.7186      0.00000
     25       8.8307      0.00000
     26      11.9005      0.00000

 k-point  15 :       0.4286    0.2857    0.1429
  band No.  band energies     occupation 
      1      -2.4980      2.00000
      2      -1.4353      2.00000
      3      -0.4843      2.00000
      4      -0.3909      2.00000
      5      -0.0121      2.00000
      6       0.0426      2.00000
      7       0.0817      2.00000
      8       0.2734      2.00000
      9       0.4185      2.00000
     10       0.5351      2.00000
     11       0.5847      2.00000
     12       0.7454      2.00000
     13       0.9949      2.00000
     14       1.1803      2.00000
     15       1.2738      2.00000
     16       1.2978      2.00000
     17       1.5587      2.00000
     18       1.8586      2.00000
     19       1.9560      2.00000
     20       1.9565      2.00000
     21       2.0405      2.00000
     22       2.6336      2.00000
     23       5.0387      0.00000
     24       6.3520      0.00000
     25       8.5206      0.00000
     26       9.9641      0.00000

 k-point  16 :       0.4286    0.4286    0.1429
  band No.  band energies     occupation 
      1      -1.7182      2.00000
      2      -0.9812      2.00000
      3      -0.9812      2.00000
      4      -0.6413      2.00000
      5       0.2475      2.00000
      6       0.3280      2.00000
      7       0.3280      2.00000
      8       0.3666      2.00000
      9       0.4558      2.00000
     10       0.4558      2.00000
     11       0.5472      2.00000
     12       0.6396      2.00000
     13       0.9675      2.00000
     14       1.0915      2.00000
     15       1.0915      2.00000
     16       1.1075      2.00000
     17       1.5650      2.00000
     18       1.7622      2.00000
     19       1.7622      2.00000
     20       1.8152      2.00000
     21       2.5350      2.00000
     22       3.4246      1.73617
     23       3.4246      1.73617
     24       4.6297      0.00001
     25       9.6166      0.00000
     26      11.1867      0.00000

 k-point  17 :       0.2857    0.2857    0.2857
  band No.  band energies     occupation 
      1      -2.9088      2.00000
      2      -0.7388      2.00000
      3      -0.7388      2.00000
      4      -0.7388      2.00000
      5       0.0581      2.00000
      6       0.0581      2.00000
      7       0.0581      2.00000
      8       0.4910      2.00000
      9       0.6675      2.00000
     10       0.6675      2.00000
     11       0.6675      2.00000
     12       0.8248      2.00000
     13       0.8248      2.00000
     14       1.1728      2.00000
     15       1.1728      2.00000
     16       1.1728      2.00000
     17       1.6773      2.00000
     18       1.6773      2.00000
     19       2.0984      2.00000
     20       2.0984      2.00000
     21       2.0984      2.00000
     22       4.4785      0.00012
     23       4.4785      0.00012
     24       4.4785      0.00012
     25       9.5933      0.00000
     26       9.5933      0.00000

 k-point  18 :       0.4286    0.2857    0.2857
  band No.  band energies     occupation 
      1      -2.0920      2.00000
      2      -1.2889      2.00000
      3      -0.7370      2.00000
      4      -0.7370      2.00000
      5       0.2314      2.00000
      6       0.2314      2.00000
      7       0.3717      2.00000
      8       0.5528      2.00000
      9       0.6523      2.00000
     10       0.7327      2.00000
     11       0.7444      2.00000
     12       0.7444      2.00000
     13       0.8396      2.00000
     14       0.9628      2.00000
     15       1.0482      2.00000
     16       1.0482      2.00000
     17       1.8911      2.00000
     18       1.9048      2.00000
     19       2.0373      2.00000
     20       2.0373      2.00000
     21       2.0559      2.00000
     22       2.8002      1.99995
     23       5.1096      0.00000
     24       5.1096      0.00000
     25       8.0355      0.00000
     26       8.0355      0.00000

 k-point  19 :       0.4286    0.4286    0.2857
  band No.  band energies     occupation 
      1      -1.5941      2.00000
      2      -1.1378      2.00000
      3      -1.1378      2.00000
      4      -0.9635      2.00000
      5       0.4318      2.00000
      6       0.5091      2.00000
      7       0.5091      2.00000
      8       0.6856      2.00000
      9       0.7747      2.00000
     10       0.8458      2.00000
     11       0.8458      2.00000
     12       0.8801      2.00000
     13       0.9468      2.00000
     14       0.9568      2.00000
     15       0.9568      2.00000
     16       1.0124      2.00000
     17       1.8302      2.00000
     18       1.9906      2.00000
     19       1.9906      2.00000
     20       1.9956      2.00000
     21       2.3419      2.00000
     22       3.3890      1.80127
     23       3.3890      1.80127
     24       4.3775      0.00074
     25       7.8295      0.00000
     26       8.9706      0.00000

 k-point  20 :       0.4286    0.4286    0.4286
  band No.  band energies     occupation 
      1      -1.4409      2.00000
      2      -1.2379      2.00000
      3      -1.2379      2.00000
      4      -1.2379      2.00000
      5       0.6036      2.00000
      6       0.6036      2.00000
      7       0.6036      2.00000
      8       0.6889      2.00000
      9       0.6889      2.00000
     10       0.7268      2.00000
     11       0.7268      2.00000
     12       0.7268      2.00000
     13       1.5300      2.00000
     14       1.5300      2.00000
     15       1.5300      2.00000
     16       1.9652      2.00000
     17       2.0130      2.00000
     18       2.0130      2.00000
     19       2.0718      2.00000
     20       2.0718      2.00000
     21       2.0718      2.00000
     22       3.3146      1.89810
     23       3.3146      1.89810
     24       3.3146      1.89810
     25       7.6447      0.00000
     26       7.6448      0.00000


--------------------------------------------------------------------------------------------------------


 soft charge-density along one line, spin component           1
         0         1         2         3         4         5         6         7         8         9
 total charge-density along one line
 
 pseudopotential strength for first ion, spin component:           1
 -6.466   0.000   0.000   0.000   0.000  -0.244   0.000   0.000
  0.000  -6.466   0.000   0.000   0.000   0.000  -0.244   0.000
  0.000   0.000  -6.448   0.000   0.000   0.000   0.000  -0.252
  0.000   0.000   0.000  -6.466   0.000   0.000   0.000   0.000
  0.000   0.000   0.000   0.000  -6.448   0.000   0.000   0.000
 -0.244   0.000   0.000   0.000   0.000   1.677   0.000   0.000
  0.000  -0.244   0.000   0.000   0.000   0.000   1.677   0.000
  0.000   0.000  -0.252   0.000   0.000   0.000   0.000   1.681
  0.000   0.000   0.000  -0.244   0.000   0.000   0.000   0.000
  0.000   0.000   0.000   0.000  -0.252   0.000   0.000   0.000
  0.000   0.000   0.000   0.000   0.000   0.000   0.000   0.000
  0.000   0.000   0.000   0.000   0.000   0.000   0.000   0.000
  0.000   0.000   0.000   0.000   0.000   0.000   0.000   0.000
  0.000   0.000   0.000   0.000   0.000   0.000   0.000   0.000
  0.000   0.000   0.000   0.000   0.000   0.000   0.000   0.000
  0.000   0.000   0.000   0.000   0.000   0.000   0.000   0.000
  0.000   0.000   0.000   0.000   0.000   0.000   0.000   0.000
  0.000   0.000   0.000   0.000   0.000   0.000   0.000   0.000
 total augmentation occupancy for first ion, spin component:           1
  1.907   0.000   0.000   0.000   0.000  -0.016   0.000   0.000   0.000   0.000   0.000   0.000   0.000   0.000   0.000   0.000
  0.000   1.907   0.000   0.000   0.000   0.000  -0.016   0.000   0.000   0.000   0.000   0.000   0.000   0.000   0.000   0.000
  0.000   0.000   1.915   0.000   0.000   0.000   0.000  -0.057   0.000   0.000   0.000   0.000   0.000   0.000   0.000   0.000
  0.000   0.000   0.000   1.907   0.000   0.000   0.000   0.000  -0.016   0.000   0.000   0.000   0.000   0.000   0.000   0.000
  0.000   0.000   0.000   0.000   1.915   0.000   0.000   0.000   0.000  -0.057   0.000   0.000   0.000   0.000   0.000   0.000
 -0.016   0.000   0.000   0.000   0.000   0.080   0.000   0.000   0.000   0.000   0.000   0.000   0.000   0.000   0.000   0.000
  0.000  -0.016   0.000   0.000   0.000   0.000   0.080   0.000   0.000   0.000   0.000   0.000   0.000   0.000   0.000   0.000
  0.000   0.000  -0.057   0.000   0.000   0.000   0.000   0.075   0.000   0.000   0.000   0.000   0.000   0.000   0.000   0.000
  0.000   0.000   0.000  -0.016   0.000   0.000   0.000   0.000   0.080   0.000   0.000   0.000   0.000   0.000   0.000   0.000
  0.000   0.000   0.000   0.000  -0.057   0.000   0.000   0.000   0.000   0.075   0.000   0.000   0.000   0.000   0.000   0.000
  0.000   0.000   0.000   0.000   0.000   0.000   0.000   0.000   0.000   0.000   1.206  -0.357   0.000   0.000   0.000   0.000
  0.000   0.000   0.000   0.000   0.000   0.000   0.000   0.000   0.000   0.000  -0.357   0.153   0.000   0.000   0.000   0.000
  0.000   0.000   0.000   0.000   0.000   0.000   0.000   0.000   0.000   0.000   0.000   0.000   0.191   0.000   0.000  -0.013
  0.000   0.000   0.000   0.000   0.000   0.000   0.000   0.000   0.000   0.000   0.000   0.000   0.000   0.191   0.000   0.000
  0.000   0.000   0.000   0.000   0.000   0.000   0.000   0.000   0.000   0.000   0.000   0.000   0.000   0.000   0.191   0.000
  0.000   0.000   0.000   0.000   0.000   0.000   0.000   0.000   0.000   0.000   0.000   0.000  -0.013   0.000   0.000   0.001
  0.000   0.000   0.000   0.000   0.000   0.000   0.000   0.000   0.000   0.000   0.000   0.000   0.000  -0.013   0.000   0.000
  0.000   0.000   0.000   0.000   0.000   0.000   0.000   0.000   0.000   0.000   0.000   0.000   0.000   0.000  -0.013   0.000


------------------------ aborting loop because EDIFF is reached ----------------------------------------


    CHARGE:  cpu time    0.10: real time    0.10
    FORLOC:  cpu time    0.00: real time    0.00
    FORNL :  cpu time    0.90: real time    0.90
    STRESS:  cpu time    0.75: real time    0.75
    FORCOR:  cpu time    0.06: real time    0.06
    FORHAR:  cpu time    0.02: real time    0.02
    MIXING:  cpu time    0.00: real time    0.00

  FORCE on cell =-STRESS in cart. coord.  units (eV):
  Direction    XX          YY          ZZ          XY          YZ          ZX
  --------------------------------------------------------------------------------------
  Alpha Z   429.14232   429.14232   429.14232
  Ewald   -1469.16071 -1469.16071 -1469.16071     0.00000     0.00000     0.00000
  Hartree   407.63248   407.63248   407.63248     0.00000     0.00000     0.00000
  E(xc)    -250.62202  -250.62202  -250.62202     0.00000     0.00000     0.00000
  Local     488.75632   488.75632   488.75632     0.00000     0.00000     0.00000
  n-local  -142.24063  -147.44862  -148.97800     0.18565     1.58082     0.76368
  augment   226.13981   226.13981   226.13981     0.00005     0.00005     0.00007
  Kinetic   321.44889   314.06146   307.94847    -3.71973    -0.26889    -1.17113
  Fock        0.00000     0.00000     0.00000     0.00000     0.00000     0.00000
  -------------------------------------------------------------------------------------
  Total       0.15205     0.15205     0.15205     0.00000     0.00000     0.00000
  in kB       5.11433     5.11433     5.11433     0.00000     0.00000     0.00000
  external pressure =        5.11 kB  Pullay stress =        0.00 kB


 VOLUME and BASIS-vectors are now :
 -----------------------------------------------------------------------------
  energy-cutoff  :      415.00
  volume of cell :       47.63
      direct lattice vectors                 reciprocal lattice vectors
     3.624994492  0.000000000  0.000000000     0.275862488  0.000000000  0.000000000
     0.000000000  3.624994492  0.000000000     0.000000000  0.275862488  0.000000000
     0.000000000  0.000000000  3.624994492     0.000000000  0.000000000  0.275862488

  length of vectors
     3.624994492  3.624994492  3.624994492     0.275862488  0.275862488  0.275862488


 FORCES acting on ions
    electron-ion (+dipol)            ewald-force                    non-local-force                 convergence-correction
 -----------------------------------------------------------------------------------------------
   -.653E-13 -.221E-13 -.833E-13   -.191E-13 0.161E-14 -.761E-14   0.000E+00 0.165E-23 -.165E-23   -.120E-12 0.571E-13 -.816E-13
   0.541E-12 0.590E-12 0.629E-12   0.158E-14 0.992E-14 -.763E-14   -.212E-23 0.331E-23 0.165E-23   0.111E-12 0.503E-13 -.101E-12
   0.547E-12 -.150E-13 -.583E-12   0.105E-13 -.892E-14 0.839E-14   -.145E-23 -.662E-23 0.165E-23   0.113E-12 0.530E-13 -.647E-13
   -.647E-13 0.590E-12 0.550E-12   0.878E-14 -.611E-15 0.837E-14   -.165E-23 -.496E-23 -.165E-23   -.120E-12 0.496E-13 -.377E-13
 -----------------------------------------------------------------------------------------------
   0.958E-12 0.114E-11 0.512E-12   0.180E-14 0.199E-14 0.153E-14   -.522E-23 -.662E-23 0.000E+00   -.158E-13 0.210E-12 -.285E-12
 
 
 POSITION                                       TOTAL-FORCE (eV/Angst)
 -----------------------------------------------------------------------------------
      0.00000      0.00000      0.00000         0.000000      0.000000      0.000000
      1.81250      1.81250      0.00000         0.000000      0.000000      0.000000
      1.81250      0.00000      1.81250         0.000000      0.000000      0.000000
      0.00000      1.81250      1.81250         0.000000      0.000000      0.000000
 -----------------------------------------------------------------------------------
    total drift:                                0.000000      0.000000      0.000000


--------------------------------------------------------------------------------------------------------



  FREE ENERGIE OF THE ION-ELECTRON SYSTEM (eV)
  ---------------------------------------------------
  free  energy   TOTEN  =       -14.902716 eV

  energy  without entropy=      -14.849571  energy(sigma->0) =      -14.876143
 
 d Force = 0.0000000E+00[ 0.000E+00, 0.000E+00]  d Energy = 0.2149377E-02-0.215E-02
 d Force = 0.0000000E+00[ 0.000E+00, 0.000E+00]  d Ewald  =-0.9380171E+01 0.938E+01


--------------------------------------------------------------------------------------------------------


    POTLOK:  cpu time    0.08: real time    0.08


--------------------------------------------------------------------------------------------------------




--------------------------------------------------------------------------------------------------------


    WAVPRE:  cpu time    0.01: real time    0.01
    FEWALD:  cpu time    0.00: real time    0.00
    GENKIN:  cpu time    0.01: real time    0.01
    ORTHCH:  cpu time    0.11: real time    0.11
     LOOP+:  cpu time   10.03: real time   10.03


----------------------------------------- Iteration    4(   1)  ---------------------------------------


    POTLOK:  cpu time    0.06: real time    0.06
    SETDIJ:  cpu time    0.02: real time    0.02
    EDDIAG:  cpu time    0.28: real time    0.28
  RMM-DIIS:  cpu time    1.13: real time    1.13
    ORTHCH:  cpu time    0.06: real time    0.07
       DOS:  cpu time    0.00: real time    0.00
    CHARGE:  cpu time    0.10: real time    0.10
    MIXING:  cpu time    0.00: real time    0.00
    --------------------------------------------
      LOOP:  cpu time    1.66: real time    1.66

 eigenvalue-minimisations  :  1040
 total energy-change (2. order) :-0.8375593E-02  (-0.8827207E-02)
 number of electron      44.0000151 magnetization 
 augmentation part       28.8487474 magnetization 

 Broyden mixing:
  rms(total) = 0.67882E-01    rms(broyden)= 0.67876E-01
  rms(prec ) = 0.14756E+00
  weight for this iteration     100.00

 Free energy of the ion-electron system (eV)
  ---------------------------------------------------
  alpha Z        PSCENC =       427.83488327
  Ewald energy   TEWEN  =     -4402.99965666
  -1/2 Hartree   DENC   =     -1221.70982610
  -exchange  EXHF       =         0.00000000
  -V(xc)+E(xc)   XCENC  =       170.94556811
  PAW double counting   =      4387.56732545    -4966.55685497
  entropy T*S    EENTRO =        -0.05255148
  eigenvalues    EBANDS =        26.17435208
  atomic energy  EATOM  =      5563.88566948
  ---------------------------------------------------
  free energy    TOTEN  =       -14.91109084 eV

  energy without entropy =      -14.85853936  energy(sigma->0) =      -14.88481510


--------------------------------------------------------------------------------------------------------




----------------------------------------- Iteration    4(   2)  ---------------------------------------


    POTLOK:  cpu time    0.06: real time    0.06
    SETDIJ:  cpu time    0.02: real time    0.02
    EDDIAG:  cpu time    0.28: real time    0.28
  RMM-DIIS:  cpu time    1.14: real time    1.14
    ORTHCH:  cpu time    0.07: real time    0.07
       DOS:  cpu time    0.00: real time    0.00
    CHARGE:  cpu time    0.10: real time    0.10
    MIXING:  cpu time    0.00: real time    0.00
    --------------------------------------------
      LOOP:  cpu time    1.68: real time    1.68

 eigenvalue-minimisations  :  1040
 total energy-change (2. order) : 0.5487727E-02  (-0.5916402E-02)
 number of electron      44.0000151 magnetization 
 augmentation part       28.7191247 magnetization 

 Broyden mixing:
  rms(total) = 0.23328E-01    rms(broyden)= 0.23327E-01
  rms(prec ) = 0.56090E-01
  weight for this iteration     100.00

 eigenvalues of (default mixing * dielectric matrix)
  average eigenvalue GAMMA=   0.7661
  0.7661

 Free energy of the ion-electron system (eV)
  ---------------------------------------------------
  alpha Z        PSCENC =       427.83488327
  Ewald energy   TEWEN  =     -4402.99965666
  -1/2 Hartree   DENC   =     -1225.87968328
  -exchange  EXHF       =         0.00000000
  -V(xc)+E(xc)   XCENC  =       171.16152245
  PAW double counting   =      4391.90503240    -4972.31602578
  entropy T*S    EENTRO =        -0.05366720
  eigenvalues    EBANDS =        31.55632220
  atomic energy  EATOM  =      5563.88566948
  ---------------------------------------------------
  free energy    TOTEN  =       -14.90560311 eV

  energy without entropy =      -14.85193592  energy(sigma->0) =      -14.87876952


--------------------------------------------------------------------------------------------------------




----------------------------------------- Iteration    4(   3)  ---------------------------------------


    POTLOK:  cpu time    0.06: real time    0.06
    SETDIJ:  cpu time    0.02: real time    0.02
    EDDIAG:  cpu time    0.28: real time    0.28
  RMM-DIIS:  cpu time    1.13: real time    1.13
    ORTHCH:  cpu time    0.06: real time    0.07
       DOS:  cpu time    0.00: real time    0.00
    CHARGE:  cpu time    0.10: real time    0.10
    MIXING:  cpu time    0.00: real time    0.00
    --------------------------------------------
      LOOP:  cpu time    1.67: real time    1.67

 eigenvalue-minimisations  :  1040
 total energy-change (2. order) : 0.2203476E-02  (-0.9690464E-03)
 number of electron      44.0000151 magnetization 
 augmentation part       28.7707610 magnetization 

 Broyden mixing:
  rms(total) = 0.11477E-01    rms(broyden)= 0.11476E-01
  rms(prec ) = 0.21137E-01
  weight for this iteration     100.00

 eigenvalues of (default mixing * dielectric matrix)
  average eigenvalue GAMMA=   1.5977
  0.6467  2.5487

 Free energy of the ion-electron system (eV)
  ---------------------------------------------------
  alpha Z        PSCENC =       427.83488327
  Ewald energy   TEWEN  =     -4402.99965666
  -1/2 Hartree   DENC   =     -1224.70087965
  -exchange  EXHF       =         0.00000000
  -V(xc)+E(xc)   XCENC  =       171.10109637
  PAW double counting   =      4388.29778752    -4967.66957519
  entropy T*S    EENTRO =        -0.05323392
  eigenvalues    EBANDS =        29.40050913
  atomic energy  EATOM  =      5563.88566948
  ---------------------------------------------------
  free energy    TOTEN  =       -14.90339964 eV

  energy without entropy =      -14.85016572  energy(sigma->0) =      -14.87678268


--------------------------------------------------------------------------------------------------------




----------------------------------------- Iteration    4(   4)  ---------------------------------------


    POTLOK:  cpu time    0.06: real time    0.06
    SETDIJ:  cpu time    0.02: real time    0.02
    EDDIAG:  cpu time    0.28: real time    0.28
  RMM-DIIS:  cpu time    1.13: real time    1.13
    ORTHCH:  cpu time    0.07: real time    0.07
       DOS:  cpu time    0.00: real time    0.00
    CHARGE:  cpu time    0.10: real time    0.10
    MIXING:  cpu time    0.00: real time    0.00
    --------------------------------------------
      LOOP:  cpu time    1.67: real time    1.67

 eigenvalue-minimisations  :  1040
 total energy-change (2. order) : 0.2796905E-03  (-0.7568443E-05)
 number of electron      44.0000151 magnetization 
 augmentation part       28.7630579 magnetization 

 Broyden mixing:
  rms(total) = 0.68971E-03    rms(broyden)= 0.68951E-03
  rms(prec ) = 0.15032E-02
  weight for this iteration     100.00

 eigenvalues of (default mixing * dielectric matrix)
  average eigenvalue GAMMA=   1.5986
  2.4441  0.6457  1.7061

 Free energy of the ion-electron system (eV)
  ---------------------------------------------------
  alpha Z        PSCENC =       427.83488327
  Ewald energy   TEWEN  =     -4402.99965666
  -1/2 Hartree   DENC   =     -1225.50738338
  -exchange  EXHF       =         0.00000000
  -V(xc)+E(xc)   XCENC  =       171.14454335
  PAW double counting   =      4385.98681431    -4964.86971282
  entropy T*S    EENTRO =        -0.05336948
  eigenvalues    EBANDS =        29.67509199
  atomic energy  EATOM  =      5563.88566948
  ---------------------------------------------------
  free energy    TOTEN  =       -14.90311995 eV

  energy without entropy =      -14.84975047  energy(sigma->0) =      -14.87643521


--------------------------------------------------------------------------------------------------------




----------------------------------------- Iteration    4(   5)  ---------------------------------------


    POTLOK:  cpu time    0.06: real time    0.06
    SETDIJ:  cpu time    0.02: real time    0.02
    EDDIAG:  cpu time    0.28: real time    0.28
  RMM-DIIS:  cpu time    0.67: real time    0.67
    ORTHCH:  cpu time    0.06: real time    0.07
       DOS:  cpu time    0.00: real time    0.00
    --------------------------------------------
      LOOP:  cpu time    1.10: real time    1.10

 eigenvalue-minimisations  :   582
 total energy-change (2. order) :-0.7751933E-06  (-0.9668197E-07)
 number of electron      44.0000151 magnetization 
 augmentation part       28.7630579 magnetization 

 Free energy of the ion-electron system (eV)
  ---------------------------------------------------
  alpha Z        PSCENC =       427.83488327
  Ewald energy   TEWEN  =     -4402.99965666
  -1/2 Hartree   DENC   =     -1225.47189598
  -exchange  EXHF       =         0.00000000
  -V(xc)+E(xc)   XCENC  =       171.14281679
  PAW double counting   =      4385.92264218    -4964.83160192
  entropy T*S    EENTRO =        -0.05336727
  eigenvalues    EBANDS =        29.66738939
  atomic energy  EATOM  =      5563.88566948
  ---------------------------------------------------
  free energy    TOTEN  =       -14.90312072 eV

  energy without entropy =      -14.84975345  energy(sigma->0) =      -14.87643709


--------------------------------------------------------------------------------------------------------




 average (electrostatic) potential at core
  the test charge radii are     1.0053
  (the norm of the test charge is              1.0000)
       1 -40.0028       2 -40.0028       3 -40.0028       4 -40.0028
 
 
 
 E-fermi :   3.6350     XC(G=0): -12.7351     alpha+bet : -9.5222


 k-point   1 :       0.0000    0.0000    0.0000
  band No.  band energies     occupation 
      1      -5.5684      2.00000
      2      -1.1343      2.00000
      3      -1.1343      2.00000
      4      -1.1343      2.00000
      5      -0.6898      2.00000
      6      -0.6898      2.00000
      7      -0.6898      2.00000
      8       0.6763      2.00000
      9       0.6763      2.00000
     10       0.6763      2.00000
     11       1.4902      2.00000
     12       1.4902      2.00000
     13       2.0310      2.00000
     14       2.0310      2.00000
     15       2.0310      2.00000
     16       2.1819      2.00000
     17       2.1819      2.00000
     18       2.1819      2.00000
     19       2.1819      2.00000
     20       2.1819      2.00000
     21       2.1819      2.00000
     22       5.2141      0.00000
     23       5.2141      0.00000
     24       5.2141      0.00000
     25      10.7334      0.00000
     26      10.7334      0.00000

 k-point   2 :       0.1429    0.0000    0.0000
  band No.  band energies     occupation 
      1      -5.3229      2.00000
      2      -1.1444      2.00000
      3      -1.0226      2.00000
      4      -1.0226      2.00000
      5      -0.6255      2.00000
      6      -0.6209      2.00000
      7      -0.6209      2.00000
      8       0.6055      2.00000
      9       0.7346      2.00000
     10       0.7346      2.00000
     11       1.4265      2.00000
     12       1.5165      2.00000
     13       1.8047      2.00000
     14       1.8047      2.00000
     15       1.9476      2.00000
     16       1.9476      2.00000
     17       2.0037      2.00000
     18       2.0843      2.00000
     19       2.0843      2.00000
     20       2.1820      2.00000
     21       2.1820      2.00000
     22       3.9337      0.15907
     23       5.8116      0.00000
     24       5.8116      0.00000
     25      10.8271      0.00000
     26      10.8271      0.00000

 k-point   3 :       0.2857    0.0000    0.0000
  band No.  band energies     occupation 
      1      -4.6034      2.00000
      2      -1.3399      2.00000
      3      -0.7373      2.00000
      4      -0.7373      2.00000
      5      -0.4432      2.00000
      6      -0.4109      2.00000
      7      -0.4109      2.00000
      8       0.4083      2.00000
      9       0.9035      2.00000
     10       0.9035      2.00000
     11       1.1087      2.00000
     12       1.1087      2.00000
     13       1.2580      2.00000
     14       1.5908      2.00000
     15       1.7260      2.00000
     16       1.7260      2.00000
     17       1.8283      2.00000
     18       1.8283      2.00000
     19       1.9276      2.00000
     20       2.0739      2.00000
     21       2.1823      2.00000
     22       2.1823      2.00000
     23       7.1646      0.00000
     24       7.1646      0.00000
     25      11.1327      0.00000
     26      11.1327      0.00000

 k-point   4 :       0.4286    0.0000    0.0000
  band No.  band energies     occupation 
      1      -3.4800      2.00000
      2      -2.1864      2.00000
      3      -0.4538      2.00000
      4      -0.4538      2.00000
      5      -0.1753      2.00000
      6      -0.0522      2.00000
      7      -0.0522      2.00000
      8       0.1282      2.00000
      9       0.4594      2.00000
     10       0.4594      2.00000
     11       1.0750      2.00000
     12       1.1401      2.00000
     13       1.1680      2.00000
     14       1.1680      2.00000
     15       1.4929      2.00000
     16       1.4929      2.00000
     17       1.4956      2.00000
     18       1.4956      2.00000
     19       1.6980      2.00000
     20       1.8184      2.00000
     21       2.1826      2.00000
     22       2.1826      2.00000
     23       8.8963      0.00000
     24       8.8963      0.00000
     25      10.8944      0.00000
     26      10.8983      0.00000

 k-point   5 :       0.1429    0.1429    0.0000
  band No.  band energies     occupation 
      1      -5.0805      2.00000
      2      -1.0246      2.00000
      3      -1.0246      2.00000
      4      -0.9188      2.00000
      5      -0.5603      2.00000
      6      -0.5603      2.00000
      7      -0.5590      2.00000
      8       0.5704      2.00000
      9       0.7611      2.00000
     10       0.7741      2.00000
     11       1.4121      2.00000
     12       1.5114      2.00000
     13       1.5787      2.00000
     14       1.6300      2.00000
     15       1.6300      2.00000
     16       1.8741      2.00000
     17       1.9549      2.00000
     18       1.9549      2.00000
     19       2.0838      2.00000
     20       2.0838      2.00000
     21       2.1183      2.00000
     22       4.5134      0.00003
     23       4.5134      0.00003
     24       6.3227      0.00000
     25      10.9190      0.00000
     26      12.6702      0.00000

 k-point   6 :       0.2857    0.1429    0.0000
  band No.  band energies     occupation 
      1      -4.3712      2.00000
      2      -1.1943      2.00000
      3      -0.7147      2.00000
      4      -0.6507      2.00000
      5      -0.3891      2.00000
      6      -0.3758      2.00000
      7      -0.3623      2.00000
      8       0.4028      2.00000
      9       0.8744      2.00000
     10       0.9120      2.00000
     11       0.9423      2.00000
     12       1.0231      2.00000
     13       1.2101      2.00000
     14       1.2937      2.00000
     15       1.6042      2.00000
     16       1.6766      2.00000
     17       1.7382      2.00000
     18       1.8268      2.00000
     19       1.8656      2.00000
     20       2.0823      2.00000
     21       2.0853      2.00000
     22       2.7977      1.99992
     23       5.6731      0.00000
     24       7.5720      0.00000
     25      10.6297      0.00000
     26      11.3677      0.00000

 k-point   7 :       0.4286    0.1429    0.0000
  band No.  band energies     occupation 
      1      -3.2675      2.00000
      2      -2.0057      2.00000
      3      -0.3896      2.00000
      4      -0.3624      2.00000
      5      -0.1380      2.00000
      6      -0.0985      2.00000
      7      -0.0261      2.00000
      8       0.1453      2.00000
      9       0.3380      2.00000
     10       0.4457      2.00000
     11       0.8583      2.00000
     12       0.8837      2.00000
     13       1.1701      2.00000
     14       1.3142      2.00000
     15       1.4728      2.00000
     16       1.4947      2.00000
     17       1.5004      2.00000
     18       1.6054      2.00000
     19       1.7654      2.00000
     20       2.0200      2.00000
     21       2.0796      2.00000
     22       2.0804      2.00000
     23       7.0798      0.00000
     24       8.7267      0.00000
     25       9.2428      0.00000
     26      11.2200      0.00000

 k-point   8 :       0.2857    0.2857    0.0000
  band No.  band energies     occupation 
      1      -3.6958      2.00000
      2      -0.8106      2.00000
      3      -0.8106      2.00000
      4      -0.4437      2.00000
      5      -0.2603      2.00000
      6      -0.2260      2.00000
      7      -0.2260      2.00000
      8       0.3380      2.00000
      9       0.6172      2.00000
     10       0.6172      2.00000
     11       0.7606      2.00000
     12       0.8378      2.00000
     13       0.9925      2.00000
     14       1.2483      2.00000
     15       1.5343      2.00000
     16       1.6726      2.00000
     17       1.6726      2.00000
     18       1.7630      2.00000
     19       1.8243      2.00000
     20       1.8243      2.00000
     21       1.9335      2.00000
     22       3.7557      0.56935
     23       3.7557      0.56935
     24       8.2928      0.00000
     25       8.6560      0.00000
     26      11.7078      0.00000

 k-point   9 :       0.4286    0.2857    0.0000
  band No.  band energies     occupation 
      1      -2.6618      2.00000
      2      -1.5153      2.00000
      3      -0.3715      2.00000
      4      -0.2279      2.00000
      5      -0.1179      2.00000
      6      -0.0309      2.00000
      7       0.0421      2.00000
      8       0.1624      2.00000
      9       0.1772      2.00000
     10       0.3932      2.00000
     11       0.5489      2.00000
     12       0.7277      2.00000
     13       1.1999      2.00000
     14       1.2542      2.00000
     15       1.3850      2.00000
     16       1.4446      2.00000
     17       1.4621      2.00000
     18       1.5003      2.00000
     19       1.8278      2.00000
     20       1.8534      2.00000
     21       2.0722      2.00000
     22       2.6051      2.00000
     23       4.9046      0.00000
     24       6.3759      0.00000
     25      10.2056      0.00000
     26      12.1932      0.00000

 k-point  10 :       0.4286    0.4286    0.0000
  band No.  band energies     occupation 
      1      -1.7835      2.00000
      2      -0.9008      2.00000
      3      -0.9008      2.00000
      4      -0.4518      2.00000
      5       0.1239      2.00000
      6       0.1239      2.00000
      7       0.1591      2.00000
      8       0.1781      2.00000
      9       0.2820      2.00000
     10       0.3500      2.00000
     11       0.3500      2.00000
     12       0.5970      2.00000
     13       1.1532      2.00000
     14       1.2468      2.00000
     15       1.2686      2.00000
     16       1.2686      2.00000
     17       1.3134      2.00000
     18       1.5383      2.00000
     19       1.5383      2.00000
     20       1.6498      2.00000
     21       2.5708      2.00000
     22       3.4043      1.72316
     23       3.4043      1.72316
     24       4.5952      0.00001
     25      11.6447      0.00000
     26      13.3746      0.00000

 k-point  11 :       0.1429    0.1429    0.1429
  band No.  band energies     occupation 
      1      -4.8420      2.00000
      2      -0.9167      2.00000
      3      -0.9167      2.00000
      4      -0.9167      2.00000
      5      -0.5005      2.00000
      6      -0.5005      2.00000
      7      -0.5005      2.00000
      8       0.5435      2.00000
      9       0.7894      2.00000
     10       0.7894      2.00000
     11       1.4247      2.00000
     12       1.4247      2.00000
     13       1.4247      2.00000
     14       1.4610      2.00000
     15       1.4610      2.00000
     16       1.7693      2.00000
     17       1.7693      2.00000
     18       1.7693      2.00000
     19       2.1167      2.00000
     20       2.1167      2.00000
     21       2.1167      2.00000
     22       4.9581      0.00000
     23       4.9581      0.00000
     24       4.9581      0.00000
     25      12.8220      0.00000
     26      12.9159      0.00000

 k-point  12 :       0.2857    0.1429    0.1429
  band No.  band energies     occupation 
      1      -4.1453      2.00000
      2      -1.0735      2.00000
      3      -0.6403      2.00000
      4      -0.6403      2.00000
      5      -0.3330      2.00000
      6      -0.3255      2.00000
      7      -0.3255      2.00000
      8       0.4063      2.00000
      9       0.8645      2.00000
     10       0.8821      2.00000
     11       0.8902      2.00000
     12       0.8902      2.00000
     13       1.0230      2.00000
     14       1.3715      2.00000
     15       1.5397      2.00000
     16       1.5909      2.00000
     17       1.6055      2.00000
     18       1.6055      2.00000
     19       2.0598      2.00000
     20       2.0738      2.00000
     21       2.0738      2.00000
     22       3.1373      1.98103
     23       5.9798      0.00000
     24       5.9798      0.00000
     25      11.0302      0.00000
     26      11.0302      0.00000

 k-point  13 :       0.4286    0.1429    0.1429
  band No.  band energies     occupation 
      1      -3.0675      2.00000
      2      -1.8489      2.00000
      3      -0.3161      2.00000
      4      -0.3161      2.00000
      5      -0.1287      2.00000
      6      -0.1287      2.00000
      7      -0.0897      2.00000
      8       0.1752      2.00000
      9       0.4196      2.00000
     10       0.4196      2.00000
     11       0.7582      2.00000
     12       0.8291      2.00000
     13       1.0484      2.00000
     14       1.2791      2.00000
     15       1.4284      2.00000
     16       1.4284      2.00000
     17       1.5148      2.00000
     18       1.7625      2.00000
     19       1.9322      2.00000
     20       2.0397      2.00000
     21       2.0397      2.00000
     22       2.0469      2.00000
     23       7.2449      0.00000
     24       7.2449      0.00000
     25       9.1509      0.00000
     26       9.1509      0.00000

 k-point  14 :       0.2857    0.2857    0.1429
  band No.  band energies     occupation 
      1      -3.4920      2.00000
      2      -0.7802      2.00000
      3      -0.7802      2.00000
      4      -0.4951      2.00000
      5      -0.1888      2.00000
      6      -0.1599      2.00000
      7      -0.1599      2.00000
      8       0.3758      2.00000
      9       0.6284      2.00000
     10       0.6284      2.00000
     11       0.7186      2.00000
     12       0.8317      2.00000
     13       0.8935      2.00000
     14       1.3947      2.00000
     15       1.4035      2.00000
     16       1.4035      2.00000
     17       1.4054      2.00000
     18       1.7203      2.00000
     19       2.0096      2.00000
     20       2.0142      2.00000
     21       2.0142      2.00000
     22       3.9389      0.15192
     23       3.9389      0.15192
     24       6.6869      0.00000
     25       8.7911      0.00000
     26      11.8563      0.00000

 k-point  15 :       0.4286    0.2857    0.1429
  band No.  band energies     occupation 
      1      -2.5067      2.00000
      2      -1.4454      2.00000
      3      -0.4962      2.00000
      4      -0.4031      2.00000
      5      -0.0250      2.00000
      6       0.0293      2.00000
      7       0.0679      2.00000
      8       0.2586      2.00000
      9       0.4030      2.00000
     10       0.5193      2.00000
     11       0.5683      2.00000
     12       0.7283      2.00000
     13       0.9764      2.00000
     14       1.1610      2.00000
     15       1.2541      2.00000
     16       1.2780      2.00000
     17       1.5376      2.00000
     18       1.8361      2.00000
     19       1.9329      2.00000
     20       1.9335      2.00000
     21       2.0171      2.00000
     22       2.6085      2.00000
     23       5.0088      0.00000
     24       6.3209      0.00000
     25       8.4807      0.00000
     26       9.9228      0.00000

 k-point  16 :       0.4286    0.4286    0.1429
  band No.  band energies     occupation 
      1      -1.7280      2.00000
      2      -0.9921      2.00000
      3      -0.9921      2.00000
      4      -0.6529      2.00000
      5       0.2332      2.00000
      6       0.3134      2.00000
      7       0.3134      2.00000
      8       0.3515      2.00000
      9       0.4400      2.00000
     10       0.4400      2.00000
     11       0.5314      2.00000
     12       0.6230      2.00000
     13       0.9492      2.00000
     14       1.0727      2.00000
     15       1.0727      2.00000
     16       1.0886      2.00000
     17       1.5439      2.00000
     18       1.7401      2.00000
     19       1.7401      2.00000
     20       1.7928      2.00000
     21       2.5099      2.00000
     22       3.3974      1.73721
     23       3.3974      1.73721
     24       4.6005      0.00001
     25       9.5753      0.00000
     26      11.1429      0.00000

 k-point  17 :       0.2857    0.2857    0.2857
  band No.  band energies     occupation 
      1      -2.9168      2.00000
      2      -0.7498      2.00000
      3      -0.7498      2.00000
      4      -0.7498      2.00000
      5       0.0448      2.00000
      6       0.0448      2.00000
      7       0.0448      2.00000
      8       0.4754      2.00000
      9       0.6509      2.00000
     10       0.6509      2.00000
     11       0.6509      2.00000
     12       0.8071      2.00000
     13       0.8071      2.00000
     14       1.1535      2.00000
     15       1.1535      2.00000
     16       1.1535      2.00000
     17       1.6556      2.00000
     18       1.6556      2.00000
     19       2.0746      2.00000
     20       2.0746      2.00000
     21       2.0746      2.00000
     22       4.4503      0.00012
     23       4.4503      0.00012
     24       4.4503      0.00012
     25       9.5520      0.00000
     26       9.5520      0.00000

 k-point  18 :       0.4286    0.2857    0.2857
  band No.  band energies     occupation 
      1      -2.1010      2.00000
      2      -1.2989      2.00000
      3      -0.7481      2.00000
      4      -0.7481      2.00000
      5       0.2172      2.00000
      6       0.2172      2.00000
      7       0.3569      2.00000
      8       0.5372      2.00000
      9       0.6356      2.00000
     10       0.7155      2.00000
     11       0.7279      2.00000
     12       0.7279      2.00000
     13       0.8219      2.00000
     14       0.9445      2.00000
     15       1.0296      2.00000
     16       1.0296      2.00000
     17       1.8686      2.00000
     18       1.8819      2.00000
     19       2.0139      2.00000
     20       2.0139      2.00000
     21       2.0324      2.00000
     22       2.7754      1.99995
     23       5.0820      0.00000
     24       5.0820      0.00000
     25       7.9948      0.00000
     26       7.9948      0.00000

 k-point  19 :       0.4286    0.4286    0.2857
  band No.  band energies     occupation 
      1      -1.6035      2.00000
      2      -1.1479      2.00000
      3      -1.1479      2.00000
      4      -0.9739      2.00000
      5       0.4164      2.00000
      6       0.4933      2.00000
      7       0.4933      2.00000
      8       0.6687      2.00000
      9       0.7573      2.00000
     10       0.8281      2.00000
     11       0.8281      2.00000
     12       0.8622      2.00000
     13       0.9302      2.00000
     14       0.9396      2.00000
     15       0.9396      2.00000
     16       0.9951      2.00000
     17       1.8078      2.00000
     18       1.9674      2.00000
     19       1.9674      2.00000
     20       1.9723      2.00000
     21       2.3180      2.00000
     22       3.3638      1.79888
     23       3.3638      1.79888
     24       4.3520      0.00072
     25       7.7885      0.00000
     26       8.9292      0.00000

 k-point  20 :       0.4286    0.4286    0.4286
  band No.  band energies     occupation 
      1      -1.4501      2.00000
      2      -1.2475      2.00000
      3      -1.2475      2.00000
      4      -1.2475      2.00000
      5       0.5871      2.00000
      6       0.5871      2.00000
      7       0.5871      2.00000
      8       0.6719      2.00000
      9       0.6719      2.00000
     10       0.7096      2.00000
     11       0.7096      2.00000
     12       0.7096      2.00000
     13       1.5106      2.00000
     14       1.5106      2.00000
     15       1.5106      2.00000
     16       1.9476      2.00000
     17       1.9896      2.00000
     18       1.9896      2.00000
     19       2.0481      2.00000
     20       2.0481      2.00000
     21       2.0481      2.00000
     22       3.2928      1.89327
     23       3.2928      1.89327
     24       3.2928      1.89327
     25       7.6035      0.00000
     26       7.6035      0.00000


--------------------------------------------------------------------------------------------------------


 soft charge-density along one line, spin component           1
         0         1         2         3         4         5         6         7         8         9
 total charge-density along one line
 
 pseudopotential strength for first ion, spin component:           1
 -6.480   0.000   0.000   0.000   0.000  -0.238   0.000   0.000
  0.000  -6.480   0.000   0.000   0.000   0.000  -0.238   0.000
  0.000   0.000  -6.462   0.000   0.000   0.000   0.000  -0.246
  0.000   0.000   0.000  -6.480   0.000   0.000   0.000   0.000
  0.000   0.000   0.000   0.000  -6.462   0.000   0.000   0.000
 -0.238   0.000   0.000   0.000   0.000   1.674   0.000   0.000
  0.000  -0.238   0.000   0.000   0.000   0.000   1.674   0.000
  0.000   0.000  -0.246   0.000   0.000   0.000   0.000   1.678
  0.000   0.000   0.000  -0.238   0.000   0.000   0.000   0.000
  0.000   0.000   0.000   0.000  -0.246   0.000   0.000   0.000
  0.000   0.000   0.000   0.000   0.000   0.000   0.000   0.000
  0.000   0.000   0.000   0.000   0.000   0.000   0.000   0.000
  0.000   0.000   0.000   0.000   0.000   0.000   0.000   0.000
  0.000   0.000   0.000   0.000   0.000   0.000   0.000   0.000
  0.000   0.000   0.000   0.000   0.000   0.000   0.000   0.000
  0.000   0.000   0.000   0.000   0.000   0.000   0.000   0.000
  0.000   0.000   0.000   0.000   0.000   0.000   0.000   0.000
  0.000   0.000   0.000   0.000   0.000   0.000   0.000   0.000
 total augmentation occupancy for first ion, spin component:           1
  1.906   0.000   0.000   0.000   0.000  -0.017   0.000   0.000   0.000   0.000   0.000   0.000   0.000   0.000   0.000   0.000
  0.000   1.906   0.000   0.000   0.000   0.000  -0.017   0.000   0.000   0.000   0.000   0.000   0.000   0.000   0.000   0.000
  0.000   0.000   1.915   0.000   0.000   0.000   0.000  -0.057   0.000   0.000   0.000   0.000   0.000   0.000   0.000   0.000
  0.000   0.000   0.000   1.906   0.000   0.000   0.000   0.000  -0.017   0.000   0.000   0.000   0.000   0.000   0.000   0.000
  0.000   0.000   0.000   0.000   1.915   0.000   0.000   0.000   0.000  -0.057   0.000   0.000   0.000   0.000   0.000   0.000
 -0.017   0.000   0.000   0.000   0.000   0.079   0.000   0.000   0.000   0.000   0.000   0.000   0.000   0.000   0.000   0.000
  0.000  -0.017   0.000   0.000   0.000   0.000   0.079   0.000   0.000   0.000   0.000   0.000   0.000   0.000   0.000   0.000
  0.000   0.000  -0.057   0.000   0.000   0.000   0.000   0.074   0.000   0.000   0.000   0.000   0.000   0.000   0.000   0.000
  0.000   0.000   0.000  -0.017   0.000   0.000   0.000   0.000   0.079   0.000   0.000   0.000   0.000   0.000   0.000   0.000
  0.000   0.000   0.000   0.000  -0.057   0.000   0.000   0.000   0.000   0.074   0.000   0.000   0.000   0.000   0.000   0.000
  0.000   0.000   0.000   0.000   0.000   0.000   0.000   0.000   0.000   0.000   1.203  -0.355   0.000   0.000   0.000   0.000
  0.000   0.000   0.000   0.000   0.000   0.000   0.000   0.000   0.000   0.000  -0.355   0.151   0.000   0.000   0.000   0.000
  0.000   0.000   0.000   0.000   0.000   0.000   0.000   0.000   0.000   0.000   0.000   0.000   0.190   0.000   0.000  -0.013
  0.000   0.000   0.000   0.000   0.000   0.000   0.000   0.000   0.000   0.000   0.000   0.000   0.000   0.190   0.000   0.000
  0.000   0.000   0.000   0.000   0.000   0.000   0.000   0.000   0.000   0.000   0.000   0.000   0.000   0.000   0.190   0.000
  0.000   0.000   0.000   0.000   0.000   0.000   0.000   0.000   0.000   0.000   0.000   0.000  -0.013   0.000   0.000   0.001
  0.000   0.000   0.000   0.000   0.000   0.000   0.000   0.000   0.000   0.000   0.000   0.000   0.000  -0.013   0.000   0.000
  0.000   0.000   0.000   0.000   0.000   0.000   0.000   0.000   0.000   0.000   0.000   0.000   0.000   0.000  -0.013   0.000


------------------------ aborting loop because EDIFF is reached ----------------------------------------


    CHARGE:  cpu time    0.10: real time    0.10
    FORLOC:  cpu time    0.00: real time    0.00
    FORNL :  cpu time    0.90: real time    0.90
    STRESS:  cpu time    0.75: real time    0.75
    FORCOR:  cpu time    0.06: real time    0.06
    FORHAR:  cpu time    0.02: real time    0.02
    MIXING:  cpu time    0.00: real time    0.00

  FORCE on cell =-STRESS in cart. coord.  units (eV):
  Direction    XX          YY          ZZ          XY          YZ          ZX
  --------------------------------------------------------------------------------------
  Alpha Z   427.83488   427.83488   427.83488
  Ewald   -1467.66720 -1467.66720 -1467.66720     0.00000     0.00000     0.00000
  Hartree   408.46543   408.46543   408.46543     0.00000     0.00000     0.00000
  E(xc)    -250.59377  -250.59377  -250.59377     0.00000     0.00000     0.00000
  Local     487.83110   487.83110   487.83110     0.00000     0.00000     0.00000
  n-local  -142.38063  -147.58103  -149.10576     0.18521     1.58082     0.76433
  augment   226.14611   226.14611   226.14610    -0.00001    -0.00001     0.00000
  Kinetic   321.34784   313.96716   307.86250    -3.71262    -0.26414    -1.16662
  Fock        0.00000     0.00000     0.00000     0.00000     0.00000     0.00000
  -------------------------------------------------------------------------------------
  Total       0.05324     0.05324     0.05324     0.00000     0.00000     0.00000
  in kB       1.78519     1.78519     1.78519     0.00000     0.00000     0.00000
  external pressure =        1.79 kB  Pullay stress =        0.00 kB


 VOLUME and BASIS-vectors are now :
 -----------------------------------------------------------------------------
  energy-cutoff  :      415.00
  volume of cell :       47.78
      direct lattice vectors                 reciprocal lattice vectors
     3.628683313  0.000000000  0.000000000     0.275582054  0.000000000  0.000000000
     0.000000000  3.628683313  0.000000000     0.000000000  0.275582054  0.000000000
     0.000000000  0.000000000  3.628683313     0.000000000  0.000000000  0.275582054

  length of vectors
     3.628683313  3.628683313  3.628683313     0.275582054  0.275582054  0.275582054


 FORCES acting on ions
    electron-ion (+dipol)            ewald-force                    non-local-force                 convergence-correction
 -----------------------------------------------------------------------------------------------
   -.372E-13 -.323E-13 -.106E-12   0.196E-13 -.408E-14 0.468E-14   0.165E-23 0.000E+00 -.103E-23   -.363E-14 0.423E-13 -.112E-12
   0.583E-12 0.609E-12 0.597E-12   0.871E-17 0.121E-13 0.456E-14   0.827E-24 -.248E-23 0.207E-23   0.168E-13 0.175E-13 -.152E-12
   0.574E-12 -.273E-13 -.593E-12   0.105E-13 -.116E-13 -.583E-14   -.124E-23 -.827E-24 0.827E-24   -.360E-14 0.270E-13 -.976E-13
   -.348E-13 0.596E-12 0.538E-12   -.314E-13 0.454E-14 -.596E-14   0.165E-23 -.248E-23 -.124E-23   0.575E-14 0.321E-13 -.648E-13
 -----------------------------------------------------------------------------------------------
   0.109E-11 0.115E-11 0.436E-12   -.125E-14 0.915E-15 -.255E-14   0.290E-23 -.579E-23 0.620E-24   0.154E-13 0.119E-12 -.426E-12
 
 
 POSITION                                       TOTAL-FORCE (eV/Angst)
 -----------------------------------------------------------------------------------
      0.00000      0.00000      0.00000         0.000000      0.000000      0.000000
      1.81434      1.81434      0.00000         0.000000      0.000000      0.000000
      1.81434      0.00000      1.81434         0.000000      0.000000      0.000000
      0.00000      1.81434      1.81434         0.000000      0.000000      0.000000
 -----------------------------------------------------------------------------------
    total drift:                                0.000000      0.000000      0.000000


--------------------------------------------------------------------------------------------------------



  FREE ENERGIE OF THE ION-ELECTRON SYSTEM (eV)
  ---------------------------------------------------
  free  energy   TOTEN  =       -14.903121 eV

  energy  without entropy=      -14.849753  energy(sigma->0) =      -14.876437
 
 d Force = 0.0000000E+00[ 0.000E+00, 0.000E+00]  d Energy = 0.4048875E-03-0.405E-03
 d Force = 0.0000000E+00[ 0.000E+00, 0.000E+00]  d Ewald  =-0.4480525E+01 0.448E+01


--------------------------------------------------------------------------------------------------------


    POTLOK:  cpu time    0.08: real time    0.08


--------------------------------------------------------------------------------------------------------




--------------------------------------------------------------------------------------------------------


  
 reached required accuracy - stopping structural energy minimisation
 writing wavefunctions
     LOOP+:  cpu time    9.80: real time    9.80
    4ORBIT:  cpu time    0.00: real time    0.00

 total amount of memory used by VASP on root node    39186. kBytes
========================================================================

   base      :      30000. kBytes
   nonl-proj :       2726. kBytes
   fftplans  :        848. kBytes
   grid      :       1399. kBytes
   one-center:         62. kBytes
   wavefun   :       4151. kBytes
 
  
  
 General timing and accounting informations for this job:
 ========================================================
  
                  Total CPU time used (sec):       58.504
                            User time (sec):       57.888
                          System time (sec):        0.616
                         Elapsed time (sec):       59.608
  
                   Maximum memory used (kb):           0.
                   Average memory used (kb):           0.
  
                          Minor page faults:        63590
                          Major page faults:            3
                 Voluntary context switches:          490
